# vtk DataFile Version 2.0
MATLAB FEM Results
ASCII
DATASET UNSTRUCTURED_GRID
POINTS 6849 float
1.000000 0.000000 0.000000
0.000000 1.000000 0.000000
0.000000 20.000000 0.000000
20.000000 20.000000 0.000000
20.000000 0.000000 0.000000
0.999802 0.019882 0.000000
0.999209 0.039757 0.000000
0.998221 0.059615 0.000000
0.996839 0.079450 0.000000
0.995062 0.099254 0.000000
0.992892 0.119018 0.000000
0.990329 0.138736 0.000000
0.987375 0.158398 0.000000
0.984031 0.177998 0.000000
0.980297 0.197527 0.000000
0.976176 0.216979 0.000000
0.971669 0.236344 0.000000
0.966778 0.255617 0.000000
0.961505 0.274788 0.000000
0.955851 0.293850 0.000000
0.949820 0.312797 0.000000
0.943413 0.331619 0.000000
0.936633 0.350311 0.000000
0.929483 0.368864 0.000000
0.921966 0.387271 0.000000
0.914084 0.405525 0.000000
0.905840 0.423619 0.000000
0.897239 0.441545 0.000000
0.888283 0.459297 0.000000
0.878975 0.476868 0.000000
0.869320 0.494249 0.000000
0.859322 0.511435 0.000000
0.848983 0.528420 0.000000
0.838309 0.545195 0.000000
0.827304 0.561754 0.000000
0.815972 0.578092 0.000000
0.804317 0.594201 0.000000
0.792344 0.610075 0.000000
0.780057 0.625708 0.000000
0.767463 0.641094 0.000000
0.754565 0.656226 0.000000
0.741368 0.671098 0.000000
0.727879 0.685706 0.000000
0.714102 0.700042 0.000000
0.700042 0.714102 0.000000
0.685706 0.727879 0.000000
0.671098 0.741368 0.000000
0.656226 0.754565 0.000000
0.641094 0.767463 0.000000
0.625708 0.780057 0.000000
0.610075 0.792344 0.000000
0.594201 0.804317 0.000000
0.578092 0.815972 0.000000
0.561754 0.827304 0.000000
0.545195 0.838309 0.000000
0.528420 0.848983 0.000000
0.511435 0.859322 0.000000
0.494249 0.869320 0.000000
0.476868 0.878975 0.000000
0.459297 0.888283 0.000000
0.441545 0.897239 0.000000
0.423619 0.905840 0.000000
0.405525 0.914084 0.000000
0.387271 0.921966 0.000000
0.368864 0.929483 0.000000
0.350311 0.936633 0.000000
0.331619 0.943413 0.000000
0.312797 0.949820 0.000000
0.293850 0.955851 0.000000
0.274788 0.961505 0.000000
0.255617 0.966778 0.000000
0.236344 0.971669 0.000000
0.216979 0.976176 0.000000
0.197527 0.980297 0.000000
0.177998 0.984031 0.000000
0.158398 0.987375 0.000000
0.138736 0.990329 0.000000
0.119018 0.992892 0.000000
0.099254 0.995062 0.000000
0.079450 0.996839 0.000000
0.059615 0.998221 0.000000
0.039757 0.999209 0.000000
0.019882 0.999802 0.000000
0.000000 19.004812 0.000000
0.000000 18.009623 0.000000
0.000000 17.014435 0.000000
0.000000 16.019247 0.000000
0.000000 15.024058 0.000000
0.000000 14.028870 0.000000
0.000000 13.033682 0.000000
0.000000 12.038494 0.000000
0.000000 11.043305 0.000000
0.000000 10.048117 0.000000
0.000000 9.132205 0.000000
0.000000 8.469813 0.000000
0.000000 7.996382 0.000000
0.000000 7.598307 0.000000
0.000000 7.200231 0.000000
0.000000 6.802156 0.000000
0.000000 6.404081 0.000000
0.000000 6.006005 0.000000
0.000000 5.607930 0.000000
0.000000 5.209855 0.000000
0.000000 4.812207 0.000000
0.000000 4.457389 0.000000
0.000000 4.198638 0.000000
0.000000 4.014796 0.000000
0.000000 3.865274 0.000000
0.000000 3.715996 0.000000
0.000000 3.566718 0.000000
0.000000 3.417440 0.000000
0.000000 3.268161 0.000000
0.000000 3.118883 0.000000
0.000000 2.969605 0.000000
0.000000 2.820327 0.000000
0.000000 2.671048 0.000000
0.000000 2.521770 0.000000
0.000000 2.372492 0.000000
0.000000 2.238557 0.000000
0.000000 2.127506 0.000000
0.000000 2.050263 0.000000
0.000000 1.992450 0.000000
0.000000 1.942690 0.000000
0.000000 1.892931 0.000000
0.000000 1.843171 0.000000
0.000000 1.793412 0.000000
0.000000 1.743653 0.000000
0.000000 1.693893 0.000000
0.000000 1.644134 0.000000
0.000000 1.594374 0.000000
0.000000 1.552187 0.000000
0.000000 1.520545 0.000000
0.000000 1.497594 0.000000
0.000000 1.477690 0.000000
0.000000 1.457787 0.000000
0.000000 1.437883 0.000000
0.000000 1.417979 0.000000
0.000000 1.398075 0.000000
0.000000 1.378172 0.000000
0.000000 1.358268 0.000000
0.000000 1.338364 0.000000
0.000000 1.318460 0.000000
0.000000 1.298556 0.000000
0.000000 1.278653 0.000000
0.000000 1.258749 0.000000
0.000000 1.238845 0.000000
0.000000 1.218941 0.000000
0.000000 1.199038 0.000000
0.000000 1.179134 0.000000
0.000000 1.159230 0.000000
0.000000 1.139326 0.000000
0.000000 1.119423 0.000000
0.000000 1.099519 0.000000
0.000000 1.079615 0.000000
0.000000 1.059711 0.000000
0.000000 1.039808 0.000000
0.000000 1.019904 0.000000
19.000000 20.000000 0.000000
18.000000 20.000000 0.000000
17.000000 20.000000 0.000000
16.000000 20.000000 0.000000
15.000000 20.000000 0.000000
14.000000 20.000000 0.000000
13.000000 20.000000 0.000000
12.000000 20.000000 0.000000
11.000000 20.000000 0.000000
10.000000 20.000000 0.000000
9.000000 20.000000 0.000000
8.000000 20.000000 0.000000
7.000000 20.000000 0.000000
6.000000 20.000000 0.000000
5.000000 20.000000 0.000000
4.000000 20.000000 0.000000
3.000000 20.000000 0.000000
2.000000 20.000000 0.000000
1.000000 20.000000 0.000000
20.000000 1.000000 0.000000
20.000000 2.000000 0.000000
20.000000 3.000000 0.000000
20.000000 4.000000 0.000000
20.000000 5.000000 0.000000
20.000000 6.000000 0.000000
20.000000 7.000000 0.000000
20.000000 8.000000 0.000000
20.000000 9.000000 0.000000
20.000000 10.000000 0.000000
20.000000 11.000000 0.000000
20.000000 12.000000 0.000000
20.000000 13.000000 0.000000
20.000000 14.000000 0.000000
20.000000 15.000000 0.000000
20.000000 16.000000 0.000000
20.000000 17.000000 0.000000
20.000000 18.000000 0.000000
20.000000 19.000000 0.000000
1.019904 0.000000 0.000000
1.039808 0.000000 0.000000
1.059711 0.000000 0.000000
1.079615 0.000000 0.000000
1.099519 0.000000 0.000000
1.119423 0.000000 0.000000
1.139326 0.000000 0.000000
1.159230 0.000000 0.000000
1.179134 0.000000 0.000000
1.199038 0.000000 0.000000
1.218941 0.000000 0.000000
1.238845 0.000000 0.000000
1.258749 0.000000 0.000000
1.278653 0.000000 0.000000
1.298556 0.000000 0.000000
1.318460 0.000000 0.000000
1.338364 0.000000 0.000000
1.358268 0.000000 0.000000
1.378172 0.000000 0.000000
1.398075 0.000000 0.000000
1.417979 0.000000 0.000000
1.437883 0.000000 0.000000
1.457787 0.000000 0.000000
1.477690 0.000000 0.000000
1.497594 0.000000 0.000000
1.520545 0.000000 0.000000
1.552187 0.000000 0.000000
1.594374 0.000000 0.000000
1.644134 0.000000 0.000000
1.693893 0.000000 0.000000
1.743653 0.000000 0.000000
1.793412 0.000000 0.000000
1.843171 0.000000 0.000000
1.892931 0.000000 0.000000
1.942690 0.000000 0.000000
1.992450 0.000000 0.000000
2.050263 0.000000 0.000000
2.127506 0.000000 0.000000
2.238557 0.000000 0.000000
2.372492 0.000000 0.000000
2.521770 0.000000 0.000000
2.671048 0.000000 0.000000
2.820327 0.000000 0.000000
2.969605 0.000000 0.000000
3.118883 0.000000 0.000000
3.268161 0.000000 0.000000
3.417440 0.000000 0.000000
3.566718 0.000000 0.000000
3.715996 0.000000 0.000000
3.865274 0.000000 0.000000
4.014796 0.000000 0.000000
4.198638 0.000000 0.000000
4.457389 0.000000 0.000000
4.812207 0.000000 0.000000
5.209855 0.000000 0.000000
5.607930 0.000000 0.000000
6.006005 0.000000 0.000000
6.404081 0.000000 0.000000
6.802156 0.000000 0.000000
7.200231 0.000000 0.000000
7.598307 0.000000 0.000000
7.996382 0.000000 0.000000
8.469813 0.000000 0.000000
9.132205 0.000000 0.000000
10.048117 0.000000 0.000000
11.043305 0.000000 0.000000
12.038494 0.000000 0.000000
13.033682 0.000000 0.000000
14.028870 0.000000 0.000000
15.024058 0.000000 0.000000
16.019247 0.000000 0.000000
17.014435 0.000000 0.000000
18.009623 0.000000 0.000000
19.004812 0.000000 0.000000
0.033526 1.968129 0.000000
1.970584 0.044546 0.000000
0.401455 0.936936 0.000000
0.933047 0.401704 0.000000
1.508960 0.021233 0.000000
0.022777 1.508903 0.000000
3.939383 0.141252 0.000000
0.133122 3.938152 0.000000
0.017368 1.366394 0.000000
1.369168 0.017839 0.000000
0.308406 0.968839 0.000000
0.970062 0.308385 0.000000
0.123767 3.050422 0.000000
7.793460 0.379061 0.000000
3.034215 0.135483 0.000000
0.385065 7.798949 0.000000
0.039046 1.667173 0.000000
1.669572 0.038828 0.000000
0.015659 1.268716 0.000000
1.268701 0.017237 0.000000
5.872985 0.375825 0.000000
0.303040 4.993794 0.000000
0.094005 2.300637 0.000000
2.305524 0.106082 0.000000
0.211835 0.994344 0.000000
0.994616 0.211262 0.000000
0.475815 0.898213 0.000000
0.897838 0.475597 0.000000
9.548180 19.053391 0.000000
19.211729 9.618609 0.000000
0.018656 1.189771 0.000000
1.189224 0.016703 0.000000
0.827530 10.545711 0.000000
10.585585 0.771361 0.000000
4.633235 0.254099 0.000000
0.130893 1.008614 0.000000
1.008119 0.131252 0.000000
13.500000 19.133975 0.000000
0.806914 13.580087 0.000000
1.818052 0.049416 0.000000
0.041137 1.820673 0.000000
13.532417 0.798468 0.000000
0.360064 6.175207 0.000000
19.134233 13.498047 0.000000
6.516802 19.195246 0.000000
19.134294 6.582011 0.000000
0.017597 1.126519 0.000000
1.129792 0.016295 0.000000
1.425723 0.015188 0.000000
0.015486 1.427894 0.000000
0.129279 3.492079 0.000000
3.492079 0.129279 0.000000
0.070836 1.014652 0.000000
1.013957 0.069066 0.000000
19.167518 3.443516 0.000000
3.604000 19.021771 0.000000
16.548529 19.045508 0.000000
2.594693 0.120660 0.000000
0.113973 2.603512 0.000000
1.569945 0.031359 0.000000
0.034020 1.566683 0.000000
0.162668 4.322478 0.000000
8.801009 0.491826 0.000000
0.481117 8.776843 0.000000
2.087616 0.051060 0.000000
0.062041 2.084242 0.000000
0.015743 1.067115 0.000000
1.069891 0.017915 0.000000
0.251161 0.986016 0.000000
0.985276 0.249880 0.000000
1.002212 0.170619 0.000000
0.170392 1.004162 0.000000
0.348601 0.958215 0.000000
0.956081 0.346147 0.000000
0.919348 0.439555 0.000000
0.439778 0.917728 0.000000
0.934176 16.583624 0.000000
16.572913 0.902228 0.000000
19.127217 16.492323 0.000000
11.495635 19.146992 0.000000
19.109914 11.466369 0.000000
1.228893 0.016771 0.000000
6.622503 0.329357 0.000000
0.017880 1.227441 0.000000
1.308508 0.017237 0.000000
0.015893 1.307814 0.000000
1.467512 0.016877 0.000000
0.324123 6.999951 0.000000
0.016151 1.466809 0.000000
0.031218 1.016254 0.000000
1.014206 0.030570 0.000000
1.540447 19.157298 0.000000
19.157195 1.540250 0.000000
18.401494 19.084554 0.000000
4.370815 0.270164 0.000000
4.476848 0.485210 0.000000
4.756232 0.532303 0.000000
4.589522 0.744848 0.000000
4.312047 0.699210 0.000000
4.424097 0.966591 0.000000
4.133525 0.918456 0.000000
4.205974 1.181068 0.000000
3.987986 1.201783 0.000000
4.013530 1.419034 0.000000
3.790122 1.393107 0.000000
3.903595 1.609986 0.000000
3.736967 1.560803 0.000000
4.145494 1.680885 0.000000
4.016454 1.894847 0.000000
4.338413 1.959092 0.000000
4.128742 2.215265 0.000000
4.491862 2.299783 0.000000
4.207121 2.608198 0.000000
4.621517 2.674415 0.000000
4.378793 2.998814 0.000000
4.748171 3.060992 0.000000
4.482972 3.361662 0.000000
4.869957 3.438206 0.000000
4.542364 3.758750 0.000000
4.985810 3.820879 0.000000
4.718781 4.120854 0.000000
5.121720 4.196979 0.000000
5.386046 3.897873 0.000000
5.514135 4.276779 0.000000
5.249145 4.576126 0.000000
5.641190 4.656057 0.000000
5.376027 4.955465 0.000000
5.767981 5.035428 0.000000
5.502775 5.334852 0.000000
5.894706 5.414822 0.000000
5.629489 5.714250 0.000000
6.021415 5.794223 0.000000
5.756195 6.093652 0.000000
6.151937 6.177006 0.000000
5.883535 6.473618 0.000000
6.280013 6.555361 0.000000
6.021522 6.849283 0.000000
6.409991 6.932824 0.000000
6.158410 7.225149 0.000000
6.533322 7.310783 0.000000
6.793450 7.012403 0.000000
6.915260 7.393548 0.000000
6.634579 7.788981 0.000000
7.094851 7.731220 0.000000
7.366707 7.406778 0.000000
7.433964 7.754303 0.000000
7.196492 8.151777 0.000000
7.696936 7.588710 0.000000
7.785975 7.985799 0.000000
8.080553 7.593213 0.000000
8.406500 8.147943 0.000000
5.593749 6.814217 0.000000
3.963347 2.909280 0.000000
4.347673 4.104201 0.000000
6.159928 5.115393 0.000000
8.786125 7.529245 0.000000
9.150195 8.262647 0.000000
8.703026 8.839263 0.000000
9.480803 8.941446 0.000000
9.035000 9.574713 0.000000
9.814432 9.654471 0.000000
9.927491 8.308654 0.000000
9.358287 10.301811 0.000000
10.157346 10.379822 0.000000
5.779438 3.977321 0.000000
5.237565 5.634277 0.000000
9.688336 11.040217 0.000000
10.502837 11.124785 0.000000
10.968020 10.434780 0.000000
8.878246 10.957435 0.000000
11.331267 11.205331 0.000000
3.747832 1.219391 0.000000
6.499397 8.402314 0.000000
9.210564 11.712040 0.000000
8.365693 11.615798 0.000000
11.808211 10.494553 0.000000
12.179630 11.279318 0.000000
11.683977 11.985989 0.000000
12.550681 12.063320 0.000000
5.022312 2.760471 0.000000
8.721411 12.395384 0.000000
7.852728 12.293791 0.000000
12.672229 10.575723 0.000000
8.195576 13.072762 0.000000
7.345995 12.993992 0.000000
12.043371 12.780505 0.000000
12.928183 12.861043 0.000000
4.755274 1.022446 0.000000
12.408618 13.592868 0.000000
13.305444 13.678645 0.000000
7.577826 13.773243 0.000000
6.825624 13.702019 0.000000
6.484669 12.896618 0.000000
5.950640 13.611873 0.000000
5.602771 12.795251 0.000000
13.823065 12.935669 0.000000
14.213974 13.763946 0.000000
3.776541 2.134994 0.000000
12.777910 14.417521 0.000000
11.874285 14.328758 0.000000
12.294621 9.785288 0.000000
13.157181 9.859102 0.000000
12.794796 9.084818 0.000000
13.656692 9.144527 0.000000
13.279367 8.341043 0.000000
14.168061 8.423036 0.000000
13.783826 7.609496 0.000000
14.563568 9.161649 0.000000
6.278714 14.414976 0.000000
5.404070 14.334155 0.000000
14.687014 7.698615 0.000000
14.297703 6.870424 0.000000
13.393520 6.796812 0.000000
13.900697 6.052335 0.000000
12.999831 5.994139 0.000000
14.816917 6.114913 0.000000
14.410598 5.287487 0.000000
14.742182 13.003694 0.000000
15.137079 13.848189 0.000000
8.234180 7.022799 0.000000
8.813379 6.758827 0.000000
8.114980 6.314910 0.000000
8.890400 6.035613 0.000000
8.278516 5.546248 0.000000
9.051695 5.311287 0.000000
8.478546 4.833914 0.000000
9.202080 4.589490 0.000000
8.697398 4.116381 0.000000
6.123634 12.090283 0.000000
5.252029 11.988177 0.000000
4.727283 12.688524 0.000000
4.380555 11.880451 0.000000
15.338272 5.348910 0.000000
4.465013 4.428044 0.000000
4.064189 4.353969 0.000000
4.200315 4.715524 0.000000
3.804609 4.649362 0.000000
3.934464 5.017255 0.000000
3.557510 4.948460 0.000000
3.672158 5.317013 0.000000
3.441075 4.612798 0.000000
3.242333 5.224893 0.000000
3.399097 5.612664 0.000000
3.002012 5.550950 0.000000
3.136719 5.915901 0.000000
2.745269 5.836563 0.000000
2.873995 6.212928 0.000000
3.266134 6.292643 0.000000
3.000877 6.592115 0.000000
3.392831 6.672053 0.000000
3.127615 6.971475 0.000000
3.519538 7.051450 0.000000
3.254318 7.350878 0.000000
2.620804 5.453864 0.000000
2.862394 7.270904 0.000000
2.989097 7.650307 0.000000
2.597174 7.570333 0.000000
3.390651 7.738810 0.000000
3.074781 8.137668 0.000000
2.481877 6.133288 0.000000
3.591191 8.227293 0.000000
3.784759 6.752021 0.000000
3.193649 8.714120 0.000000
3.858591 8.792595 0.000000
6.417794 5.878140 0.000000
5.769216 15.175027 0.000000
4.852574 15.074912 0.000000
6.692546 15.048529 0.000000
3.927625 3.967162 0.000000
14.598195 14.609491 0.000000
14.928487 4.509201 0.000000
13.997374 4.451656 0.000000
9.356981 3.873696 0.000000
8.797271 3.372240 0.000000
9.935790 4.354226 0.000000
12.241802 15.162720 0.000000
11.324091 15.074169 0.000000
15.535652 14.700031 0.000000
14.992726 15.473000 0.000000
15.666302 13.078541 0.000000
4.727791 1.990533 0.000000
9.578551 5.880769 0.000000
5.227371 15.931935 0.000000
8.104345 3.662413 0.000000
8.162195 2.948647 0.000000
15.746545 6.188559 0.000000
8.035436 10.853908 0.000000
3.437920 9.395187 0.000000
10.077342 3.604765 0.000000
10.683082 4.102393 0.000000
7.684211 3.188510 0.000000
7.884486 2.577646 0.000000
7.376387 2.818190 0.000000
5.772422 11.298846 0.000000
4.300719 15.826242 0.000000
10.842714 3.304466 0.000000
3.967032 14.988144 0.000000
16.278474 5.412033 0.000000
12.500674 6.729113 0.000000
15.905394 15.580573 0.000000
3.852694 12.582752 0.000000
15.270493 12.234170 0.000000
3.513579 11.726868 0.000000
11.701611 15.915890 0.000000
10.775961 15.826610 0.000000
8.258763 2.330414 0.000000
8.974734 13.163186 0.000000
14.513079 3.663971 0.000000
15.452139 3.721988 0.000000
15.379729 16.350863 0.000000
13.585792 3.634945 0.000000
5.652748 3.597914 0.000000
6.044919 3.677799 0.000000
5.918259 3.298380 0.000000
4.062072 5.395178 0.000000
6.171663 4.057186 0.000000
6.436934 3.757739 0.000000
6.563653 4.137136 0.000000
2.470471 7.190931 0.000000
2.205250 7.490360 0.000000
2.078547 7.110957 0.000000
1.813326 7.410386 0.000000
1.686623 7.030984 0.000000
1.960038 7.807512 0.000000
7.980032 1.984878 0.000000
16.203067 12.307461 0.000000
16.345951 16.438080 0.000000
14.433604 16.254154 0.000000
4.137660 9.482926 0.000000
1.529276 7.720171 0.000000
15.804640 11.458510 0.000000
16.549730 14.843815 0.000000
4.223348 8.107561 0.000000
2.707445 9.260572 0.000000
4.674823 16.696117 0.000000
3.719817 16.571297 0.000000
7.049915 8.873415 0.000000
6.333401 9.110238 0.000000
5.617361 16.798116 0.000000
15.032474 2.870879 0.000000
12.120689 5.939547 0.000000
11.638022 6.654150 0.000000
1.675713 8.170024 0.000000
6.828884 3.837703 0.000000
16.688948 6.265228 0.000000
17.229963 5.478183 0.000000
3.968636 0.656687 0.000000
11.157692 16.675515 0.000000
10.231161 16.584353 0.000000
9.847539 15.732015 0.000000
9.302962 16.487945 0.000000
12.074797 16.761378 0.000000
13.539094 10.609208 0.000000
11.932892 9.017165 0.000000
15.961674 2.937732 0.000000
14.823020 17.132778 0.000000
16.716430 11.514052 0.000000
16.336989 10.677375 0.000000
2.974962 12.469560 0.000000
6.955592 4.217104 0.000000
6.702183 3.458300 0.000000
2.958426 9.985481 0.000000
10.209268 2.776606 0.000000
5.057866 17.574234 0.000000
8.922529 15.633791 0.000000
8.356991 16.388374 0.000000
11.004101 2.457831 0.000000
11.174846 12.688597 0.000000
11.432931 3.833007 0.000000
2.627003 11.659850 0.000000
8.333801 1.765841 0.000000
17.257961 12.415119 0.000000
17.254517 10.731123 0.000000
16.880520 9.894153 0.000000
7.392057 2.181435 0.000000
8.751716 17.249273 0.000000
7.747414 17.123121 0.000000
6.924214 9.588018 0.000000
7.972415 1.398173 0.000000
7.591704 1.541543 0.000000
12.599674 5.196588 0.000000
10.956903 14.233935 0.000000
10.608362 17.437921 0.000000
4.592152 4.797489 0.000000
6.690372 4.516533 0.000000
7.082299 4.596505 0.000000
6.817078 4.895934 0.000000
1.951844 6.731554 0.000000
1.559920 6.651581 0.000000
1.294699 6.951010 0.000000
1.167997 6.571607 0.000000
1.433218 6.272178 0.000000
11.300959 5.908352 0.000000
8.882302 2.126046 0.000000
5.800552 8.602050 0.000000
5.603784 9.301365 0.000000
16.150655 7.048396 0.000000
17.101513 7.123380 0.000000
16.561527 7.911927 0.000000
17.515106 7.986819 0.000000
10.806089 6.590319 0.000000
11.156207 7.346582 0.000000
8.186860 18.012424 0.000000
16.813188 4.622191 0.000000
3.313922 13.264304 0.000000
9.470131 14.888827 0.000000
13.875847 17.035540 0.000000
4.076839 11.017544 0.000000
3.786394 1.847325 0.000000
1.048260 6.189878 0.000000
1.307676 5.892388 0.000000
0.922912 5.810023 0.000000
1.181392 5.512845 0.000000
1.571969 5.593269 0.000000
1.445335 5.213843 0.000000
1.844694 5.287868 0.000000
1.714067 4.912890 0.000000
1.318330 4.834541 0.000000
1.596733 4.544966 0.000000
1.965008 4.601492 0.000000
1.791094 4.198663 0.000000
1.478321 4.198003 0.000000
1.713421 3.955850 0.000000
1.410684 3.953882 0.000000
1.992749 4.012970 0.000000
1.913715 3.837303 0.000000
9.473165 7.058690 0.000000
7.681319 5.785781 0.000000
7.209003 4.975907 0.000000
6.943782 5.275337 0.000000
8.934900 1.558613 0.000000
2.095486 12.363989 0.000000
2.143511 9.729862 0.000000
17.773452 4.690114 0.000000
17.399804 3.653874 0.000000
6.621629 11.396628 0.000000
15.420974 10.623568 0.000000
8.261251 9.496322 0.000000
1.207196 8.075086 0.000000
1.432146 8.690736 0.000000
5.525700 3.221692 0.000000
5.791640 2.918948 0.000000
6.183550 2.998926 0.000000
6.060085 2.618442 0.000000
6.449319 2.699313 0.000000
6.322708 2.319880 0.000000
5.934026 2.238824 0.000000
6.196127 1.940436 0.000000
5.808129 1.859152 0.000000
6.069579 1.560982 0.000000
6.460671 1.641233 0.000000
5.681586 1.479696 0.000000
6.334058 1.261800 0.000000
6.706250 1.348363 0.000000
5.549237 2.148071 0.000000
6.714055 2.400046 0.000000
6.828180 1.729360 0.000000
1.965407 5.670246 0.000000
3.911463 7.131423 0.000000
4.176684 6.831993 0.000000
4.049981 6.452591 0.000000
4.441905 6.532564 0.000000
4.568608 6.911967 0.000000
4.833829 6.612538 0.000000
4.943917 6.977224 0.000000
4.707126 6.233135 0.000000
5.099050 6.313108 0.000000
13.141251 15.265861 0.000000
7.085234 3.541236 0.000000
6.080485 17.658377 0.000000
15.523750 2.085534 0.000000
9.502165 1.888966 0.000000
14.675830 1.890272 0.000000
2.187925 8.249725 0.000000
0.787992 5.447233 0.000000
4.095663 3.273378 0.000000
2.206244 0.116268 0.000000
4.212089 3.657246 0.000000
3.820179 3.577207 0.000000
6.593514 0.975111 0.000000
6.994686 1.084726 0.000000
6.203538 0.894403 0.000000
0.102079 2.200690 0.000000
0.177511 2.241904 0.000000
0.190495 2.336091 0.000000
0.263716 2.278179 0.000000
0.247109 2.186561 0.000000
0.336489 2.219014 0.000000
0.747414 0.690139 0.000000
0.824095 0.596240 0.000000
0.657814 0.774764 0.000000
0.579737 0.835787 0.000000
0.787127 0.644208 0.000000
0.702967 0.732312 0.000000
0.857721 0.545582 0.000000
0.528881 0.868861 0.000000
0.323204 2.129411 0.000000
0.409537 2.157635 0.000000
0.430511 2.252834 0.000000
0.509035 2.188511 0.000000
0.530643 2.294314 0.000000
0.615964 2.223242 0.000000
0.590999 2.121603 0.000000
0.701535 2.146271 0.000000
0.663205 2.021797 0.000000
0.783434 2.061171 0.000000
0.763540 1.949923 0.000000
0.865588 2.003627 0.000000
0.822638 2.187487 0.000000
0.665739 1.930257 0.000000
0.612507 0.812077 0.000000
0.640350 2.340330 0.000000
0.550193 2.408569 0.000000
0.661875 2.466068 0.000000
0.539695 2.541420 0.000000
0.688005 2.603696 0.000000
0.572758 2.693620 0.000000
0.713343 2.749205 0.000000
0.829243 2.656546 0.000000
0.854480 2.802015 0.000000
0.969142 2.707094 0.000000
0.995271 2.853560 0.000000
1.110279 2.757269 0.000000
1.136222 2.904807 0.000000
1.251230 2.808465 0.000000
1.021194 3.001086 0.000000
1.277142 2.956173 0.000000
1.392147 2.859843 0.000000
1.366241 2.712101 0.000000
1.507149 2.763528 0.000000
1.481244 2.615783 0.000000
1.622148 2.667221 0.000000
1.596244 2.519475 0.000000
1.737148 2.570913 0.000000
1.713386 2.425725 0.000000
1.852505 2.475032 0.000000
1.827440 2.328289 0.000000
1.967407 2.378608 0.000000
1.943526 2.233278 0.000000
2.082571 2.282498 0.000000
2.056694 2.134784 0.000000
2.108133 2.429835 0.000000
1.917021 2.060496 0.000000
2.044318 2.000303 0.000000
1.897370 1.929731 0.000000
2.173648 2.040329 0.000000
2.123700 1.896366 0.000000
2.283037 1.943059 0.000000
2.251703 1.796643 0.000000
2.399269 1.846022 0.000000
2.373569 1.698154 0.000000
2.221401 1.648195 0.000000
2.346966 1.550270 0.000000
2.199141 1.498818 0.000000
2.321553 1.402230 0.000000
2.180730 1.350741 0.000000
2.463692 1.453622 0.000000
1.763053 2.718660 0.000000
2.438075 1.305819 0.000000
2.579233 1.357240 0.000000
2.426283 1.993425 0.000000
2.541673 1.896939 0.000000
2.567828 2.044598 0.000000
1.563194 2.364229 0.000000
2.553419 1.209482 0.000000
2.682935 1.948246 0.000000
2.708899 2.095971 0.000000
2.694381 1.260916 0.000000
2.666446 1.118796 0.000000
2.527623 1.061725 0.000000
2.046028 1.452006 0.000000
2.038415 1.319638 0.000000
1.934877 1.395978 0.000000
2.823926 1.999653 0.000000
2.849845 2.147393 0.000000
2.809076 1.165543 0.000000
1.418052 3.007588 0.000000
2.769565 1.027744 0.000000
2.734848 2.243700 0.000000
2.875764 2.295134 0.000000
2.760762 2.391442 0.000000
2.901668 2.442880 0.000000
2.786668 2.539188 0.000000
2.927573 2.590627 0.000000
2.812573 2.686934 0.000000
2.953478 2.738373 0.000000
2.838478 2.834680 0.000000
2.979382 2.886119 0.000000
2.864383 2.982426 0.000000
2.723478 2.930987 0.000000
2.749383 3.078733 0.000000
2.890287 3.130172 0.000000
2.608478 3.027294 0.000000
2.634383 3.175040 0.000000
2.493479 3.123601 0.000000
3.068477 2.642066 0.000000
2.519383 3.271348 0.000000
2.378479 3.219908 0.000000
2.922045 1.070267 0.000000
2.949879 1.216527 0.000000
2.964852 2.051083 0.000000
2.866736 0.909331 0.000000
3.033735 0.970448 0.000000
2.404384 3.367655 0.000000
2.545288 3.419094 0.000000
2.263479 3.316216 0.000000
3.007279 0.822116 0.000000
3.152440 0.875070 0.000000
2.874078 0.767492 0.000000
2.938949 1.903337 0.000000
3.079857 1.954774 0.000000
2.352574 3.072162 0.000000
0.739114 2.897533 0.000000
1.089391 2.616660 0.000000
1.303052 3.103898 0.000000
1.443958 3.155330 0.000000
1.328959 3.251637 0.000000
1.469863 3.303074 0.000000
1.584862 3.206767 0.000000
3.105762 2.102520 0.000000
3.053954 1.807028 0.000000
2.671669 2.635495 0.000000
3.180335 1.023428 0.000000
3.127153 0.727479 0.000000
3.295003 0.927019 0.000000
3.194858 1.858467 0.000000
3.168954 1.710720 0.000000
2.289384 3.463962 0.000000
2.148480 3.412523 0.000000
2.122575 3.264777 0.000000
0.391114 2.065130 0.000000
0.304181 2.033322 0.000000
0.378560 1.979592 0.000000
0.293425 1.953646 0.000000
0.346011 1.921460 0.000000
1.354863 3.399381 0.000000
1.213960 3.347943 0.000000
1.495767 3.450820 0.000000
1.239863 3.495688 0.000000
1.098959 3.444249 0.000000
1.124864 3.591995 0.000000
0.983959 3.540556 0.000000
1.009864 3.688302 0.000000
0.868960 3.636863 0.000000
0.843055 3.489117 0.000000
0.728055 3.585424 0.000000
0.702151 3.437678 0.000000
0.894864 3.784609 0.000000
2.619858 2.340003 0.000000
2.913049 1.755589 0.000000
3.321184 1.074850 0.000000
2.007575 3.361084 0.000000
1.981671 3.213337 0.000000
2.156719 1.202900 0.000000
2.024806 1.142156 0.000000
2.129999 1.051323 0.000000
2.001209 1.005725 0.000000
0.587151 3.533985 0.000000
0.613056 3.681731 0.000000
0.561246 3.386238 0.000000
3.309858 1.762159 0.000000
3.283954 1.614413 0.000000
3.335763 1.909906 0.000000
3.435896 0.978207 0.000000
3.410222 0.830738 0.000000
1.035768 3.836048 0.000000
0.915588 3.902806 0.000000
0.225148 2.007588 0.000000
0.227724 1.934067 0.000000
0.281234 2.375083 0.000000
0.676245 3.289935 0.000000
0.535328 3.238495 0.000000
2.223136 2.333531 0.000000
2.248956 2.481177 0.000000
2.133970 2.577501 0.000000
2.274863 2.628926 0.000000
2.159864 2.725234 0.000000
3.143049 1.562974 0.000000
2.720295 1.408661 0.000000
3.258049 1.466667 0.000000
0.472151 3.630292 0.000000
0.498056 3.778038 0.000000
2.174384 3.560269 0.000000
2.315288 3.611708 0.000000
0.436203 2.644903 0.000000
0.459261 2.787333 0.000000
3.450763 1.813598 0.000000
3.476667 1.961345 0.000000
3.398953 1.518106 0.000000
0.420340 3.334800 0.000000
3.463031 1.124879 0.000000
0.357152 3.726599 0.000000
1.344318 2.569095 0.000000
1.073054 3.296506 0.000000
1.866671 3.309645 0.000000
1.892576 3.457391 0.000000
1.840766 3.161898 0.000000
1.955766 3.065591 0.000000
2.389861 2.532617 0.000000
2.415766 2.680363 0.000000
3.016668 2.346573 0.000000
1.814862 3.014152 0.000000
2.452870 2.140890 0.000000
2.657048 1.800493 0.000000
0.638960 3.829477 0.000000
3.361667 2.057652 0.000000
1.929862 2.917845 0.000000
2.070766 2.969284 0.000000
3.206231 1.171171 0.000000
0.511935 3.927893 0.000000
0.671629 3.988045 0.000000
3.501754 2.109234 0.000000
3.387436 2.205422 0.000000
3.527499 2.257008 0.000000
3.413291 2.353177 0.000000
3.554187 2.404617 0.000000
3.439318 2.500902 0.000000
3.580243 2.552337 0.000000
3.465268 2.648640 0.000000
3.695246 2.456029 0.000000
3.606180 2.700078 0.000000
3.491186 2.796384 0.000000
3.632092 2.847823 0.000000
3.517094 2.944129 0.000000
3.657998 2.995568 0.000000
3.542999 3.091876 0.000000
3.402095 3.040436 0.000000
3.428000 3.188183 0.000000
3.568904 3.239622 0.000000
3.453904 3.335929 0.000000
3.313000 3.284490 0.000000
3.338904 3.432236 0.000000
3.198000 3.380797 0.000000
3.223905 3.528543 0.000000
3.364809 3.579982 0.000000
3.249809 3.676289 0.000000
3.108905 3.624850 0.000000
3.390714 3.727729 0.000000
3.134810 3.772597 0.000000
2.993905 3.721157 0.000000
3.014629 3.839354 0.000000
3.131153 3.963846 0.000000
2.878042 3.812540 0.000000
2.929626 3.964497 0.000000
2.791696 3.893383 0.000000
2.735491 4.073448 0.000000
2.968001 3.573411 0.000000
2.742489 3.761806 0.000000
2.605684 3.896593 0.000000
2.960737 4.232760 0.000000
2.466268 4.102031 0.000000
3.505713 3.631421 0.000000
3.531618 3.779168 0.000000
3.416618 3.875475 0.000000
3.552342 3.897365 0.000000
3.671659 3.825682 0.000000
3.298435 2.449459 0.000000
3.350282 2.744945 0.000000
3.172096 3.233051 0.000000
3.057096 3.329358 0.000000
2.594959 3.719593 0.000000
2.473025 3.789198 0.000000
2.712097 3.618279 0.000000
0.394435 3.187054 0.000000
0.509422 3.090739 0.000000
0.451443 1.994024 0.000000
0.427543 1.937852 0.000000
1.265768 3.643434 0.000000
3.287810 4.206088 0.000000
3.550884 0.881849 0.000000
3.525257 0.734427 0.000000
3.384430 0.683068 0.000000
3.499417 0.586747 0.000000
3.358524 0.535319 0.000000
3.473523 0.439012 0.000000
3.332621 0.387575 0.000000
3.217621 0.483882 0.000000
3.614427 0.490451 0.000000
3.594808 3.387368 0.000000
0.331427 2.731211 0.000000
0.343997 2.874090 0.000000
3.702246 4.011442 0.000000
3.745257 2.749323 0.000000
0.273330 3.274400 0.000000
2.200289 3.708015 0.000000
0.770091 2.392817 0.000000
1.751671 3.405952 0.000000
1.776857 3.552840 0.000000
2.018959 2.673795 0.000000
2.271264 1.105545 0.000000
2.243597 0.959365 0.000000
3.117145 1.415228 0.000000
3.002145 1.511535 0.000000
2.582574 2.879548 0.000000
3.373049 1.370360 0.000000
3.512419 1.419967 0.000000
0.510226 4.107292 0.000000
0.715182 4.200530 0.000000
1.023356 3.998350 0.000000
3.200456 0.322662 0.000000
3.068697 0.421843 0.000000
3.590238 0.347090 0.000000
3.729714 0.394876 0.000000
3.694879 0.251349 0.000000
2.118747 0.905255 0.000000
2.216038 0.820763 0.000000
2.081565 0.781292 0.000000
2.185864 0.694371 0.000000
2.052668 0.646194 0.000000
1.990721 0.726986 0.000000
1.972791 0.622566 0.000000
2.161420 0.573160 0.000000
2.277516 0.612464 0.000000
2.250711 0.501967 0.000000
2.371043 0.527161 0.000000
2.135498 0.460991 0.000000
2.397019 0.649999 0.000000
2.496857 0.559889 0.000000
2.340147 0.417571 0.000000
2.524448 0.694871 0.000000
2.629083 0.602200 0.000000
2.597577 0.462223 0.000000
2.733362 0.503225 0.000000
2.697047 0.366145 0.000000
2.564866 0.330228 0.000000
2.342331 0.872541 0.000000
2.835424 0.401461 0.000000
2.790629 0.261111 0.000000
2.868733 0.541423 0.000000
2.006181 1.836731 0.000000
1.903741 1.244016 0.000000
1.171447 3.886376 0.000000
0.201847 2.439366 0.000000
0.300569 2.481041 0.000000
1.785178 11.611444 0.000000
3.605157 2.011309 0.000000
3.887812 0.889081 0.000000
3.661890 0.780758 0.000000
2.470509 0.112769 0.000000
2.061969 3.649496 0.000000
3.305026 0.244181 0.000000
0.336025 3.584559 0.000000
10.520862 4.874915 0.000000
2.653119 0.747593 0.000000
7.474224 4.676478 0.000000
7.596913 5.052326 0.000000
0.532715 4.323577 0.000000
0.766995 4.455742 0.000000
14.267670 17.879220 0.000000
15.165915 18.112861 0.000000
13.340217 17.701048 0.000000
6.303860 10.652599 0.000000
5.524454 10.548143 0.000000
0.224160 3.684296 0.000000
2.566992 0.841703 0.000000
8.019166 15.564017 0.000000
0.039164 1.625529 0.000000
0.074874 1.643793 0.000000
0.077856 1.685209 0.000000
0.113541 1.658358 0.000000
0.118158 1.700676 0.000000
0.154008 1.673894 0.000000
0.147976 1.629652 0.000000
0.190807 1.645946 0.000000
0.182397 1.599245 0.000000
0.227523 1.616224 0.000000
0.218806 1.568725 0.000000
0.264806 1.585127 0.000000
0.255417 1.541217 0.000000
0.302838 1.554237 0.000000
0.294503 1.504092 0.000000
0.343687 1.524493 0.000000
0.333637 1.473300 0.000000
0.350085 1.571459 0.000000
0.388462 1.543836 0.000000
0.396632 1.589195 0.000000
0.435109 1.557119 0.000000
0.443401 1.606003 0.000000
0.484809 1.566295 0.000000
0.463816 1.521233 0.000000
0.529103 1.542748 0.000000
0.511708 1.492825 0.000000
0.530695 1.590197 0.000000
0.569078 1.559422 0.000000
0.576240 1.608597 0.000000
0.614567 1.576906 0.000000
0.245334 1.485269 0.000000
0.622649 1.626215 0.000000
0.661119 1.594394 0.000000
0.651931 1.543503 0.000000
0.699455 1.562291 0.000000
0.692237 1.515334 0.000000
0.741922 1.532617 0.000000
0.727060 1.482936 0.000000
0.747039 1.580290 0.000000
0.787587 1.551392 0.000000
0.793816 1.598056 0.000000
0.832348 1.566260 0.000000
0.840131 1.614930 0.000000
0.878902 1.583122 0.000000
0.872449 1.531599 0.000000
0.919421 1.554258 0.000000
0.908911 1.501929 0.000000
0.955140 1.522524 0.000000
0.946474 1.473076 0.000000
0.963414 1.567600 0.000000
0.995954 1.535663 0.000000
1.010482 1.581847 0.000000
1.044129 1.536126 0.000000
1.058847 1.593346 0.000000
1.094723 1.558059 0.000000
1.107422 1.607970 0.000000
1.142792 1.573341 0.000000
1.131175 1.525162 0.000000
1.155086 1.622088 0.000000
1.175677 1.542562 0.000000
1.166994 1.490276 0.000000
1.119907 1.656968 0.000000
1.167958 1.670550 0.000000
1.132264 1.705436 0.000000
1.180365 1.719013 0.000000
1.216030 1.684659 0.000000
1.228475 1.732679 0.000000
1.264141 1.698340 0.000000
1.276592 1.746288 0.000000
1.312410 1.711408 0.000000
1.324738 1.759786 0.000000
1.360560 1.724887 0.000000
1.288923 1.794657 0.000000
1.372868 1.773333 0.000000
1.408688 1.738442 0.000000
1.396386 1.689979 0.000000
1.444509 1.703551 0.000000
1.432206 1.655088 0.000000
1.420992 1.786902 0.000000
1.480327 1.668665 0.000000
1.468025 1.620202 0.000000
1.516146 1.633779 0.000000
1.503844 1.585316 0.000000
1.528449 1.682242 0.000000
1.564268 1.647356 0.000000
1.144564 1.753899 0.000000
1.576570 1.695819 0.000000
1.612389 1.660933 0.000000
1.624691 1.709396 0.000000
1.660510 1.674510 0.000000
1.648208 1.626047 0.000000
1.696329 1.639624 0.000000
1.684026 1.591161 0.000000
1.096475 1.740352 0.000000
1.108753 1.788790 0.000000
1.060642 1.775223 0.000000
1.455722 1.571739 0.000000
1.491059 1.532305 0.000000
1.442026 1.529666 0.000000
1.475874 1.485736 0.000000
1.732148 1.604738 0.000000
0.584066 1.658064 0.000000
0.801676 1.646875 0.000000
1.075248 1.823086 0.000000
1.708632 1.688087 0.000000
1.719845 1.556276 0.000000
0.404853 1.637781 0.000000
1.033747 1.816246 0.000000
0.198195 1.694308 0.000000
1.767967 1.569853 0.000000
1.121438 1.837151 0.000000
1.087998 1.871432 0.000000
1.133879 1.885578 0.000000
1.099658 1.920057 0.000000
1.146097 1.934061 0.000000
0.630839 1.675548 0.000000
0.592275 1.707401 0.000000
1.588873 1.744281 0.000000
1.037014 1.499210 0.000000
1.755664 1.521390 0.000000
1.707543 1.507813 0.000000
1.743148 1.472981 0.000000
1.695204 1.459359 0.000000
1.729737 1.424800 0.000000
1.682657 1.410958 0.000000
1.717423 1.376340 0.000000
1.670312 1.362506 0.000000
1.703395 1.328315 0.000000
1.657538 1.314191 0.000000
1.694151 1.279076 0.000000
1.645594 1.265694 0.000000
1.683386 1.232272 0.000000
1.633838 1.217416 0.000000
1.669334 1.184217 0.000000
1.621513 1.168606 0.000000
1.585567 1.203599 0.000000
1.573417 1.154650 0.000000
1.542497 1.183055 0.000000
1.526547 1.136069 0.000000
1.561001 1.106533 0.000000
1.509153 1.092124 0.000000
1.475649 1.126782 0.000000
1.551332 1.062492 0.000000
1.500577 1.044493 0.000000
1.528033 1.022797 0.000000
1.498477 1.003375 0.000000
1.580549 1.023583 0.000000
1.554769 0.973089 0.000000
1.608932 0.981477 0.000000
1.588716 0.937014 0.000000
1.638341 0.941019 0.000000
1.617125 0.895884 0.000000
1.569113 0.890971 0.000000
1.596062 0.850558 0.000000
1.545936 0.846627 0.000000
1.574431 0.805482 0.000000
1.530634 0.797590 0.000000
1.554015 0.759667 0.000000
1.504357 0.760764 0.000000
1.526169 0.715671 0.000000
1.482655 0.706753 0.000000
1.475356 0.798799 0.000000
1.581435 0.719192 0.000000
1.560623 0.673388 0.000000
1.609975 0.677968 0.000000
1.590085 0.632057 0.000000
1.666952 0.899960 0.000000
1.638644 0.636324 0.000000
1.617052 0.591152 0.000000
1.568868 0.586744 0.000000
1.595667 0.546172 0.000000
1.545710 0.542489 0.000000
1.574155 0.501369 0.000000
1.530038 0.493615 0.000000
1.623750 0.505040 0.000000
1.553731 0.455642 0.000000
1.506738 0.456184 0.000000
1.474985 0.492987 0.000000
1.531331 0.411530 0.000000
1.478252 0.406315 0.000000
1.688361 0.945179 0.000000
1.716816 0.904052 0.000000
1.621984 1.349011 0.000000
1.659782 0.682022 0.000000
1.688261 0.640426 0.000000
1.709576 0.686097 0.000000
1.738200 0.949253 0.000000
1.766655 0.908133 0.000000
1.119404 1.961472 0.000000
1.157500 1.971404 0.000000
1.738029 0.644779 0.000000
0.866705 1.488721 0.000000
1.759392 0.690217 0.000000
0.848540 1.664237 0.000000
0.809927 1.696100 0.000000
0.175194 1.553521 0.000000
0.639112 1.724863 0.000000
1.647004 1.445827 0.000000
1.581225 0.414992 0.000000
1.559425 0.370075 0.000000
1.609214 0.373729 0.000000
1.587487 0.327720 0.000000
1.637352 0.331186 0.000000
1.537520 0.325132 0.000000
1.565306 0.281777 0.000000
1.522019 0.275542 0.000000
1.547353 0.241339 0.000000
1.498775 0.235457 0.000000
1.479770 0.270865 0.000000
1.520520 0.210620 0.000000
1.487075 0.201213 0.000000
1.563917 0.202095 0.000000
1.659064 0.377186 0.000000
1.687143 0.335785 0.000000
1.708832 0.380890 0.000000
1.736981 0.339590 0.000000
1.758780 0.384654 0.000000
1.786858 0.343273 0.000000
1.808743 0.388238 0.000000
1.836743 0.346905 0.000000
1.858534 0.391908 0.000000
1.765023 0.298891 0.000000
1.830551 0.433233 0.000000
1.880327 0.436910 0.000000
1.852055 0.478374 0.000000
1.788040 0.953330 0.000000
1.816491 0.912212 0.000000
1.193775 1.946400 0.000000
1.208207 2.003053 0.000000
1.239863 1.952733 0.000000
1.298766 1.663700 0.000000
1.780269 1.618315 0.000000
1.816088 1.583430 0.000000
1.385173 1.821787 0.000000
1.433295 1.835362 0.000000
1.397476 1.870248 0.000000
1.445598 1.883825 0.000000
1.409779 1.918710 0.000000
1.457900 1.932287 0.000000
1.429245 1.960196 0.000000
1.469175 1.969662 0.000000
1.505850 1.944016 0.000000
1.506656 2.005538 0.000000
1.554174 1.968900 0.000000
1.636994 1.757858 0.000000
1.759586 0.994449 0.000000
0.600561 1.756712 0.000000
0.553706 1.739256 0.000000
0.644407 1.495799 0.000000
1.518508 0.583336 0.000000
1.049413 1.907019 0.000000
1.717667 1.195727 0.000000
1.886597 0.350545 0.000000
1.864809 0.305542 0.000000
1.914674 0.309176 0.000000
1.892886 0.264173 0.000000
1.936463 0.354178 0.000000
0.562009 1.788563 0.000000
0.515157 1.771106 0.000000
1.515097 0.889127 0.000000
1.828390 1.631893 0.000000
1.809424 0.998526 0.000000
0.857859 1.713786 0.000000
0.818395 1.745432 0.000000
1.974894 0.304726 0.000000
1.787849 0.648906 0.000000
1.537331 0.167040 0.000000
1.802094 0.474378 0.000000
1.579319 0.161377 0.000000
0.866294 1.763321 0.000000
1.795107 0.867015 0.000000
1.844941 0.871095 0.000000
1.607823 0.197331 0.000000
1.809220 0.694309 0.000000
1.743625 1.339780 0.000000
1.006692 1.770992 0.000000
1.695433 0.858853 0.000000
1.601175 1.792744 0.000000
1.649297 1.806321 0.000000
1.780892 1.039728 0.000000
1.830796 1.043713 0.000000
0.647411 1.774170 0.000000
0.826751 1.794779 0.000000
0.873544 1.812429 0.000000
1.790407 1.489497 0.000000
1.657222 1.135587 0.000000
1.902069 0.481935 0.000000
1.873789 0.523403 0.000000
0.899262 1.682865 0.000000
0.273504 1.634225 0.000000
1.716441 0.598538 0.000000
1.545134 1.231011 0.000000
1.496996 1.228179 0.000000
1.514801 1.268110 0.000000
1.472693 1.257348 0.000000
1.635905 1.577584 0.000000
1.407369 1.559227 0.000000
1.400892 1.514010 0.000000
1.359480 1.544585 0.000000
1.345232 1.494692 0.000000
1.866325 0.916292 0.000000
1.894774 0.875175 0.000000
1.873391 0.829978 0.000000
0.523465 1.820411 0.000000
0.476611 1.802954 0.000000
1.622938 0.154352 0.000000
1.652767 0.191522 0.000000
1.802347 1.084945 0.000000
1.669478 0.146058 0.000000
1.698765 0.182465 0.000000
1.716568 0.137440 0.000000
1.747761 0.174919 0.000000
1.864209 1.597007 0.000000
1.876512 1.645470 0.000000
1.840693 1.680355 0.000000
1.837659 0.653242 0.000000
1.923224 0.834058 0.000000
1.944608 0.879255 0.000000
1.552732 0.129590 0.000000
1.508188 0.134450 0.000000
1.888814 1.693932 0.000000
1.852996 1.728818 0.000000
1.924633 1.659047 0.000000
1.780777 0.735471 0.000000
1.022891 1.629854 0.000000
1.681123 0.727299 0.000000
0.468302 1.753650 0.000000
0.429757 1.785498 0.000000
1.361657 1.905133 0.000000
1.229256 1.911207 0.000000
0.779731 1.777258 0.000000
0.763062 1.678646 0.000000
1.613478 1.841207 0.000000
1.661599 1.854784 0.000000
1.697418 1.819898 0.000000
1.709720 1.868361 0.000000
1.745539 1.833475 0.000000
1.673901 1.903248 0.000000
1.722023 1.916824 0.000000
1.686089 1.951740 0.000000
1.731842 1.955600 0.000000
1.709078 1.998157 0.000000
1.469114 1.800476 0.000000
0.834891 1.844058 0.000000
0.881717 1.861511 0.000000
0.570318 1.837868 0.000000
0.531774 1.869716 0.000000
1.730852 1.035869 0.000000
1.527889 0.100484 0.000000
1.496129 0.106408 0.000000
1.478956 0.136838 0.000000
1.470649 0.113752 0.000000
1.859049 0.698429 0.000000
1.769730 1.928787 0.000000
1.474976 1.076785 0.000000
0.074694 1.606488 0.000000
1.923840 0.526946 0.000000
1.895803 0.568297 0.000000
1.845740 0.564875 0.000000
0.081267 1.731308 0.000000
0.124473 1.745695 0.000000
1.681153 0.228512 0.000000
1.936936 1.707510 0.000000
1.965591 1.679601 0.000000
1.972607 1.620957 0.000000
0.920188 1.829847 0.000000
0.928531 1.878960 0.000000
1.680635 0.422227 0.000000
1.630795 1.027482 0.000000
1.901838 0.788855 0.000000
0.843209 1.893312 0.000000
0.421448 1.736193 0.000000
0.382904 1.768041 0.000000
0.391213 1.817346 0.000000
0.344359 1.799890 0.000000
0.336050 1.750585 0.000000
0.297572 1.782514 0.000000
0.305825 1.831751 0.000000
0.259040 1.814378 0.000000
1.624276 0.809554 0.000000
0.459993 1.704345 0.000000
1.859256 1.002604 0.000000
1.880641 1.047777 0.000000
1.843018 0.260541 0.000000
1.871676 0.218890 0.000000
1.921061 0.222755 0.000000
1.899289 0.177745 0.000000
1.949053 0.181426 0.000000
1.850002 0.173831 0.000000
1.877522 0.132731 0.000000
1.932073 0.443343 0.000000
0.685955 1.742322 0.000000
0.694262 1.791627 0.000000
0.655717 1.823476 0.000000
0.702571 1.840932 0.000000
1.733237 1.785013 0.000000
1.781358 1.798590 0.000000
1.804874 1.715241 0.000000
1.966496 0.217423 0.000000
2.000304 0.184287 0.000000
2.016941 0.244288 0.000000
1.539582 1.549672 0.000000
1.169250 1.850805 0.000000
1.371743 1.593225 0.000000
1.322463 1.579723 0.000000
1.541840 1.910979 0.000000
1.565356 1.827630 0.000000
1.851907 1.548544 0.000000
1.793661 1.847053 0.000000
1.829479 1.812167 0.000000
1.900028 1.562121 0.000000
1.887725 1.513658 0.000000
0.289405 1.733200 0.000000
0.327776 1.701292 0.000000
2.048440 0.309322 0.000000
2.103588 0.248906 0.000000
1.647848 1.989461 0.000000
1.775270 0.125548 0.000000
0.796481 1.875528 0.000000
1.734082 0.086727 0.000000
1.566409 0.094266 0.000000
1.976672 0.138014 0.000000
0.578302 1.886778 0.000000
0.540028 1.918955 0.000000
1.491916 1.179843 0.000000
1.636888 0.112725 0.000000
1.887904 0.656636 0.000000
1.499549 0.075736 0.000000
1.974000 1.719767 0.000000
2.014879 1.687801 0.000000
1.841395 1.860232 0.000000
1.877536 1.825678 0.000000
1.947395 1.755752 0.000000
1.560204 1.284145 0.000000
1.525107 1.317218 0.000000
1.852000 0.784771 0.000000
1.277322 1.924733 0.000000
1.278061 1.986081 0.000000
1.265383 1.877833 0.000000
1.589925 1.926091 0.000000
0.585418 1.936197 0.000000
0.548945 1.973537 0.000000
1.907693 1.007342 0.000000
1.928844 1.052649 0.000000
1.902025 1.092999 0.000000
0.266921 1.862241 0.000000
0.220603 1.845298 0.000000
0.212383 1.796322 0.000000
0.173576 1.828075 0.000000
0.181871 1.877978 0.000000
0.134765 1.860442 0.000000
0.142466 1.909951 0.000000
0.092481 1.889909 0.000000
1.485124 0.323412 0.000000
1.775729 1.996883 0.000000
1.474523 0.077643 0.000000
1.949274 0.794075 0.000000
2.130377 0.320393 0.000000
2.186655 0.258149 0.000000
0.378384 1.490863 0.000000
1.497878 0.841754 0.000000
0.560287 1.510472 0.000000
1.518606 0.664569 0.000000
0.606634 1.524543 0.000000
0.597450 1.478728 0.000000
1.312244 1.532543 0.000000
1.273706 1.564406 0.000000
1.269321 1.513705 0.000000
1.298021 1.483276 0.000000
1.530512 1.500891 0.000000
1.575993 1.515239 0.000000
1.563782 1.466878 0.000000
1.521935 1.455451 0.000000
1.555383 1.422521 0.000000
1.497872 1.406198 0.000000
1.467846 1.440157 0.000000
0.779702 1.495576 0.000000
0.819757 1.515452 0.000000
0.828447 1.483021 0.000000
1.428877 1.470570 0.000000
1.512498 0.365360 0.000000
1.935847 1.527235 0.000000
1.923251 1.479812 0.000000
1.868751 1.465750 0.000000
1.907203 0.701191 0.000000
1.502784 0.165318 0.000000
1.474491 0.161080 0.000000
0.495580 1.901155 0.000000
1.626191 0.039557 0.000000
16.515562 2.049642 0.000000
2.067084 3.816599 0.000000
2.223757 3.856171 0.000000
1.817427 1.947459 0.000000
0.920583 6.876603 0.000000
1.036644 7.255085 0.000000
5.448212 18.456779 0.000000
0.104026 1.939676 0.000000
0.149948 1.958239 0.000000
0.117158 1.983156 0.000000
0.230314 2.813647 0.000000
17.783222 10.074504 0.000000
6.944427 3.166543 0.000000
1.486933 0.048905 0.000000
1.464710 0.053812 0.000000
0.964326 1.847573 0.000000
0.972947 1.896794 0.000000
0.936443 1.928269 0.000000
0.981242 1.946085 0.000000
0.937453 2.002947 0.000000
1.011711 2.002585 0.000000
1.091938 2.018566 0.000000
1.178464 2.112187 0.000000
1.434384 2.015636 0.000000
1.500748 2.103380 0.000000
1.662905 2.047669 0.000000
1.741942 2.080055 0.000000
1.062585 2.158794 0.000000
1.161896 2.245124 0.000000
1.029843 2.295154 0.000000
1.125845 2.386165 0.000000
1.254387 2.358969 0.000000
0.994697 2.422735 0.000000
0.158840 2.012676 0.000000
0.201315 2.066988 0.000000
3.839898 0.273888 0.000000
6.698749 16.965681 0.000000
4.692541 7.288917 0.000000
5.152026 7.393960 0.000000
0.121249 1.805294 0.000000
2.943180 0.299473 0.000000
18.160566 5.519682 0.000000
2.279357 10.406390 0.000000
5.146206 8.793002 0.000000
7.223013 17.887314 0.000000
0.554638 5.788904 0.000000
0.958765 1.797758 0.000000
2.209107 0.335104 0.000000
2.275481 0.267235 0.000000
18.784737 4.823606 0.000000
5.999500 7.940013 0.000000
5.329736 8.043057 0.000000
3.564027 1.572478 0.000000
2.026991 0.143692 0.000000
9.484341 1.231996 0.000000
1.171396 12.221153 0.000000
0.862133 9.736364 0.000000
18.205566 7.117785 0.000000
18.402502 7.999542 0.000000
1.376702 2.123948 0.000000
1.668468 0.281409 0.000000
7.424193 18.630036 0.000000
0.374467 2.414956 0.000000
4.481392 18.353647 0.000000
1.030546 1.963128 0.000000
1.829422 0.130567 0.000000
1.888635 1.874909 0.000000
7.536087 6.483741 0.000000
7.283597 6.062707 0.000000
7.494768 7.020262 0.000000
10.161574 1.496577 0.000000
1.631918 2.158741 0.000000
0.534473 4.581800 0.000000
0.772845 4.742708 0.000000
14.457872 18.959854 0.000000
3.709808 3.291061 0.000000
15.125475 1.205437 0.000000
0.974419 4.250367 0.000000
0.027550 1.534296 0.000000
0.049154 1.513928 0.000000
0.059734 1.542124 0.000000
0.078421 1.512333 0.000000
0.063436 1.489543 0.000000
0.095735 1.490656 0.000000
0.078322 1.474680 0.000000
0.088108 1.547651 0.000000
1.539080 0.030924 0.000000
1.540115 0.067701 0.000000
11.021491 1.532234 0.000000
11.758479 2.060095 0.000000
11.878462 1.117748 0.000000
12.552844 1.694577 0.000000
12.448052 2.707582 0.000000
13.261384 2.194755 0.000000
1.855598 0.087794 0.000000
1.904112 0.090896 0.000000
3.668420 4.321172 0.000000
1.527796 1.374136 0.000000
1.718213 0.041971 0.000000
4.774492 7.788167 0.000000
2.075784 1.599997 0.000000
16.971757 8.753012 0.000000
16.013495 8.636279 0.000000
7.141881 10.782443 0.000000
2.182599 4.282746 0.000000
2.344977 4.627709 0.000000
3.763986 0.549521 0.000000
1.011994 1.864872 0.000000
1.598951 1.068440 0.000000
1.652535 1.081585 0.000000
0.368533 3.039307 0.000000
2.735401 0.126624 0.000000
9.137869 18.120779 0.000000
0.138577 1.582275 0.000000
7.875220 8.633425 0.000000
0.323492 4.012789 0.000000
0.088916 1.771877 0.000000
2.107479 4.960809 0.000000
2.551001 5.038926 0.000000
2.738986 4.657114 0.000000
0.984073 1.501956 0.000000
0.662601 1.873748 0.000000
0.710302 1.890679 0.000000
1.682584 0.103656 0.000000
1.782150 0.079101 0.000000
18.220468 10.890801 0.000000
3.709160 0.922545 0.000000
0.209060 1.519087 0.000000
0.165455 1.514937 0.000000
0.202574 1.486725 0.000000
0.164316 1.471794 0.000000
0.140361 1.539965 0.000000
2.244250 0.186711 0.000000
1.589559 0.240741 0.000000
1.594277 0.122391 0.000000
1.606484 0.078499 0.000000
3.077308 10.882468 0.000000
1.278962 2.079986 0.000000
2.051796 0.527693 0.000000
2.035600 0.432426 0.000000
9.471396 2.487498 0.000000
0.714764 1.949775 0.000000
10.228399 7.373307 0.000000
7.348516 16.279751 0.000000
2.156673 0.180516 0.000000
0.245614 3.826784 0.000000
1.478661 2.230089 0.000000
3.737359 3.455802 0.000000
0.483772 2.938308 0.000000
4.102094 0.142674 0.000000
0.134209 4.095366 0.000000
0.478251 8.290389 0.000000
1.936942 0.660005 0.000000
8.249600 0.448686 0.000000
7.920614 0.778615 0.000000
7.541421 0.716662 0.000000
8.363525 0.861477 0.000000
7.620801 1.117229 0.000000
1.999867 9.065061 0.000000
1.946553 0.572871 0.000000
7.294583 1.341613 0.000000
1.497628 1.359583 0.000000
4.224682 0.474755 0.000000
1.652602 0.073260 0.000000
2.954143 4.961417 0.000000
13.087610 4.422393 0.000000
12.754019 3.608469 0.000000
1.841530 2.011354 0.000000
1.816417 0.607707 0.000000
4.938638 11.187449 0.000000
4.684920 10.271445 0.000000
2.335511 0.197128 0.000000
2.369368 0.279184 0.000000
2.024857 0.046007 0.000000
0.044573 2.017419 0.000000
4.508914 1.676620 0.000000
4.938735 1.641577 0.000000
5.147425 2.063902 0.000000
4.885911 2.379444 0.000000
7.500282 11.522636 0.000000
7.607515 10.073825 0.000000
2.468362 0.420502 0.000000
0.246417 4.607109 0.000000
12.892107 7.528507 0.000000
0.165968 1.773383 0.000000
0.204949 1.743820 0.000000
1.495640 1.297451 0.000000
1.917753 0.614671 0.000000
1.985950 0.668062 0.000000
10.507888 19.125252 0.000000
1.800170 0.171536 0.000000
1.772790 0.214626 0.000000
10.397310 14.979943 0.000000
10.057771 14.127603 0.000000
10.656431 13.383026 0.000000
0.090795 1.013053 0.000000
0.082174 1.031087 0.000000
0.102282 1.029299 0.000000
0.093431 1.047479 0.000000
0.113494 1.045797 0.000000
0.104608 1.063965 0.000000
0.124522 1.062477 0.000000
0.115792 1.080514 0.000000
0.135728 1.079027 0.000000
0.127022 1.097046 0.000000
0.146970 1.095558 0.000000
0.138283 1.113575 0.000000
0.158227 1.112087 0.000000
0.149542 1.130104 0.000000
0.169487 1.128616 0.000000
0.160802 1.146633 0.000000
0.180747 1.145146 0.000000
0.172063 1.163162 0.000000
0.192007 1.161675 0.000000
0.183323 1.179691 0.000000
0.203267 1.178204 0.000000
0.194583 1.196220 0.000000
0.214528 1.194733 0.000000
0.205843 1.212749 0.000000
0.225788 1.211262 0.000000
0.234472 1.193246 0.000000
0.245732 1.209775 0.000000
0.254417 1.191759 0.000000
0.265677 1.208288 0.000000
0.274361 1.190271 0.000000
0.285622 1.206800 0.000000
0.294306 1.188784 0.000000
0.305566 1.205313 0.000000
0.314251 1.187297 0.000000
0.325511 1.203826 0.000000
0.334195 1.185810 0.000000
0.345456 1.202339 0.000000
0.354140 1.184323 0.000000
0.365400 1.200852 0.000000
0.374085 1.182836 0.000000
0.385345 1.199365 0.000000
0.394029 1.181349 0.000000
0.405289 1.197878 0.000000
0.413974 1.179862 0.000000
0.425234 1.196391 0.000000
0.433919 1.178375 0.000000
0.445179 1.194904 0.000000
0.453863 1.176888 0.000000
0.465123 1.193417 0.000000
0.473808 1.175400 0.000000
0.485068 1.191929 0.000000
0.493752 1.173913 0.000000
0.505013 1.190442 0.000000
0.513697 1.172426 0.000000
0.524957 1.188955 0.000000
0.533642 1.170939 0.000000
0.544902 1.187468 0.000000
0.553586 1.169452 0.000000
0.564847 1.185981 0.000000
0.573531 1.167965 0.000000
0.584791 1.184494 0.000000
0.593476 1.166478 0.000000
0.604736 1.183007 0.000000
0.613420 1.164991 0.000000
0.624680 1.181520 0.000000
0.633365 1.163504 0.000000
0.644625 1.180033 0.000000
0.653310 1.162017 0.000000
0.664570 1.178546 0.000000
0.673254 1.160529 0.000000
0.684514 1.177059 0.000000
0.693199 1.159042 0.000000
0.704459 1.175571 0.000000
0.713144 1.157555 0.000000
0.724404 1.174084 0.000000
0.733088 1.156068 0.000000
0.744348 1.172597 0.000000
0.753033 1.154581 0.000000
0.764293 1.171110 0.000000
0.772977 1.153094 0.000000
0.784238 1.169623 0.000000
0.792922 1.151607 0.000000
0.804182 1.168136 0.000000
0.812867 1.150120 0.000000
0.824127 1.166649 0.000000
0.832811 1.148633 0.000000
0.844072 1.165162 0.000000
0.852756 1.147146 0.000000
0.864016 1.163675 0.000000
0.872701 1.145659 0.000000
0.883961 1.162188 0.000000
0.892645 1.144171 0.000000
0.903905 1.160700 0.000000
0.912590 1.142684 0.000000
0.901330 1.126155 0.000000
0.921274 1.124668 0.000000
0.932535 1.141197 0.000000
0.941219 1.123181 0.000000
0.952479 1.139710 0.000000
0.961164 1.121694 0.000000
0.949903 1.105165 0.000000
0.969848 1.103678 0.000000
0.981108 1.120207 0.000000
0.989793 1.102191 0.000000
0.978533 1.085662 0.000000
0.998477 1.084175 0.000000
0.987217 1.067646 0.000000
1.007162 1.066159 0.000000
1.001053 1.118720 0.000000
0.995901 1.049630 0.000000
1.015846 1.048143 0.000000
1.004586 1.031613 0.000000
1.024531 1.030126 0.000000
1.013270 1.013597 0.000000
1.033215 1.012110 0.000000
1.021955 0.995581 0.000000
1.041899 0.994094 0.000000
1.030639 0.977565 0.000000
1.050584 0.976078 0.000000
1.039324 0.959549 0.000000
1.059268 0.958062 0.000000
1.048008 0.941533 0.000000
1.044475 1.028639 0.000000
1.067953 0.940046 0.000000
1.056693 0.923517 0.000000
1.076637 0.922030 0.000000
1.065377 0.905501 0.000000
1.085322 0.904014 0.000000
1.074062 0.887485 0.000000
1.094006 0.885998 0.000000
1.082746 0.869468 0.000000
1.087897 0.938559 0.000000
1.002010 0.997068 0.000000
1.102691 0.867981 0.000000
1.091430 0.851452 0.000000
1.111375 0.849965 0.000000
1.100115 0.833436 0.000000
0.801607 1.133591 0.000000
1.120060 0.831949 0.000000
1.108799 0.815420 0.000000
1.131320 0.848478 0.000000
1.128744 0.813933 0.000000
1.117484 0.797404 0.000000
1.137428 0.795917 0.000000
1.126168 0.779388 0.000000
1.045432 0.906988 0.000000
1.146113 0.777901 0.000000
1.134853 0.761372 0.000000
1.154797 0.759885 0.000000
1.143537 0.743356 0.000000
1.163482 0.741869 0.000000
1.152222 0.725340 0.000000
1.172166 0.723853 0.000000
1.160906 0.707324 0.000000
1.180851 0.705836 0.000000
1.169591 0.689307 0.000000
0.721828 1.139539 0.000000
1.080170 0.834923 0.000000
1.189535 0.687820 0.000000
1.178275 0.671291 0.000000
1.114908 0.762859 0.000000
1.166058 0.776414 0.000000
1.198220 0.669804 0.000000
1.186959 0.653275 0.000000
1.158330 0.672778 0.000000
0.642049 1.145488 0.000000
1.206904 0.651788 0.000000
1.195644 0.635259 0.000000
0.875276 1.180204 0.000000
0.655885 1.196562 0.000000
0.755609 1.189126 0.000000
1.215589 0.633772 0.000000
1.204328 0.617243 0.000000
0.436494 1.212920 0.000000
1.200795 0.704349 0.000000
0.516273 1.206971 0.000000
1.224273 0.615756 0.000000
1.213013 0.599227 0.000000
1.193068 0.600714 0.000000
1.201753 0.582698 0.000000
1.181808 0.584185 0.000000
1.190492 0.566169 0.000000
1.210437 0.564682 0.000000
1.199177 0.548153 0.000000
1.179232 0.549640 0.000000
1.187917 0.531624 0.000000
1.207861 0.530137 0.000000
1.196601 0.513608 0.000000
1.216546 0.512120 0.000000
1.205286 0.495591 0.000000
1.225230 0.494104 0.000000
1.213970 0.477575 0.000000
0.562271 1.151436 0.000000
1.194025 0.479062 0.000000
1.202710 0.461046 0.000000
1.222655 0.459559 0.000000
1.211394 0.443030 0.000000
1.231339 0.441543 0.000000
1.220079 0.425014 0.000000
1.240023 0.423527 0.000000
1.228763 0.406998 0.000000
0.256993 1.226304 0.000000
1.248708 0.405511 0.000000
1.237448 0.388982 0.000000
1.217503 0.390469 0.000000
1.226188 0.372453 0.000000
1.235533 0.632285 0.000000
0.356716 1.218868 0.000000
1.246132 0.370966 0.000000
1.234872 0.354437 0.000000
1.182765 0.462533 0.000000
1.214927 0.355924 0.000000
1.223612 0.337908 0.000000
1.243556 0.336421 0.000000
1.232296 0.319892 0.000000
1.252241 0.318405 0.000000
1.240981 0.301876 0.000000
0.482492 1.157384 0.000000
1.221036 0.303363 0.000000
1.229721 0.285347 0.000000
1.249665 0.283859 0.000000
1.238405 0.267330 0.000000
1.258350 0.265843 0.000000
1.218460 0.268818 0.000000
1.227145 0.250801 0.000000
1.259968 0.422040 0.000000
1.207200 0.252289 0.000000
1.215885 0.234272 0.000000
0.402714 1.163333 0.000000
1.195940 0.235759 0.000000
1.187256 0.253776 0.000000
1.236490 0.510633 0.000000
0.576107 1.202510 0.000000
0.975957 1.051117 0.000000
0.815442 1.184665 0.000000
0.342880 1.167794 0.000000
1.204624 0.217743 0.000000
1.224569 0.216256 0.000000
1.184680 0.219230 0.000000
0.283046 1.172255 0.000000
1.213309 0.199727 0.000000
1.233254 0.198240 0.000000
0.185898 1.214236 0.000000
0.197159 1.230765 0.000000
0.177214 1.232252 0.000000
0.188474 1.248781 0.000000
0.189432 1.127129 0.000000
1.244218 0.614269 0.000000
1.255478 0.630798 0.000000
1.264162 0.612782 0.000000
1.275422 0.629311 0.000000
1.284107 0.611295 0.000000
1.295367 0.627824 0.000000
1.304052 0.609807 0.000000
1.315312 0.626336 0.000000
1.306627 0.644353 0.000000
1.323996 0.608320 0.000000
1.335256 0.624849 0.000000
1.343941 0.606833 0.000000
0.168530 1.250268 0.000000
0.179790 1.266797 0.000000
1.221993 0.181711 0.000000
1.241938 0.180224 0.000000
1.332681 0.590304 0.000000
1.167972 0.533111 0.000000
1.352625 0.588817 0.000000
1.341365 0.572288 0.000000
1.355201 0.623362 0.000000
0.159845 1.268284 0.000000
0.171105 1.284813 0.000000
0.191050 1.283326 0.000000
0.182365 1.301342 0.000000
0.202310 1.299855 0.000000
0.193626 1.317871 0.000000
0.213570 1.316384 0.000000
0.173681 1.319358 0.000000
0.204886 1.334400 0.000000
0.224830 1.332913 0.000000
0.157269 1.233739 0.000000
1.230678 0.163695 0.000000
1.210733 0.165182 0.000000
1.250622 0.162208 0.000000
1.261883 0.178737 0.000000
1.270567 0.160721 0.000000
1.281827 0.177250 0.000000
1.290512 0.159234 0.000000
1.301772 0.175763 0.000000
1.310456 0.157747 0.000000
1.321717 0.174276 0.000000
1.330401 0.156260 0.000000
1.341661 0.172789 0.000000
1.332977 0.190805 0.000000
1.352921 0.189318 0.000000
1.344237 0.207334 0.000000
1.361310 0.570801 0.000000
1.350050 0.554272 0.000000
0.140858 1.148120 0.000000
0.216146 1.350929 0.000000
0.236091 1.349442 0.000000
0.244775 1.331426 0.000000
0.256035 1.347955 0.000000
0.264720 1.329939 0.000000
0.275980 1.346468 0.000000
0.284664 1.328452 0.000000
0.295925 1.344981 0.000000
0.304609 1.326965 0.000000
0.315869 1.343494 0.000000
0.324554 1.325478 0.000000
0.335814 1.342007 0.000000
0.344498 1.323991 0.000000
0.355758 1.340520 0.000000
0.364443 1.322504 0.000000
0.375703 1.339033 0.000000
0.384388 1.321016 0.000000
0.395648 1.337545 0.000000
0.386963 1.355562 0.000000
0.406908 1.354074 0.000000
0.415592 1.336058 0.000000
0.426853 1.352587 0.000000
0.435537 1.334571 0.000000
0.446797 1.351100 0.000000
0.455482 1.333084 0.000000
0.466742 1.349613 0.000000
0.475426 1.331597 0.000000
0.486686 1.348126 0.000000
0.495371 1.330110 0.000000
0.506631 1.346639 0.000000
0.515316 1.328623 0.000000
0.526576 1.345152 0.000000
0.535260 1.327136 0.000000
0.546520 1.343665 0.000000
0.555205 1.325649 0.000000
0.566465 1.342178 0.000000
0.575149 1.324162 0.000000
0.586410 1.340691 0.000000
0.595094 1.322674 0.000000
0.606354 1.339204 0.000000
0.615039 1.321187 0.000000
0.626299 1.337716 0.000000
0.634983 1.319700 0.000000
0.646244 1.336229 0.000000
0.654928 1.318213 0.000000
0.666188 1.334742 0.000000
0.674873 1.316726 0.000000
0.686133 1.333255 0.000000
0.694817 1.315239 0.000000
0.706077 1.331768 0.000000
0.714762 1.313752 0.000000
0.726022 1.330281 0.000000
0.734707 1.312265 0.000000
0.745967 1.328794 0.000000
0.754651 1.310778 0.000000
0.765911 1.327307 0.000000
0.774596 1.309291 0.000000
0.785856 1.325820 0.000000
0.794540 1.307804 0.000000
0.805801 1.324333 0.000000
0.814485 1.306316 0.000000
0.825745 1.322845 0.000000
0.834430 1.304829 0.000000
0.845690 1.321358 0.000000
0.854374 1.303342 0.000000
0.865635 1.319871 0.000000
0.874319 1.301855 0.000000
0.885579 1.318384 0.000000
0.894264 1.300368 0.000000
0.905524 1.316897 0.000000
0.914208 1.298881 0.000000
0.925469 1.315410 0.000000
0.934153 1.297394 0.000000
0.945413 1.313923 0.000000
0.954098 1.295907 0.000000
0.965358 1.312436 0.000000
0.974042 1.294420 0.000000
0.985302 1.310949 0.000000
0.993987 1.292933 0.000000
1.005247 1.309462 0.000000
1.013932 1.291445 0.000000
1.025192 1.307974 0.000000
1.033876 1.289958 0.000000
1.045136 1.306487 0.000000
1.053821 1.288471 0.000000
1.065081 1.305000 0.000000
1.073765 1.286984 0.000000
1.085026 1.303513 0.000000
1.093710 1.285497 0.000000
1.104970 1.302026 0.000000
1.113655 1.284010 0.000000
1.124915 1.300539 0.000000
1.133599 1.282523 0.000000
1.144860 1.299052 0.000000
1.153544 1.281036 0.000000
1.164804 1.297565 0.000000
1.173489 1.279549 0.000000
1.162228 1.263020 0.000000
1.182173 1.261533 0.000000
1.193433 1.278062 0.000000
1.202118 1.260045 0.000000
1.190858 1.243516 0.000000
1.210802 1.242029 0.000000
1.199542 1.225500 0.000000
1.213378 1.276575 0.000000
1.219487 1.224013 0.000000
1.208226 1.207484 0.000000
1.228171 1.205997 0.000000
1.216911 1.189468 0.000000
1.236856 1.187981 0.000000
1.225595 1.171452 0.000000
1.245540 1.169965 0.000000
1.234280 1.153436 0.000000
1.254224 1.151949 0.000000
1.242964 1.135420 0.000000
1.248116 1.204510 0.000000
1.262909 1.133933 0.000000
1.251649 1.117404 0.000000
1.271593 1.115917 0.000000
1.260333 1.099388 0.000000
1.280278 1.097901 0.000000
1.269018 1.081371 0.000000
1.288962 1.079884 0.000000
1.277702 1.063355 0.000000
1.297647 1.061868 0.000000
1.286387 1.045339 0.000000
1.257757 1.064842 0.000000
1.214335 1.154923 0.000000
1.282854 1.132446 0.000000
1.306331 1.043852 0.000000
1.295071 1.027323 0.000000
1.315016 1.025836 0.000000
1.303755 1.009307 0.000000
1.102395 1.267481 0.000000
1.283811 1.010794 0.000000
1.292495 0.992778 0.000000
1.312440 0.991291 0.000000
1.301180 0.974762 0.000000
1.281235 0.976249 0.000000
1.289920 0.958233 0.000000
1.309864 0.956746 0.000000
1.298604 0.940217 0.000000
1.318549 0.938730 0.000000
1.307288 0.922201 0.000000
1.096286 1.320042 0.000000
1.327233 0.920714 0.000000
1.315973 0.904185 0.000000
1.269975 0.959720 0.000000
1.308907 1.078397 0.000000
1.296028 0.905672 0.000000
1.304713 0.887656 0.000000
1.156120 1.315581 0.000000
1.324657 0.886168 0.000000
1.313397 0.869639 0.000000
1.036452 1.324504 0.000000
1.338493 0.937243 0.000000
1.188282 1.208971 0.000000
1.293453 0.871127 0.000000
1.302137 0.853110 0.000000
1.322082 0.851623 0.000000
1.310821 0.835094 0.000000
1.042561 1.271942 0.000000
1.330766 0.833607 0.000000
1.319506 0.817078 0.000000
0.976618 1.328965 0.000000
0.876895 1.336400 0.000000
0.438113 1.369116 0.000000
1.339451 0.815591 0.000000
1.328190 0.799062 0.000000
1.350711 0.832120 0.000000
1.308246 0.800549 0.000000
0.777172 1.343836 0.000000
1.348135 0.797575 0.000000
0.677448 1.351271 0.000000
1.336875 0.781046 0.000000
1.356819 0.779559 0.000000
1.282192 0.854598 0.000000
0.982727 1.276404 0.000000
0.537836 1.361681 0.000000
1.364182 0.205847 0.000000
1.355497 0.223863 0.000000
1.219418 0.147166 0.000000
1.199473 0.148653 0.000000
1.350346 0.154772 0.000000
1.345559 0.763030 0.000000
1.365504 0.761543 0.000000
0.617614 1.355733 0.000000
0.267295 1.364484 0.000000
1.339085 0.138243 0.000000
1.279252 0.142705 0.000000
1.369994 0.552785 0.000000
1.358734 0.536256 0.000000
1.359030 0.136756 0.000000
1.354244 0.745014 0.000000
1.334299 0.746501 0.000000
0.922893 1.280865 0.000000
0.723446 1.295736 0.000000
0.623723 1.303171 0.000000
0.484111 1.313581 0.000000
1.374188 0.743527 0.000000
1.208157 0.130637 0.000000
1.188213 0.132124 0.000000
1.375442 0.222376 0.000000
1.366757 0.240392 0.000000
0.327129 1.360023 0.000000
1.347770 0.120227 0.000000
1.367715 0.118740 0.000000
0.863059 1.285326 0.000000
0.803225 1.289787 0.000000
0.563889 1.307633 0.000000
1.338789 0.537743 0.000000
1.347474 0.519727 0.000000
1.367418 0.518240 0.000000
1.356158 0.501711 0.000000
1.336214 0.503198 0.000000
1.344898 0.485182 0.000000
1.364843 0.483695 0.000000
1.353583 0.467166 0.000000
1.373527 0.465679 0.000000
1.362267 0.449150 0.000000
1.382212 0.447662 0.000000
1.370951 0.431133 0.000000
1.362928 0.726998 0.000000
1.382873 0.725511 0.000000
0.313293 1.308949 0.000000
1.179528 0.150140 0.000000
1.168268 0.133611 0.000000
1.159584 0.151627 0.000000
1.148324 0.135098 0.000000
1.139639 0.153114 0.000000
1.128379 0.136585 0.000000
1.119694 0.154602 0.000000
1.108434 0.138072 0.000000
1.099750 0.156089 0.000000
1.111010 0.172618 0.000000
1.157008 0.117082 0.000000
1.376764 0.778072 0.000000
1.091065 0.174105 0.000000
1.102326 0.190634 0.000000
1.384126 0.204360 0.000000
1.378975 0.135269 0.000000
1.390896 0.429646 0.000000
1.379636 0.413117 0.000000
1.359691 0.414604 0.000000
1.368376 0.396588 0.000000
1.388320 0.395101 0.000000
1.377060 0.378572 0.000000
1.357116 0.380059 0.000000
1.365800 0.362043 0.000000
1.385745 0.360556 0.000000
1.345855 0.363530 0.000000
1.354540 0.345514 0.000000
1.386702 0.238905 0.000000
0.107082 1.098538 0.000000
1.346813 0.241879 0.000000
1.324953 0.486669 0.000000
1.272847 0.594766 0.000000
1.378017 0.256921 0.000000
1.082381 0.192121 0.000000
1.093641 0.208650 0.000000
0.155657 1.077543 0.000000
1.387659 0.117253 0.000000
1.381254 0.569314 0.000000
1.073696 0.210137 0.000000
1.084957 0.226666 0.000000
1.371613 0.708982 0.000000
1.391557 0.707494 0.000000
1.402817 0.724023 0.000000
0.211952 1.160188 0.000000
0.373127 1.304487 0.000000
1.384787 0.482208 0.000000
0.577725 1.358707 0.000000
1.132277 0.726827 0.000000
0.717338 1.348297 0.000000
1.347178 0.919226 0.000000
1.358438 0.935756 0.000000
1.367122 0.917739 0.000000
1.378383 0.934268 0.000000
1.387067 0.916252 0.000000
1.398327 0.932781 0.000000
1.389643 0.950797 0.000000
1.407012 0.914765 0.000000
1.418272 0.931294 0.000000
1.204693 1.294591 0.000000
1.224638 1.293104 0.000000
1.215954 1.311120 0.000000
1.235898 1.309633 0.000000
1.227214 1.327649 0.000000
1.247158 1.326162 0.000000
1.255843 1.308145 0.000000
1.267103 1.324674 0.000000
1.275788 1.306658 0.000000
1.287048 1.323187 0.000000
1.295732 1.305171 0.000000
1.306992 1.321700 0.000000
1.315677 1.303684 0.000000
1.326937 1.320213 0.000000
1.238474 1.344178 0.000000
1.335621 1.302197 0.000000
1.346882 1.318726 0.000000
1.338197 1.336742 0.000000
1.358142 1.335255 0.000000
1.349457 1.353271 0.000000
1.324361 1.285668 0.000000
1.344306 1.284181 0.000000
1.333046 1.267652 0.000000
1.352990 1.266165 0.000000
1.341730 1.249636 0.000000
1.361675 1.248149 0.000000
1.350415 1.231620 0.000000
1.370359 1.230133 0.000000
1.359099 1.213604 0.000000
1.369402 1.351784 0.000000
1.360718 1.369800 0.000000
1.340773 1.371287 0.000000
1.379044 1.212117 0.000000
1.367784 1.195587 0.000000
1.378086 1.333768 0.000000
1.380662 1.368313 0.000000
1.371978 1.386329 0.000000
1.387728 1.194100 0.000000
1.376468 1.177571 0.000000
1.218529 1.345665 0.000000
1.229790 1.362194 0.000000
1.209845 1.363681 0.000000
1.221105 1.380210 0.000000
1.201160 1.381697 0.000000
1.212421 1.398226 0.000000
1.232365 1.396739 0.000000
1.192476 1.399713 0.000000
1.372935 1.264678 0.000000
1.339154 1.215091 0.000000
1.391922 1.384842 0.000000
1.383238 1.402858 0.000000
1.396413 1.176084 0.000000
1.385152 1.159555 0.000000
1.407673 1.192613 0.000000
1.203736 1.416242 0.000000
1.183792 1.417729 0.000000
1.172531 1.401200 0.000000
1.163847 1.419216 0.000000
1.152587 1.402687 0.000000
1.143902 1.420703 0.000000
1.132642 1.404174 0.000000
1.123958 1.422190 0.000000
1.112697 1.405661 0.000000
1.104013 1.423678 0.000000
1.092753 1.407149 0.000000
1.084068 1.425165 0.000000
1.072808 1.408636 0.000000
1.249734 1.360707 0.000000
1.231704 1.118891 0.000000
1.395751 0.898236 0.000000
1.415696 0.896749 0.000000
1.313101 1.269139 0.000000
0.316826 1.221842 0.000000
0.478002 1.366142 0.000000
1.404436 0.880220 0.000000
0.398223 1.372091 0.000000
1.389939 0.551298 0.000000
1.390304 1.228646 0.000000
1.104901 0.225179 0.000000
1.096217 0.243195 0.000000
1.076272 0.244682 0.000000
1.087532 0.261211 0.000000
1.067588 0.262698 0.000000
1.078848 0.279227 0.000000
1.098793 0.277740 0.000000
1.090108 0.295756 0.000000
1.110053 0.294269 0.000000
1.101368 0.312285 0.000000
1.081424 0.313772 0.000000
1.092684 0.330301 0.000000
1.072739 0.331788 0.000000
1.083999 0.348317 0.000000
1.064055 0.349805 0.000000
1.075315 0.366334 0.000000
1.055370 0.367821 0.000000
1.066630 0.384350 0.000000
1.095260 0.364846 0.000000
1.046686 0.385837 0.000000
1.057946 0.402366 0.000000
1.038001 0.403853 0.000000
1.049262 0.420382 0.000000
1.029317 0.421869 0.000000
1.040577 0.438398 0.000000
1.060522 0.436911 0.000000
1.051837 0.454927 0.000000
1.031893 0.456414 0.000000
1.043153 0.472943 0.000000
1.023208 0.474430 0.000000
1.034468 0.490959 0.000000
1.014524 0.492446 0.000000
1.025784 0.508975 0.000000
1.005839 0.510462 0.000000
1.017099 0.526991 0.000000
0.997155 0.528479 0.000000
1.008415 0.545008 0.000000
1.028360 0.543520 0.000000
1.019675 0.561537 0.000000
0.999731 0.563024 0.000000
1.010991 0.579553 0.000000
0.991046 0.581040 0.000000
1.002306 0.597569 0.000000
0.982362 0.599056 0.000000
0.993622 0.615585 0.000000
0.973677 0.617072 0.000000
0.984937 0.633601 0.000000
0.964993 0.635088 0.000000
0.976253 0.651617 0.000000
0.956308 0.653104 0.000000
0.967568 0.669633 0.000000
0.947624 0.671120 0.000000
0.958884 0.687649 0.000000
0.938939 0.689136 0.000000
0.950200 0.705665 0.000000
0.930255 0.707153 0.000000
0.941515 0.723682 0.000000
0.921570 0.725169 0.000000
0.932831 0.741698 0.000000
0.912886 0.743185 0.000000
0.924146 0.759714 0.000000
0.904202 0.761201 0.000000
0.915462 0.777730 0.000000
0.895517 0.779217 0.000000
0.906777 0.795746 0.000000
0.886833 0.797233 0.000000
0.898093 0.813762 0.000000
0.878148 0.815249 0.000000
0.889408 0.831778 0.000000
0.869464 0.833265 0.000000
0.880724 0.849794 0.000000
0.860779 0.851281 0.000000
0.872039 0.867810 0.000000
0.852095 0.869298 0.000000
0.863355 0.885827 0.000000
0.843410 0.887314 0.000000
0.854671 0.903843 0.000000
0.834726 0.905330 0.000000
0.845986 0.921859 0.000000
0.826041 0.923346 0.000000
0.814781 0.906817 0.000000
0.806097 0.924833 0.000000
0.837302 0.939875 0.000000
0.794837 0.908304 0.000000
0.786152 0.926320 0.000000
0.774892 0.909791 0.000000
0.766208 0.927807 0.000000
0.777468 0.944336 0.000000
0.757523 0.945823 0.000000
0.746263 0.929294 0.000000
0.737578 0.947310 0.000000
0.748839 0.963839 0.000000
0.728894 0.965326 0.000000
0.717634 0.948797 0.000000
0.708949 0.966814 0.000000
0.849519 0.834752 0.000000
0.697689 0.950285 0.000000
0.689005 0.968301 0.000000
0.883300 0.884339 0.000000
0.677745 0.951772 0.000000
0.669060 0.969788 0.000000
0.680320 0.986317 0.000000
0.660376 0.987804 0.000000
0.649115 0.971275 0.000000
0.640431 0.989291 0.000000
0.926722 0.794259 0.000000
0.961460 0.722194 0.000000
1.004882 0.632114 0.000000
1.030935 0.578066 0.000000
0.740154 0.981855 0.000000
0.875572 0.780704 0.000000
0.857246 0.938388 0.000000
0.848562 0.956404 0.000000
0.686429 0.933756 0.000000
0.629171 0.972762 0.000000
0.620486 0.990778 0.000000
0.671636 1.004333 0.000000
0.609226 0.974249 0.000000
0.600542 0.992265 0.000000
0.901626 0.726656 0.000000
0.868506 0.954917 0.000000
0.859822 0.972933 0.000000
0.611802 1.008794 0.000000
0.591857 1.010281 0.000000
0.580597 0.993752 0.000000
0.571913 1.011768 0.000000
0.560652 0.995239 0.000000
0.551968 1.013255 0.000000
0.540708 0.996726 0.000000
0.532023 1.014743 0.000000
0.927679 0.672607 0.000000
0.617911 0.956233 0.000000
0.603117 1.026810 0.000000
0.879767 0.971446 0.000000
0.871082 0.989462 0.000000
0.851138 0.990949 0.000000
0.862398 1.007478 0.000000
0.842453 1.008965 0.000000
0.543284 1.031272 0.000000
0.523339 1.032759 0.000000
0.512079 1.016230 0.000000
0.503394 1.034246 0.000000
0.492134 1.017717 0.000000
0.483450 1.035733 0.000000
1.054413 0.489472 0.000000
0.783576 0.891775 0.000000
0.953733 0.618559 0.000000
0.472189 1.019204 0.000000
0.463505 1.037220 0.000000
0.853713 1.025494 0.000000
0.833769 1.026981 0.000000
0.514654 1.050775 0.000000
0.452245 1.020691 0.000000
0.443560 1.038707 0.000000
0.549392 0.978710 0.000000
0.432300 1.022178 0.000000
0.423616 1.040194 0.000000
0.434876 1.056723 0.000000
0.414931 1.058210 0.000000
0.403671 1.041681 0.000000
0.394987 1.059697 0.000000
0.383726 1.043168 0.000000
0.375042 1.061184 0.000000
0.873658 1.024007 0.000000
0.845029 1.043510 0.000000
0.825084 1.044997 0.000000
1.121313 0.310798 0.000000
0.888451 0.953430 0.000000
0.899711 0.969959 0.000000
0.908396 0.951943 0.000000
0.363782 1.044655 0.000000
0.355097 1.062672 0.000000
0.343837 1.046143 0.000000
0.335153 1.064159 0.000000
0.480874 1.001188 0.000000
0.323892 1.047630 0.000000
0.315208 1.065646 0.000000
0.994579 0.493933 0.000000
0.366357 1.079201 0.000000
0.426191 1.074739 0.000000
1.052795 0.333276 0.000000
0.303948 1.049117 0.000000
0.295263 1.067133 0.000000
0.306524 1.083662 0.000000
0.286579 1.085149 0.000000
0.275319 1.068620 0.000000
1.018057 0.405340 0.000000
0.266634 1.086636 0.000000
0.255374 1.070107 0.000000
0.919656 0.968472 0.000000
0.928340 0.950456 0.000000
1.071782 0.453440 0.000000
0.813824 1.028468 0.000000
0.805140 1.046484 0.000000
0.979786 0.564511 0.000000
0.987513 0.668146 0.000000
1.363293 1.404345 0.000000
0.196201 1.352416 0.000000
0.207462 1.368945 0.000000
0.187517 1.370433 0.000000
0.198777 1.386962 0.000000
0.178832 1.388449 0.000000
0.900669 0.848307 0.000000
0.992368 1.136736 0.000000
1.012313 1.135249 0.000000
1.003629 1.153265 0.000000
1.023573 1.151778 0.000000
1.032258 1.133762 0.000000
1.043518 1.150291 0.000000
1.052202 1.132275 0.000000
1.063463 1.148804 0.000000
1.072147 1.130788 0.000000
1.083407 1.147317 0.000000
1.092092 1.129300 0.000000
1.103352 1.145829 0.000000
1.112036 1.127813 0.000000
1.100776 1.111284 0.000000
1.120721 1.109797 0.000000
1.109461 1.093268 0.000000
1.129405 1.091781 0.000000
1.118145 1.075252 0.000000
1.138090 1.073765 0.000000
1.126829 1.057236 0.000000
1.146774 1.055749 0.000000
1.135514 1.039220 0.000000
1.155459 1.037733 0.000000
1.144198 1.021204 0.000000
1.164143 1.019717 0.000000
1.152883 1.003188 0.000000
1.074723 1.165333 0.000000
1.014889 1.169794 0.000000
1.172827 1.001701 0.000000
1.161567 0.985172 0.000000
1.181512 0.983685 0.000000
1.170252 0.967155 0.000000
1.192772 1.000214 0.000000
1.166719 1.054262 0.000000
1.123296 1.144342 0.000000
1.190196 0.965668 0.000000
1.178936 0.949139 0.000000
1.198881 0.947652 0.000000
1.187621 0.931123 0.000000
1.207565 0.929636 0.000000
1.196305 0.913107 0.000000
1.140665 1.108310 0.000000
0.916784 1.333426 0.000000
0.763336 1.292762 0.000000
0.273404 1.311923 0.000000
0.943795 1.157726 0.000000
0.442603 1.160359 0.000000
0.841496 1.130617 0.000000
0.663612 1.300197 0.000000
0.681939 1.142513 0.000000
0.715719 1.192100 0.000000
1.203667 0.339395 0.000000
1.019379 0.961036 0.000000
1.200134 0.426501 0.000000
0.615996 1.199536 0.000000
1.027106 1.064672 0.000000
0.524000 1.310607 0.000000
1.246793 0.648814 0.000000
1.062801 0.870956 0.000000
0.522382 1.154410 0.000000
1.326276 1.042365 0.000000
1.334960 1.024349 0.000000
1.346220 1.040878 0.000000
1.354905 1.022862 0.000000
1.366165 1.039391 0.000000
1.357481 1.057407 0.000000
1.377425 1.055920 0.000000
1.386110 1.037904 0.000000
1.230747 1.240542 0.000000
1.077891 0.400879 0.000000
1.293087 0.193779 0.000000
1.173124 0.602201 0.000000
0.396605 1.215894 0.000000
0.151161 1.286300 0.000000
1.097539 0.798891 0.000000
1.113951 0.884510 0.000000
0.476384 1.209946 0.000000
0.167572 1.371920 0.000000
0.158888 1.389936 0.000000
0.147628 1.373407 0.000000
0.138943 1.391423 0.000000
0.127683 1.374894 0.000000
0.118999 1.392910 0.000000
0.107738 1.376381 0.000000
0.099054 1.394397 0.000000
0.116423 1.358365 0.000000
0.096478 1.359852 0.000000
0.105163 1.341836 0.000000
0.602160 1.148462 0.000000
1.148689 0.812446 0.000000
0.761717 1.136565 0.000000
0.910014 1.108139 0.000000
1.117119 0.120056 0.000000
1.097174 0.121543 0.000000
1.105859 0.103527 0.000000
1.183426 0.740382 0.000000
1.061844 0.992607 0.000000
0.444221 1.316555 0.000000
0.446136 1.073252 0.000000
1.342322 0.450637 0.000000
0.139900 1.269771 0.000000
1.159288 0.551127 0.000000
1.148027 0.534598 0.000000
1.139343 0.552614 0.000000
1.128083 0.536085 0.000000
1.119398 0.554101 0.000000
1.136767 0.518069 0.000000
1.242599 0.458072 0.000000
1.400607 1.366826 0.000000
0.944091 0.758227 0.000000
0.763632 0.893262 0.000000
0.772316 0.875246 0.000000
0.752372 0.876733 0.000000
0.761056 0.858717 0.000000
0.741111 0.860204 0.000000
0.749796 0.842188 0.000000
0.729851 0.843675 0.000000
0.738536 0.825659 0.000000
0.758480 0.824172 0.000000
0.747220 0.807643 0.000000
0.767165 0.806156 0.000000
0.755905 0.789627 0.000000
0.775849 0.788140 0.000000
0.721167 0.861691 0.000000
0.709907 0.845162 0.000000
0.701222 0.863178 0.000000
1.196897 0.114108 0.000000
1.216842 0.112621 0.000000
1.265485 1.168478 0.000000
1.114612 1.162359 0.000000
1.365208 1.161042 0.000000
1.269610 0.282372 0.000000
0.392411 1.025152 0.000000
1.194983 0.357411 0.000000
0.817061 1.340862 0.000000
1.009372 0.423356 0.000000
1.337171 0.381546 0.000000
1.316269 0.504685 0.000000
1.263501 0.334934 0.000000
1.368741 1.073936 0.000000
1.388685 1.072449 0.000000
1.351668 0.710469 0.000000
1.273508 0.872614 0.000000
1.262248 0.856085 0.000000
1.356454 0.102211 0.000000
1.336510 0.103698 0.000000
1.402156 0.446175 0.000000
1.064124 1.426652 0.000000
1.052864 1.410123 0.000000
1.044179 1.428139 0.000000
1.032919 1.411610 0.000000
1.115237 1.439720 0.000000
1.374553 1.420874 0.000000
0.689962 0.846649 0.000000
0.681278 0.864665 0.000000
0.440985 1.004162 0.000000
0.764589 0.771611 0.000000
0.784534 0.770123 0.000000
1.397962 0.255434 0.000000
1.406647 0.237418 0.000000
1.389278 0.273450 0.000000
1.369333 0.274937 0.000000
1.354609 1.422361 0.000000
1.035426 0.369308 0.000000
1.411867 1.383355 0.000000
1.411502 0.706007 0.000000
1.400242 0.689478 0.000000
1.420186 0.687991 0.000000
1.408926 0.671462 0.000000
1.205582 0.096092 0.000000
1.225526 0.094605 0.000000
1.424381 0.878733 0.000000
1.413120 0.862204 0.000000
1.435641 0.895262 0.000000
1.398919 0.133782 0.000000
1.075384 1.443181 0.000000
1.024234 1.429626 0.000000
1.012974 1.413097 0.000000
1.405097 1.158068 0.000000
1.085914 0.105014 0.000000
1.420551 1.365339 0.000000
0.190093 1.404978 0.000000
0.210037 1.403491 0.000000
1.410841 0.428159 0.000000
0.085218 1.343323 0.000000
0.093902 1.325307 0.000000
1.079805 0.157576 0.000000
0.727276 0.809130 0.000000
1.345194 0.085682 0.000000
1.325250 0.087169 0.000000
1.365139 0.084195 0.000000
1.094598 0.086998 0.000000
1.114543 0.085511 0.000000
0.130259 1.409439 0.000000
1.401199 0.567827 0.000000
1.409883 0.549811 0.000000
1.004290 1.431113 0.000000
0.993030 1.414584 0.000000
0.084663 1.065493 0.000000
0.297839 1.101678 0.000000
1.108138 0.537572 0.000000
1.099454 0.555588 0.000000
1.110714 0.572117 0.000000
1.134557 1.160871 0.000000
1.125872 1.178888 0.000000
1.261290 0.977736 0.000000
0.793879 1.029955 0.000000
0.785195 1.047972 0.000000
1.118737 0.276253 0.000000
1.021659 1.395081 0.000000
0.802564 1.011939 0.000000
1.278294 0.264356 0.000000
1.289554 0.280885 0.000000
0.210995 1.281839 0.000000
1.121382 1.387645 0.000000
1.061548 1.392107 0.000000
1.158992 0.950626 0.000000
0.795794 0.786652 0.000000
0.804478 0.768636 0.000000
0.793218 0.752107 0.000000
0.813163 0.750620 0.000000
0.802031 0.734153 0.000000
0.821869 0.732614 0.000000
0.810740 0.716149 0.000000
0.830561 0.714602 0.000000
0.781001 0.857230 0.000000
1.098200 1.076739 0.000000
1.132938 1.004675 0.000000
0.816400 1.063013 0.000000
1.115569 1.040707 0.000000
1.268653 0.404024 0.000000
1.334595 0.347001 0.000000
1.409222 0.271963 0.000000
1.400538 0.289979 0.000000
1.422101 0.444688 0.000000
1.394498 1.419387 0.000000
0.352522 1.028126 0.000000
1.420482 0.288492 0.000000
1.385814 1.437403 0.000000
1.056328 0.246169 0.000000
1.047643 0.264185 0.000000
0.246690 1.088123 0.000000
0.235429 1.071594 0.000000
0.257950 1.104652 0.000000
0.437452 1.091268 0.000000
0.457396 1.089781 0.000000
0.939601 0.966985 0.000000
0.948285 0.948968 0.000000
0.930916 0.985001 0.000000
0.937025 0.932439 0.000000
0.956969 0.930952 0.000000
0.945709 0.914423 0.000000
0.965654 0.912936 0.000000
0.954394 0.896407 0.000000
0.974338 0.894920 0.000000
0.963078 0.878391 0.000000
0.983023 0.876904 0.000000
0.971763 0.860375 0.000000
0.991707 0.858888 0.000000
0.980447 0.842359 0.000000
1.000392 0.840872 0.000000
0.989132 0.824343 0.000000
1.009076 0.822856 0.000000
0.997816 0.806327 0.000000
1.017761 0.804840 0.000000
1.006500 0.788311 0.000000
1.026445 0.786823 0.000000
1.015185 0.770294 0.000000
1.035130 0.768807 0.000000
1.023869 0.752278 0.000000
1.043814 0.750791 0.000000
1.032554 0.734262 0.000000
1.052498 0.732775 0.000000
1.041238 0.716246 0.000000
1.061183 0.714759 0.000000
1.049923 0.698230 0.000000
1.069867 0.696743 0.000000
1.058607 0.680214 0.000000
1.078552 0.678727 0.000000
1.067292 0.662198 0.000000
1.087236 0.660711 0.000000
1.075976 0.644182 0.000000
1.095921 0.642695 0.000000
1.346517 0.641378 0.000000
1.183723 0.340882 0.000000
1.175038 0.358898 0.000000
1.122270 0.189147 0.000000
1.305009 0.488156 0.000000
1.176360 0.914594 0.000000
1.185045 0.896578 0.000000
1.161271 1.384671 0.000000
1.204990 0.895091 0.000000
1.193729 0.878562 0.000000
1.279913 0.420553 0.000000
1.373892 1.143026 0.000000
1.353948 1.144513 0.000000
1.407604 0.115766 0.000000
0.244114 1.053578 0.000000
0.224169 1.055065 0.000000
0.670825 0.848526 0.000000
0.661468 0.866217 0.000000
1.195052 1.434258 0.000000
1.214996 1.432771 0.000000
1.206809 1.450448 0.000000
1.226339 1.449244 0.000000
1.422762 0.722536 0.000000
1.433065 0.860717 0.000000
1.421805 0.844188 0.000000
0.998112 0.406827 0.000000
0.989428 0.424843 0.000000
0.819302 0.698074 0.000000
0.839226 0.696577 0.000000
0.215485 1.073081 0.000000
0.204225 1.056552 0.000000
1.090769 0.573604 0.000000
0.985599 0.911449 0.000000
0.163378 1.181178 0.000000
1.088194 0.539059 0.000000
1.096878 0.521043 0.000000
1.098496 0.677240 0.000000
0.773935 1.031443 0.000000
0.765250 1.049459 0.000000
0.776510 1.065988 0.000000
0.756566 1.067475 0.000000
0.745306 1.050946 0.000000
0.736621 1.068962 0.000000
0.725361 1.052433 0.000000
0.716677 1.070449 0.000000
0.705416 1.053920 0.000000
0.696732 1.071936 0.000000
0.685472 1.055407 0.000000
0.676787 1.073423 0.000000
0.665527 1.056894 0.000000
0.656843 1.074910 0.000000
1.343280 0.328985 0.000000
0.714101 1.035904 0.000000
1.021294 0.717733 0.000000
1.414078 0.740552 0.000000
1.296324 0.506172 0.000000
0.317784 1.100191 0.000000
0.960502 0.843846 0.000000
0.309099 1.118207 0.000000
0.329044 1.116720 0.000000
1.298308 1.339716 0.000000
0.417507 1.092755 0.000000
0.828617 0.957891 0.000000
0.378279 1.373578 0.000000
0.389539 1.390107 0.000000
0.369594 1.391594 0.000000
0.380855 1.408123 0.000000
0.400799 1.406636 0.000000
0.360910 1.409610 0.000000
0.392115 1.424652 0.000000
0.412059 1.423165 0.000000
1.411798 0.306508 0.000000
0.529448 0.980197 0.000000
0.538132 0.962181 0.000000
0.518187 0.963668 0.000000
0.526872 0.945652 0.000000
0.546817 0.944165 0.000000
0.994944 1.171281 0.000000
1.006204 1.187810 0.000000
0.986260 1.189297 0.000000
0.997520 1.205826 0.000000
0.977575 1.207313 0.000000
1.017465 1.204339 0.000000
1.008780 1.222355 0.000000
1.028725 1.220868 0.000000
0.666484 0.935243 0.000000
0.890070 1.109626 0.000000
0.898754 1.091610 0.000000
0.878809 1.093097 0.000000
1.349753 0.953772 0.000000
0.712482 0.879707 0.000000
1.384491 0.881707 0.000000
1.392515 0.585843 0.000000
1.412459 0.584356 0.000000
1.403775 0.602372 0.000000
1.423719 0.600885 0.000000
1.432404 0.582869 0.000000
1.267034 0.247827 0.000000
1.264527 1.290129 0.000000
1.321420 0.573775 0.000000
0.393072 1.303000 0.000000
0.381812 1.286471 0.000000
0.401756 1.284984 0.000000
0.361867 1.287958 0.000000
1.270932 0.838069 0.000000
1.250988 0.839556 0.000000
1.259672 0.821540 0.000000
1.239727 0.823027 0.000000
1.248412 0.805010 0.000000
1.228467 0.806498 0.000000
1.237152 0.788481 0.000000
1.060887 1.114259 0.000000
1.286979 0.246340 0.000000
0.815739 0.785165 0.000000
0.841796 0.731119 0.000000
0.807054 0.803181 0.000000
1.345263 1.162529 0.000000
1.257096 0.786994 0.000000
1.245836 0.770465 0.000000
1.265781 0.768978 0.000000
1.254521 0.752449 0.000000
1.323335 0.330472 0.000000
1.314651 0.348488 0.000000
1.274465 0.750962 0.000000
1.263205 0.734433 0.000000
1.332019 0.312456 0.000000
1.283150 0.732946 0.000000
1.271889 0.716417 0.000000
1.291834 0.714930 0.000000
1.280574 0.698401 0.000000
1.260629 0.699888 0.000000
1.300519 0.696914 0.000000
1.219783 0.824514 0.000000
1.214266 0.078076 0.000000
1.194322 0.079563 0.000000
1.234211 0.076589 0.000000
1.245471 0.093118 0.000000
1.254155 0.075102 0.000000
1.265416 0.091631 0.000000
1.274100 0.073614 0.000000
0.827963 0.680046 0.000000
0.847903 0.678557 0.000000
0.836642 0.662028 0.000000
0.856586 0.660540 0.000000
0.867846 0.677069 0.000000
0.876530 0.659053 0.000000
0.865270 0.642524 0.000000
0.885214 0.641037 0.000000
0.873954 0.624507 0.000000
0.893899 0.623020 0.000000
0.882638 0.606491 0.000000
0.902583 0.605004 0.000000
1.062436 0.193608 0.000000
0.076534 1.361339 0.000000
1.074654 0.088485 0.000000
1.065969 0.106502 0.000000
1.103283 0.068982 0.000000
1.418819 0.132273 0.000000
1.410172 0.150308 0.000000
0.506927 0.947139 0.000000
0.312632 1.031101 0.000000
0.292688 1.032588 0.000000
1.123227 0.067495 0.000000
0.065273 1.344810 0.000000
0.201353 1.421507 0.000000
0.221297 1.420020 0.000000
0.782418 0.734801 0.000000
0.679644 0.830575 0.000000
1.333934 0.069153 0.000000
0.516407 0.929672 0.000000
0.984345 1.432600 0.000000
0.973085 1.416071 0.000000
0.981769 1.398055 0.000000
0.961825 1.399542 0.000000
0.953140 1.417558 0.000000
0.941880 1.401029 0.000000
0.933196 1.419045 0.000000
0.921935 1.402516 0.000000
0.913251 1.420532 0.000000
0.901991 1.404003 0.000000
0.893306 1.422020 0.000000
0.882046 1.405491 0.000000
0.873362 1.423507 0.000000
0.862102 1.406978 0.000000
0.950565 1.383013 0.000000
0.853417 1.424994 0.000000
0.842157 1.408465 0.000000
0.850841 1.390449 0.000000
0.830897 1.391936 0.000000
0.822212 1.409952 0.000000
0.810952 1.393423 0.000000
0.802268 1.411439 0.000000
0.791007 1.394910 0.000000
0.782323 1.412926 0.000000
0.771063 1.396397 0.000000
0.762378 1.414413 0.000000
0.773639 1.430942 0.000000
0.751118 1.397884 0.000000
0.742434 1.415900 0.000000
0.731174 1.399371 0.000000
0.722489 1.417387 0.000000
0.711229 1.400858 0.000000
0.702544 1.418874 0.000000
0.691284 1.402345 0.000000
0.682600 1.420361 0.000000
0.671340 1.403832 0.000000
0.662655 1.421849 0.000000
0.673915 1.438378 0.000000
0.653800 1.439981 0.000000
0.642682 1.423355 0.000000
0.891728 0.588670 0.000000
0.911335 0.587021 0.000000
0.900491 0.570692 0.000000
0.878400 0.510921 0.000000
0.920044 0.569016 0.000000
1.431743 0.305021 0.000000
1.423058 0.323037 0.000000
0.181408 1.422994 0.000000
0.744644 0.773098 0.000000
0.403375 1.441181 0.000000
0.423320 1.439694 0.000000
0.432004 1.421678 0.000000
0.443264 1.438207 0.000000
0.451949 1.420191 0.000000
0.463209 1.436720 0.000000
0.471893 1.418703 0.000000
0.483153 1.435232 0.000000
0.491838 1.417216 0.000000
0.503098 1.433745 0.000000
0.511783 1.415729 0.000000
0.523043 1.432258 0.000000
0.531727 1.414242 0.000000
0.542987 1.430771 0.000000
0.551672 1.412755 0.000000
0.562932 1.429284 0.000000
0.571616 1.411268 0.000000
0.582877 1.427797 0.000000
0.591561 1.409781 0.000000
0.474469 1.453249 0.000000
0.414635 1.457710 0.000000
1.441749 0.842701 0.000000
1.430489 0.826172 0.000000
1.410545 0.827659 0.000000
1.419229 0.809643 0.000000
0.383430 1.442668 0.000000
1.430785 0.426672 0.000000
1.015550 1.447642 0.000000
0.884622 1.440036 0.000000
1.155162 1.437232 0.000000
1.428871 0.669975 0.000000
0.650282 0.847229 0.000000
0.641446 0.867251 0.000000
0.909547 0.552855 0.000000
0.928794 0.551032 0.000000
0.918305 0.534874 0.000000
0.937502 0.533027 0.000000
1.453010 0.859230 0.000000
0.800195 0.699793 0.000000
1.036645 0.247783 0.000000
1.028731 0.266170 0.000000
1.429167 0.270476 0.000000
0.238005 1.106139 0.000000
0.249265 1.122668 0.000000
0.428767 1.109284 0.000000
0.408822 1.110771 0.000000
0.950861 0.983514 0.000000
0.942176 1.001530 0.000000
0.968230 0.947481 0.000000
0.668103 1.091439 0.000000
0.648158 1.092926 0.000000
0.636898 1.076397 0.000000
0.628214 1.094413 0.000000
0.616953 1.077884 0.000000
0.608269 1.095901 0.000000
0.597009 1.079372 0.000000
0.588324 1.097388 0.000000
0.577064 1.080859 0.000000
0.568380 1.098875 0.000000
1.011652 0.857401 0.000000
0.707992 1.088465 0.000000
0.747881 1.085491 0.000000
1.029021 0.821369 0.000000
1.046390 0.785336 0.000000
0.887494 1.075081 0.000000
0.907438 1.073594 0.000000
1.063759 0.749304 0.000000
1.081128 0.713272 0.000000
1.243260 0.735920 0.000000
1.225891 0.771952 0.000000
1.360352 0.692453 0.000000
1.366461 0.639891 0.000000
1.208523 0.807985 0.000000
1.199838 0.826001 0.000000
1.415035 0.618901 0.000000
1.434980 0.617414 0.000000
0.557119 1.082346 0.000000
0.548435 1.100362 0.000000
1.250030 0.961207 0.000000
1.258715 0.943191 0.000000
1.145817 1.177400 0.000000
1.137132 1.195417 0.000000
1.117188 1.196904 0.000000
1.128448 1.213433 0.000000
1.108503 1.214920 0.000000
1.154501 1.159384 0.000000
1.056031 0.645669 0.000000
1.064716 0.627653 0.000000
0.623062 1.025323 0.000000
1.038663 0.681701 0.000000
1.253563 0.874101 0.000000
1.102029 0.590133 0.000000
1.163778 0.342369 0.000000
1.172462 0.324353 0.000000
1.155093 0.360385 0.000000
1.166354 0.376914 0.000000
1.146409 0.378401 0.000000
1.157669 0.394930 0.000000
1.137725 0.396417 0.000000
1.148985 0.412946 0.000000
1.129040 0.414433 0.000000
1.140300 0.430963 0.000000
1.120356 0.432450 0.000000
1.131616 0.448979 0.000000
1.241346 0.979223 0.000000
0.995240 0.771782 0.000000
0.370552 1.269942 0.000000
0.350607 1.271429 0.000000
0.890731 1.387474 0.000000
0.977871 0.807814 0.000000
0.760099 0.980368 0.000000
1.285064 0.489643 0.000000
0.131216 1.287787 0.000000
0.119956 1.271258 0.000000
1.293749 0.471627 0.000000
1.037409 1.202852 0.000000
1.048669 1.219381 0.000000
0.652680 0.884115 0.000000
0.632719 0.885582 0.000000
0.621941 0.869283 0.000000
0.612844 0.887157 0.000000
0.943134 0.879878 0.000000
1.391853 0.307995 0.000000
1.198585 1.347152 0.000000
0.624019 0.903672 0.000000
0.604089 0.905161 0.000000
0.592831 0.888632 0.000000
0.125107 1.340349 0.000000
1.170844 0.168156 0.000000
1.165100 0.898065 0.000000
1.174081 0.480550 0.000000
0.925765 0.915910 0.000000
0.229982 1.402003 0.000000
0.241242 1.418532 0.000000
0.232558 1.436549 0.000000
0.252502 1.435061 0.000000
0.261187 1.417045 0.000000
0.272447 1.433574 0.000000
0.281131 1.415558 0.000000
0.292392 1.432087 0.000000
0.301076 1.414071 0.000000
1.316565 0.105185 0.000000
0.832150 0.870785 0.000000
1.039131 0.282284 0.000000
1.020204 0.284262 0.000000
1.121974 0.588646 0.000000
0.922232 1.003017 0.000000
0.933492 1.019546 0.000000
0.597966 0.957720 0.000000
0.584133 0.906646 0.000000
1.362632 1.126497 0.000000
1.342687 1.127984 0.000000
1.382577 1.125010 0.000000
1.288597 0.402537 0.000000
1.299857 0.419066 0.000000
0.534303 1.448787 0.000000
0.633634 1.441297 0.000000
0.926246 0.516500 0.000000
0.946066 0.514953 0.000000
0.935811 0.498908 0.000000
0.871379 0.589195 0.000000
0.813528 1.427968 0.000000
0.312336 1.430600 0.000000
1.405758 1.435916 0.000000
0.713805 1.435403 0.000000
0.232882 1.037423 0.000000
0.572873 0.890117 0.000000
1.440131 0.686504 0.000000
1.397074 1.453932 0.000000
1.377129 1.455419 0.000000
0.665032 1.456529 0.000000
1.203006 0.061547 0.000000
1.183061 0.063034 0.000000
1.443003 0.321550 0.000000
1.434318 0.339566 0.000000
0.301372 1.014572 0.000000
1.429968 0.148868 0.000000
1.421412 0.166847 0.000000
1.427496 0.114254 0.000000
1.416280 0.097746 0.000000
0.978167 0.408314 0.000000
0.986852 0.390298 0.000000
0.969483 0.426330 0.000000
0.980743 0.442859 0.000000
0.960799 0.444346 0.000000
1.431812 1.381868 0.000000
1.440496 1.363852 0.000000
1.429236 1.347323 0.000000
1.449181 1.345836 0.000000
1.437920 1.329307 0.000000
0.924235 1.437573 0.000000
1.218166 1.466912 0.000000
1.237629 1.465752 0.000000
1.246218 1.447802 0.000000
1.257483 1.464327 0.000000
1.266148 1.446324 0.000000
0.062135 1.032621 0.000000
1.054709 0.089973 0.000000
1.063394 0.071956 0.000000
0.281436 1.016167 0.000000
1.242895 0.058573 0.000000
1.046025 0.107989 0.000000
0.133234 1.044383 0.000000
1.454263 0.338079 0.000000
1.445579 0.356095 0.000000
0.192668 1.439523 0.000000
0.855227 0.626973 0.000000
1.457865 1.327820 0.000000
1.446605 1.311291 0.000000
1.426660 1.312778 0.000000
1.435345 1.294762 0.000000
1.415400 1.296249 0.000000
1.424084 1.278233 0.000000
1.451687 0.303534 0.000000
1.436223 0.096258 0.000000
1.424970 0.079732 0.000000
0.303607 1.448595 0.000000
0.574192 1.445813 0.000000
0.195540 1.074568 0.000000
0.184280 1.058039 0.000000
0.192964 1.040023 0.000000
0.173021 1.041510 0.000000
0.320359 1.134736 0.000000
0.340304 1.133249 0.000000
0.896178 1.057065 0.000000
0.229321 1.124155 0.000000
0.962121 1.000043 0.000000
0.300415 1.136223 0.000000
0.867549 1.076568 0.000000
1.269314 0.681872 0.000000
0.537175 1.083833 0.000000
0.528490 1.101849 0.000000
0.517230 1.085320 0.000000
0.508546 1.103336 0.000000
1.249369 0.683359 0.000000
1.165761 1.175913 0.000000
1.111671 0.450466 0.000000
1.122931 0.466995 0.000000
1.102987 0.468482 0.000000
1.113290 0.606662 0.000000
1.076933 0.522530 0.000000
1.068249 0.540546 0.000000
1.213674 0.877075 0.000000
0.565804 1.064330 0.000000
1.119763 1.231449 0.000000
1.099819 1.232936 0.000000
1.139708 1.229962 0.000000
1.188578 0.809472 0.000000
1.179893 0.827488 0.000000
1.044771 0.629140 0.000000
1.053456 0.611124 0.000000
1.020040 1.238884 0.000000
1.000096 1.240371 0.000000
1.100411 0.433937 0.000000
1.117780 0.397904 0.000000
1.135149 0.361872 0.000000
1.174446 1.157897 0.000000
0.691580 1.002846 0.000000
1.425634 0.357582 0.000000
1.436894 0.374111 0.000000
1.456839 0.372624 0.000000
0.420083 1.127301 0.000000
0.400138 1.128788 0.000000
0.440027 1.125813 0.000000
0.759803 1.379868 0.000000
0.751414 0.998385 0.000000
0.348989 1.115233 0.000000
0.360249 1.131762 0.000000
0.839581 1.373920 0.000000
1.399284 0.811130 0.000000
1.407969 0.793114 0.000000
1.427914 0.791627 0.000000
0.388878 1.112259 0.000000
0.243157 1.175230 0.000000
0.799692 1.376894 0.000000
1.116161 0.241708 0.000000
1.057285 0.124518 0.000000
1.348796 1.075423 0.000000
0.111271 1.289275 0.000000
0.100011 1.272746 0.000000
0.108696 1.254729 0.000000
0.087743 1.256043 0.000000
0.097267 1.238171 0.000000
0.078896 1.274099 0.000000
0.076414 1.239736 0.000000
0.085440 1.222028 0.000000
0.105969 1.220239 0.000000
0.094712 1.203724 0.000000
0.073430 1.206052 0.000000
0.083327 1.187289 0.000000
0.103474 1.185678 0.000000
0.092227 1.169144 0.000000
0.072285 1.170630 0.000000
0.081024 1.152581 0.000000
0.061070 1.154074 0.000000
0.069762 1.136053 0.000000
0.089708 1.134565 0.000000
0.078448 1.118036 0.000000
0.058503 1.119523 0.000000
0.067188 1.101507 0.000000
0.047243 1.102994 0.000000
0.055928 1.084978 0.000000
1.057354 1.201365 0.000000
1.124846 0.223692 0.000000
1.136106 0.240221 0.000000
1.276380 0.507659 0.000000
1.287640 0.524188 0.000000
1.267695 0.525675 0.000000
1.278955 0.542204 0.000000
1.259011 0.543691 0.000000
1.036087 0.647156 0.000000
1.252606 0.995752 0.000000
1.232661 0.997239 0.000000
1.243922 1.013768 0.000000
1.223977 1.015255 0.000000
1.085618 0.504514 0.000000
1.388982 0.672949 0.000000
1.397666 0.654933 0.000000
1.343349 1.405832 0.000000
1.334664 1.423849 0.000000
1.323404 1.407320 0.000000
1.314720 1.425336 0.000000
1.303459 1.408807 0.000000
1.325980 1.441865 0.000000
1.306035 1.443352 0.000000
1.312144 1.390791 0.000000
1.292199 1.392278 0.000000
0.208419 1.247294 0.000000
0.675169 0.917227 0.000000
1.235237 1.031784 0.000000
1.215292 1.033272 0.000000
1.226553 1.049801 0.000000
1.206608 1.051288 0.000000
1.217868 1.067817 0.000000
1.197924 1.069304 0.000000
1.209184 1.085833 0.000000
1.189239 1.087320 0.000000
1.200499 1.103849 0.000000
1.180555 1.105336 0.000000
1.144791 0.222205 0.000000
1.390600 0.829146 0.000000
1.185307 1.454862 0.000000
0.966315 1.190784 0.000000
0.957631 1.208800 0.000000
0.946370 1.192271 0.000000
0.937686 1.210287 0.000000
0.948946 1.226817 0.000000
0.929002 1.228304 0.000000
0.917741 1.211775 0.000000
0.909057 1.229791 0.000000
0.940262 1.244833 0.000000
0.897797 1.213262 0.000000
0.889112 1.231278 0.000000
0.877852 1.214749 0.000000
0.869168 1.232765 0.000000
0.857907 1.216236 0.000000
0.849223 1.234252 0.000000
0.837963 1.217723 0.000000
0.829278 1.235739 0.000000
0.818018 1.219210 0.000000
0.809334 1.237226 0.000000
0.798074 1.220697 0.000000
0.789389 1.238713 0.000000
0.778129 1.222184 0.000000
0.769444 1.240200 0.000000
0.758184 1.223671 0.000000
0.749500 1.241687 0.000000
0.738240 1.225158 0.000000
0.729555 1.243175 0.000000
0.718295 1.226646 0.000000
0.709610 1.244662 0.000000
0.698350 1.228133 0.000000
0.689666 1.246149 0.000000
0.678406 1.229620 0.000000
0.669721 1.247636 0.000000
0.658461 1.231107 0.000000
0.649777 1.249123 0.000000
0.638516 1.232594 0.000000
0.629832 1.250610 0.000000
0.618572 1.234081 0.000000
0.609887 1.252097 0.000000
0.598627 1.235568 0.000000
0.589943 1.253584 0.000000
0.578682 1.237055 0.000000
0.569998 1.255071 0.000000
0.558738 1.238542 0.000000
0.550053 1.256558 0.000000
0.538793 1.240029 0.000000
0.530109 1.258046 0.000000
0.518849 1.241517 0.000000
0.510164 1.259533 0.000000
0.498904 1.243004 0.000000
0.490219 1.261020 0.000000
0.478959 1.244491 0.000000
0.470275 1.262507 0.000000
0.459015 1.245978 0.000000
0.450330 1.263994 0.000000
0.439070 1.247465 0.000000
0.880428 1.249294 0.000000
0.753329 0.755082 0.000000
0.699969 1.384329 0.000000
0.831193 0.992436 0.000000
0.897136 0.935414 0.000000
1.398623 0.533282 0.000000
1.418568 0.531795 0.000000
1.407308 0.515266 0.000000
1.427252 0.513779 0.000000
1.438513 0.530308 0.000000
1.415992 0.497250 0.000000
0.289816 1.397542 0.000000
0.142476 1.304316 0.000000
1.240685 0.701375 0.000000
0.520467 1.397713 0.000000
1.197262 0.791456 0.000000
0.954878 0.496998 0.000000
0.944855 0.480843 0.000000
0.498243 0.965156 0.000000
0.486983 0.948627 0.000000
0.695113 0.915739 0.000000
0.349650 1.393081 0.000000
1.176064 1.314094 0.000000
1.167380 1.332110 0.000000
1.147435 1.333597 0.000000
0.820594 1.253755 0.000000
0.560356 1.394739 0.000000
1.324292 0.208821 0.000000
0.970805 0.982026 0.000000
0.685142 1.454929 0.000000
0.743687 0.894749 0.000000
0.321317 1.013085 0.000000
1.175699 0.636746 0.000000
1.097243 1.198391 0.000000
0.916123 1.055578 0.000000
0.927383 1.072107 0.000000
0.936068 1.054091 0.000000
0.156312 1.355391 0.000000
1.277337 0.386008 0.000000
1.156416 0.916081 0.000000
0.478298 0.966643 0.000000
0.467038 0.950114 0.000000
1.133234 0.605175 0.000000
1.124550 0.623191 0.000000
1.264823 0.890630 0.000000
1.244879 0.892117 0.000000
0.731470 0.999872 0.000000
0.466081 1.071765 0.000000
1.343645 1.006333 0.000000
1.363589 1.004846 0.000000
1.174377 0.081050 0.000000
1.423127 1.399884 0.000000
1.443072 1.398397 0.000000
0.859526 1.372432 0.000000
1.030501 0.300327 0.000000
1.010788 0.301926 0.000000
1.021704 0.318289 0.000000
1.448154 0.390640 0.000000
1.401489 0.168328 0.000000
1.412750 0.184858 0.000000
1.432694 0.183371 0.000000
1.424014 0.201386 0.000000
1.443959 0.199899 0.000000
1.435275 0.217914 0.000000
1.275719 0.229811 0.000000
0.421040 1.005649 0.000000
0.429724 0.987633 0.000000
0.409780 0.989120 0.000000
1.150603 0.569143 0.000000
0.564186 0.908133 0.000000
0.460633 1.402174 0.000000
0.858865 1.094584 0.000000
0.913547 1.021033 0.000000
1.271228 0.438569 0.000000
1.272186 0.316917 0.000000
1.355862 0.901210 0.000000
1.434387 1.416413 0.000000
1.134488 0.084024 0.000000
1.105562 0.503027 0.000000
1.245175 0.492617 0.000000
1.160245 0.429475 0.000000
1.177614 0.393443 0.000000
0.309760 1.396055 0.000000
1.419525 0.410143 0.000000
0.913843 0.621533 0.000000
1.313989 0.070640 0.000000
1.405026 0.081220 0.000000
1.413712 0.063204 0.000000
1.256731 0.109647 0.000000
0.939926 0.567499 0.000000
0.887790 0.675582 0.000000
1.053752 0.211624 0.000000
1.042508 0.195314 0.000000
1.051287 0.177272 0.000000
1.163117 0.064521 0.000000
0.826999 0.801694 0.000000
0.818314 0.819710 0.000000
0.835683 0.783678 0.000000
1.233323 1.275087 0.000000
0.798370 0.821198 0.000000
1.351964 0.310969 0.000000
1.340704 0.294440 0.000000
0.879106 0.693598 0.000000
0.809630 0.837727 0.000000
0.957306 0.531472 0.000000
0.218061 1.107626 0.000000
1.393767 0.064692 0.000000
1.402452 0.046676 0.000000
0.575446 0.924662 0.000000
1.254889 1.429795 0.000000
1.285725 0.767491 0.000000
1.298900 0.540717 0.000000
0.960206 1.243346 0.000000
1.297282 0.384521 0.000000
0.680981 1.264165 0.000000
0.972059 0.460875 0.000000
1.312075 0.313943 0.000000
1.276676 0.108160 0.000000
1.311779 0.713443 0.000000
1.286021 0.367992 0.000000
0.740815 1.259704 0.000000
0.780705 1.256729 0.000000
1.290216 0.558733 0.000000
1.340408 0.693940 0.000000
0.581258 1.271600 0.000000
0.641092 1.267139 0.000000
1.163186 1.141368 0.000000
1.191815 1.121865 0.000000
0.539750 1.118378 0.000000
0.579640 1.115404 0.000000
0.619529 1.112430 0.000000
0.659418 1.109455 0.000000
0.679363 1.107968 0.000000
0.541369 1.274575 0.000000
0.501480 1.277549 0.000000
0.461590 1.280523 0.000000
0.441646 1.282010 0.000000
1.030213 0.213877 0.000000
1.434022 0.739065 0.000000
0.056605 1.362815 0.000000
0.045347 1.346285 0.000000
0.054016 1.328279 0.000000
0.067852 1.379353 0.000000
1.442707 0.721049 0.000000
1.435863 0.495727 0.000000
0.418978 0.968005 0.000000
0.398520 0.972591 0.000000
0.389835 0.990607 0.000000
0.593992 1.444159 0.000000
0.263756 1.451498 0.000000
1.111808 0.051074 0.000000
1.091973 0.052162 0.000000
1.001902 0.319845 0.000000
1.012967 0.336280 0.000000
0.999514 0.283404 0.000000
0.052384 1.172091 0.000000
1.448815 0.668488 0.000000
0.048508 1.380416 0.000000
0.059266 1.397300 0.000000
1.322680 0.052706 0.000000
1.342619 0.051151 0.000000
1.302736 0.054207 0.000000
0.967771 0.392201 0.000000
0.993602 0.338046 0.000000
1.004338 0.354322 0.000000
1.454985 0.216587 0.000000
1.446497 0.234470 0.000000
1.131905 0.049532 0.000000
0.733502 0.756625 0.000000
0.744403 0.739054 0.000000
0.724719 0.774594 0.000000
0.036672 1.398132 0.000000
0.050480 1.415387 0.000000
0.070442 1.413888 0.000000
0.061743 1.431914 0.000000
0.081688 1.430427 0.000000
1.450298 0.824778 0.000000
1.382543 0.048641 0.000000
0.378653 0.975129 0.000000
0.369904 0.992269 0.000000
0.289286 0.995256 0.000000
0.580388 0.872939 0.000000
0.041467 1.155719 0.000000
1.442046 0.443201 0.000000
1.450729 0.425186 0.000000
1.171585 0.046945 0.000000
0.816392 0.663236 0.000000
0.827062 0.645804 0.000000
0.172679 1.440410 0.000000
1.459587 0.684781 0.000000
1.444011 1.276758 0.000000
1.432766 1.260219 0.000000
1.412824 1.261704 0.000000
1.421508 1.243688 0.000000
1.441453 1.242201 0.000000
1.430193 1.225671 0.000000
1.450138 1.224184 0.000000
1.438878 1.207655 0.000000
1.457873 1.206815 0.000000
1.447404 1.189747 0.000000
0.112208 1.167635 0.000000
0.123474 1.184161 0.000000
0.240581 1.140684 0.000000
0.260526 1.139197 0.000000
0.311675 1.152752 0.000000
0.847605 1.078055 0.000000
0.838920 1.096071 0.000000
1.218164 0.668317 0.000000
0.547478 1.222013 0.000000
1.056989 0.524017 0.000000
1.349092 0.675924 0.000000
1.329148 0.677411 0.000000
1.426295 0.635430 0.000000
1.446240 0.633943 0.000000
1.454924 0.615927 0.000000
1.238770 0.944678 0.000000
1.210141 0.964181 0.000000
1.093345 0.608149 0.000000
1.131024 1.247978 0.000000
0.477341 1.088294 0.000000
0.468656 1.106310 0.000000
1.195348 1.034759 0.000000
0.687090 1.211604 0.000000
0.605693 1.061355 0.000000
0.786813 1.204168 0.000000
1.011356 1.256900 0.000000
1.185706 1.174426 0.000000
1.033511 0.612611 0.000000
1.169294 1.088807 0.000000
0.951522 1.261362 0.000000
0.674212 1.038878 0.000000
0.846647 1.199707 0.000000
0.654267 1.040365 0.000000
0.742730 1.016401 0.000000
1.152518 0.325840 0.000000
1.161202 0.307824 0.000000
1.181147 0.306337 0.000000
1.169887 0.289808 0.000000
1.425338 0.757082 0.000000
1.445282 0.755594 0.000000
0.848266 1.355903 0.000000
0.906481 1.195246 0.000000
1.189831 0.288321 0.000000
0.359291 1.253413 0.000000
0.379236 1.251926 0.000000
0.339347 1.254900 0.000000
0.330662 1.272916 0.000000
0.319402 1.256387 0.000000
0.310718 1.274404 0.000000
0.299458 1.257875 0.000000
0.290773 1.275891 0.000000
0.279513 1.259362 0.000000
0.270828 1.277378 0.000000
0.259568 1.260849 0.000000
0.250884 1.278865 0.000000
0.288197 1.241346 0.000000
0.239624 1.262336 0.000000
1.300884 1.374262 0.000000
1.229128 1.084346 0.000000
0.771359 0.996897 0.000000
0.780043 0.978881 0.000000
1.379340 0.812617 0.000000
1.433361 0.461217 0.000000
1.453280 0.459718 0.000000
1.416949 0.375598 0.000000
1.255182 1.030297 0.000000
1.156051 0.238734 0.000000
1.147366 0.256750 0.000000
1.280939 1.375749 0.000000
1.272255 1.393765 0.000000
1.046094 1.184836 0.000000
0.449669 0.986146 0.000000
0.615337 0.921688 0.000000
0.635280 0.920201 0.000000
1.068614 1.217894 0.000000
1.059930 1.235910 0.000000
1.405393 0.758569 0.000000
0.683853 0.899210 0.000000
1.352329 0.988317 0.000000
1.372274 0.986830 0.000000
1.383534 1.003359 0.000000
1.392218 0.985343 0.000000
1.403479 1.001872 0.000000
1.412163 0.983855 0.000000
1.423423 1.000384 0.000000
1.432108 0.982368 0.000000
1.442895 0.998669 0.000000
1.434605 1.016875 0.000000
1.451489 0.980461 0.000000
1.452950 1.014307 0.000000
1.445651 1.033250 0.000000
1.425937 1.034891 0.000000
1.437200 1.051420 0.000000
1.440698 0.964282 0.000000
1.460616 0.962629 0.000000
1.449441 0.946285 0.000000
1.469421 0.944849 0.000000
1.480681 0.961378 0.000000
1.458217 0.927997 0.000000
1.489128 0.943412 0.000000
1.497663 0.960708 0.000000
1.417294 1.052933 0.000000
1.428561 1.069466 0.000000
1.149942 0.291295 0.000000
0.947328 1.070620 0.000000
0.963739 1.156239 0.000000
0.298500 1.379526 0.000000
1.295663 0.228324 0.000000
1.306923 0.244853 0.000000
1.050243 0.298742 0.000000
1.273804 0.473114 0.000000
0.902287 1.004504 0.000000
1.383830 0.603859 0.000000
0.272744 1.034093 0.000000
0.260515 1.019098 0.000000
1.255774 0.231298 0.000000
0.413017 1.301513 0.000000
0.161456 1.424381 0.000000
0.152726 1.441780 0.000000
1.274831 1.428310 0.000000
1.145156 0.899552 0.000000
1.136471 0.917568 0.000000
1.153840 0.881536 0.000000
1.158695 1.350126 0.000000
1.138751 1.351613 0.000000
1.127491 1.335084 0.000000
1.118806 1.353100 0.000000
1.264458 0.213282 0.000000
0.622688 1.424716 0.000000
0.631433 1.406792 0.000000
0.486025 1.070278 0.000000
1.144494 0.621704 0.000000
1.135810 0.639720 0.000000
1.256139 0.908646 0.000000
0.846943 0.800207 0.000000
1.279617 0.820052 0.000000
1.236194 0.910133 0.000000
1.142876 0.465508 0.000000
1.134192 0.483524 0.000000
0.340965 1.411097 0.000000
0.352225 1.427626 0.000000
1.406716 1.314265 0.000000
1.395455 1.297736 0.000000
0.899050 0.692111 0.000000
1.011948 0.457901 0.000000
1.371317 1.108481 0.000000
1.391261 1.106994 0.000000
1.402521 1.123523 0.000000
1.411206 1.105507 0.000000
1.422466 1.122036 0.000000
1.431150 1.104020 0.000000
1.442178 1.120437 0.000000
1.433687 1.138546 0.000000
1.454742 1.102177 0.000000
1.283446 0.333446 0.000000
1.191154 0.844017 0.000000
1.171209 0.845504 0.000000
0.976317 0.374119 0.000000
1.100576 0.034191 0.000000
1.511506 0.940379 0.000000
0.553397 0.891831 0.000000
0.544522 0.909755 0.000000
1.457090 1.049187 0.000000
0.475761 0.935675 0.000000
1.022293 0.196157 0.000000
1.459797 1.362803 0.000000
1.433035 0.062141 0.000000
1.466184 0.632456 0.000000
1.468679 0.666962 0.000000
0.889434 0.553121 0.000000
1.016697 0.249645 0.000000
1.478626 0.686663 0.000000
1.332080 0.034483 0.000000
1.317403 1.458912 0.000000
1.337258 1.458232 0.000000
1.452083 0.182264 0.000000
0.949538 0.427817 0.000000
1.465415 0.233085 0.000000
1.456768 0.250592 0.000000
1.038147 0.125455 0.000000
1.048827 0.142380 0.000000
1.026853 0.108706 0.000000
1.276655 1.462488 0.000000
0.916344 0.498833 0.000000
1.454253 1.413867 0.000000
1.463003 1.396733 0.000000
1.228950 1.483765 0.000000
1.208446 1.484604 0.000000
1.219974 1.504424 0.000000
1.044295 0.073851 0.000000
1.052274 0.055495 0.000000
1.391192 0.030147 0.000000
0.385819 0.956099 0.000000
1.328555 1.476410 0.000000
0.323466 1.446060 0.000000
1.474869 0.614440 0.000000
1.463609 0.597911 0.000000
0.034412 1.329778 0.000000
0.044180 1.312485 0.000000
0.062936 1.310387 0.000000
0.051086 1.294405 0.000000
1.193678 1.508463 0.000000
1.186586 1.476325 0.000000
1.166743 1.469192 0.000000
1.149549 1.479940 0.000000
0.713660 0.759201 0.000000
0.704795 0.776264 0.000000
0.694588 0.761106 0.000000
1.469724 1.189671 0.000000
1.456590 1.171894 0.000000
1.436333 1.173173 0.000000
0.958854 0.377969 0.000000
1.417411 1.453284 0.000000
0.182602 1.457979 0.000000
0.203761 1.455001 0.000000
1.456642 1.136435 0.000000
0.043136 1.434049 0.000000
0.053099 1.449953 0.000000
0.686218 0.778432 0.000000
0.696312 0.794266 0.000000
0.677992 0.796091 0.000000
0.531317 0.891079 0.000000
1.026473 0.142587 0.000000
1.484392 0.634572 0.000000
1.448964 1.433981 0.000000
0.938979 0.446163 0.000000
1.408334 1.470461 0.000000
0.037165 1.087100 0.000000
0.045521 1.068883 0.000000
0.028263 1.105962 0.000000
1.438138 1.452736 0.000000
1.448432 1.471087 0.000000
1.147310 1.457230 0.000000
1.134127 1.470935 0.000000
1.465178 1.309994 0.000000
1.477381 1.326353 0.000000
1.490236 0.979749 0.000000
0.181859 1.021982 0.000000
0.201803 1.022499 0.000000
0.161972 1.023504 0.000000
1.032025 0.057223 0.000000
1.041946 0.038256 0.000000
1.354368 0.033804 0.000000
1.467914 0.389258 0.000000
1.447894 0.113374 0.000000
1.458661 0.092836 0.000000
1.458571 0.131562 0.000000
1.514862 0.977813 0.000000
1.478210 0.997252 0.000000
1.481928 1.016659 0.000000
0.358929 0.976684 0.000000
0.349998 0.993797 0.000000
0.339239 0.977450 0.000000
0.456952 0.930650 0.000000
0.447733 0.951611 0.000000
0.033034 1.454699 0.000000
0.044898 1.467469 0.000000
1.224462 1.539678 0.000000
1.237040 1.599317 0.000000
1.060942 0.037079 0.000000
0.026703 1.347239 0.000000
1.478156 0.249553 0.000000
1.349560 1.474923 0.000000
0.676452 1.472949 0.000000
0.696231 1.471351 0.000000
0.655563 1.475225 0.000000
0.668589 1.492083 0.000000
0.634855 1.476341 0.000000
0.623721 1.497058 0.000000
0.032328 1.173321 0.000000
0.043710 1.190100 0.000000
0.030232 1.208540 0.000000
0.051056 1.208414 0.000000
0.022518 1.157463 0.000000
0.037723 1.225397 0.000000
0.031826 1.243556 0.000000
0.050198 1.241093 0.000000
0.044623 1.259156 0.000000
0.064062 1.257043 0.000000
1.049801 0.020229 0.000000
0.062715 1.224518 0.000000
1.014933 0.090863 0.000000
0.150457 1.006414 0.000000
1.005983 0.150906 0.000000
1.020247 0.164355 0.000000
1.001356 0.191927 0.000000
0.110891 1.010985 0.000000
0.050628 1.015853 0.000000
0.041122 1.033526 0.000000
0.019104 1.032257 0.000000
0.031372 1.053613 0.000000
0.989765 0.230334 0.000000
1.009996 0.226913 0.000000
0.193024 1.002437 0.000000
6.811557 0.686602 0.000000
0.230869 0.990735 0.000000
0.226073 1.008630 0.000000
0.244088 1.005907 0.000000
0.981751 0.269617 0.000000
0.999647 0.260997 0.000000
0.977800 0.289561 0.000000
0.270291 0.980769 0.000000
11.754134 5.225836 0.000000
0.289576 0.975301 0.000000
0.962937 0.326847 0.000000
0.043983 1.867816 0.000000
2.688620 0.894082 0.000000
1.461404 1.240731 0.000000
0.596432 0.824000 0.000000
0.616759 0.834363 0.000000
0.630942 0.819822 0.000000
0.598769 0.844701 0.000000
0.774448 0.659695 0.000000
0.795394 0.665768 0.000000
0.779213 0.680319 0.000000
0.760656 0.675371 0.000000
0.765928 0.694937 0.000000
0.752342 0.708168 0.000000
0.770200 0.716796 0.000000
0.868081 0.528281 0.000000
0.888367 0.528778 0.000000
0.493774 0.889121 0.000000
0.492904 0.908075 0.000000
0.510486 0.899079 0.000000
0.643206 0.787613 0.000000
0.422077 0.925708 0.000000
0.419489 0.946135 0.000000
0.719248 0.719248 0.000000
0.812386 0.611926 0.000000
0.831594 0.613662 0.000000
0.843991 0.598226 0.000000
0.799987 0.628046 0.000000
0.548855 0.859175 0.000000
0.457788 0.907925 0.000000
0.564843 0.845876 0.000000
0.887659 0.493050 0.000000
0.907274 0.457478 0.000000
0.916620 0.474908 0.000000
0.846904 0.562748 0.000000
0.867461 0.563744 0.000000
0.367479 0.947216 0.000000
0.925332 0.419448 0.000000
0.511501 0.879205 0.000000
12.008497 7.435910 0.000000
11.519810 8.144360 0.000000
12.404578 8.258634 0.000000
11.055927 8.894604 0.000000
11.443888 9.724971 0.000000
0.887368 2.092778 0.000000
1.866879 0.610905 0.000000
1.794834 0.561139 0.000000
8.594486 14.772691 0.000000
0.314856 1.881408 0.000000
0.842304 14.520939 0.000000
1.813720 13.955312 0.000000
1.708053 14.981620 0.000000
2.543244 14.525317 0.000000
2.502154 15.428948 0.000000
14.871983 11.405563 0.000000
14.473466 10.632228 0.000000
9.981255 6.539069 0.000000
5.568646 7.596892 0.000000
5.471615 7.177459 0.000000
2.530544 0.217724 0.000000
3.803496 3.864865 0.000000
3.792851 3.709247 0.000000
3.978233 3.785871 0.000000
14.345377 12.185836 0.000000
1.286510 1.614585 0.000000
15.611243 7.790492 0.000000
2.652197 0.237082 0.000000
1.614203 0.283916 0.000000
0.281724 1.683632 0.000000
0.319517 1.651954 0.000000
0.039702 1.714961 0.000000
1.413545 0.030405 0.000000
1.687522 15.955445 0.000000
2.652916 16.441092 0.000000
0.628229 0.799938 0.000000
0.646934 0.807717 0.000000
0.649062 0.826315 0.000000
0.835518 0.579589 0.000000
15.935759 9.914659 0.000000
1.473607 1.169427 0.000000
12.460257 19.161054 0.000000
11.943505 18.350244 0.000000
0.733509 0.704064 0.000000
10.431023 5.731709 0.000000
0.050693 1.924602 0.000000
5.287613 2.465959 0.000000
0.132956 2.078021 0.000000
0.174849 2.145940 0.000000
0.122191 1.027263 0.000000
1.080777 0.034977 0.000000
0.926834 1.601180 0.000000
0.974969 1.616464 0.000000
0.987658 1.665438 0.000000
1.035788 1.678487 0.000000
0.938171 1.649910 0.000000
0.948562 1.698932 0.000000
0.908269 1.732039 0.000000
10.686293 8.127567 0.000000
0.064660 1.066983 0.000000
13.499297 5.234100 0.000000
1.680953 1.033215 0.000000
1.701931 1.077385 0.000000
1.752167 1.081233 0.000000
1.774949 1.125901 0.000000
1.824122 1.129940 0.000000
1.796875 1.170815 0.000000
1.845382 1.174573 0.000000
1.817233 1.215826 0.000000
1.768658 1.209854 0.000000
1.789626 1.256444 0.000000
1.847918 1.260733 0.000000
1.813502 1.302807 0.000000
1.861090 1.306362 0.000000
1.835028 1.348870 0.000000
1.878409 1.350962 0.000000
1.851349 1.389501 0.000000
1.807423 1.392150 0.000000
1.911879 1.319536 0.000000
1.833341 1.430309 0.000000
1.735886 1.252689 0.000000
1.725320 1.122094 0.000000
0.086636 1.843186 0.000000
2.523763 19.120284 0.000000
2.009068 18.274261 0.000000
0.923284 18.375621 0.000000
1.483798 17.459271 0.000000
2.949083 18.212541 0.000000
13.504059 16.143132 0.000000
19.134885 2.501577 0.000000
18.278720 2.008925 0.000000
18.375928 0.923213 0.000000
17.446020 1.510245 0.000000
18.286853 3.006057 0.000000
0.644523 1.458031 0.000000
0.624674 1.459080 0.000000
0.585452 1.462342 0.000000
0.565508 1.463829 0.000000
0.576417 1.483366 0.000000
2.880491 0.136071 0.000000
19.134091 12.500201 0.000000
18.256657 12.993985 0.000000
18.271186 13.992257 0.000000
17.415513 13.498994 0.000000
18.247974 11.959094 0.000000
19.134181 14.495073 0.000000
18.268645 14.986410 0.000000
19.132305 15.492517 0.000000
18.266269 15.983309 0.000000
18.255539 16.980137 0.000000
17.432454 15.417624 0.000000
19.130228 17.482966 0.000000
18.283606 17.985905 0.000000
17.413646 17.500023 0.000000
17.444021 18.477301 0.000000
16.625087 17.977772 0.000000
17.293339 16.461668 0.000000
17.420561 14.478128 0.000000
1.659519 0.986459 0.000000
6.984323 12.193251 0.000000
1.610021 1.118220 0.000000
0.052714 1.050410 0.000000
0.598266 2.843568 0.000000
9.230159 13.985718 0.000000
2.231394 5.361573 0.000000
0.880258 2.949592 0.000000
0.906218 3.097367 0.000000
0.765266 3.046015 0.000000
7.655551 14.701833 0.000000
1.934773 0.744670 0.000000
1.823623 0.519579 0.000000
1.773452 0.515198 0.000000
1.751983 0.470283 0.000000
1.722951 0.511190 0.000000
1.744434 0.556301 0.000000
1.694449 0.551940 0.000000
1.666652 0.594214 0.000000
1.766532 0.602787 0.000000
1.880911 0.742914 0.000000
1.630952 0.418718 0.000000
1.652004 0.463466 0.000000
0.118338 1.115063 0.000000
1.071684 1.643568 0.000000
0.888640 1.632707 0.000000
1.602849 0.460125 0.000000
1.085441 1.514529 0.000000
0.166911 1.094071 0.000000
1.596528 1.250461 0.000000
6.248692 7.556131 0.000000
1.645651 0.854745 0.000000
1.674057 0.813659 0.000000
1.723889 0.817738 0.000000
1.702502 0.772532 0.000000
1.752333 0.776611 0.000000
1.773722 0.821816 0.000000
1.802169 0.780694 0.000000
5.136431 3.141632 0.000000
0.178171 1.110600 0.000000
0.087133 1.100026 0.000000
0.129598 1.131591 0.000000
0.164341 1.059528 0.000000
1.047138 3.148783 0.000000
1.162135 3.052491 0.000000
0.423346 1.505189 0.000000
4.972347 5.933706 0.000000
4.580423 5.853732 0.000000
4.845644 5.554303 0.000000
2.381040 1.017606 0.000000
5.110853 5.254878 0.000000
1.745272 0.862935 0.000000
1.715203 0.294648 0.000000
1.744950 0.255020 0.000000
1.226644 2.662446 0.000000
0.120910 1.149609 0.000000
0.358108 1.620411 0.000000
1.709579 0.990737 0.000000
0.413143 1.686921 0.000000
1.652677 0.768447 0.000000
1.603017 0.764267 0.000000
1.636552 3.502116 0.000000
1.661563 3.648796 0.000000
4.855162 4.499160 0.000000
1.699862 3.110459 0.000000
1.673958 2.962713 0.000000
0.491035 1.621780 0.000000
1.585976 1.384304 0.000000
1.572061 1.335158 0.000000
1.634481 1.397494 0.000000
1.202971 1.636032 0.000000
1.558958 3.059021 0.000000
1.830688 0.739431 0.000000
1.887475 0.961598 0.000000
1.934701 0.965548 0.000000
1.915646 0.920386 0.000000
1.965991 0.924451 0.000000
2.011147 0.871922 0.000000
1.965952 0.835266 0.000000
0.132167 1.166140 0.000000
6.425153 4.815962 0.000000
5.259449 3.519699 0.000000
1.521483 3.598341 0.000000
1.550073 3.736439 0.000000
1.409736 3.685851 0.000000
1.325830 1.949674 0.000000
1.637594 1.938829 0.000000
5.906352 4.356648 0.000000
0.200692 1.143659 0.000000
1.192679 1.767491 0.000000
0.431343 1.143830 0.000000
4.718925 5.175233 0.000000
0.670679 1.125984 0.000000
0.982066 0.998555 0.000000
0.973381 1.016572 0.000000
0.990750 0.980539 0.000000
4.326941 5.095835 0.000000
0.827660 1.079542 0.000000
0.818975 1.097559 0.000000
0.856289 1.060039 0.000000
0.537661 1.640181 0.000000
0.451287 1.142342 0.000000
1.837835 0.957427 0.000000
0.993326 1.015084 0.000000
0.251841 1.157213 0.000000
0.271786 1.155726 0.000000
1.823555 0.825895 0.000000
0.467699 1.227962 0.000000
1.258054 0.665343 0.000000
1.277998 0.663856 0.000000
1.456692 2.476333 0.000000
0.507588 1.224988 0.000000
1.229424 0.684846 0.000000
1.115865 0.641207 0.000000
1.127126 0.657736 0.000000
1.377721 0.656420 0.000000
0.351564 1.149778 0.000000
0.371509 1.148291 0.000000
1.048304 0.542033 0.000000
1.059564 0.558562 0.000000
1.177318 0.792943 0.000000
1.186002 0.774927 0.000000
1.386406 0.638404 0.000000
1.159949 0.828975 0.000000
1.221401 0.980710 0.000000
1.073400 0.609637 0.000000
1.062140 0.593108 0.000000
1.220740 0.702862 0.000000
0.525915 1.067304 0.000000
0.587367 1.219039 0.000000
1.177022 1.192442 0.000000
6.033203 4.735998 0.000000
6.551857 5.195364 0.000000
6.679303 5.575424 0.000000
7.070485 5.654739 0.000000
6.828610 5.965192 0.000000
6.957535 6.346255 0.000000
6.558023 6.263749 0.000000
6.815156 2.787998 0.000000
7.120788 2.527680 0.000000
1.107181 0.659224 0.000000
1.118441 0.675753 0.000000
1.109757 0.693769 0.000000
1.129701 0.692282 0.000000
1.138386 0.674265 0.000000
1.121017 0.710298 0.000000
1.337832 0.659395 0.000000
1.317887 0.660882 0.000000
0.627256 1.216065 0.000000
1.150968 1.246491 0.000000
1.159653 1.228475 0.000000
1.080466 0.435424 0.000000
1.151264 0.846991 0.000000
1.437555 0.651959 0.000000
1.477141 0.649579 0.000000
1.490695 0.668518 0.000000
1.495382 0.649344 0.000000
1.503266 0.623897 0.000000
0.726979 1.208629 0.000000
1.533053 2.911274 0.000000
1.224934 0.893604 0.000000
1.233619 0.875588 0.000000
1.222358 0.859059 0.000000
0.614378 1.043339 0.000000
0.594433 1.044826 0.000000
0.625638 1.059868 0.000000
1.031300 1.255413 0.000000
0.991411 1.258387 0.000000
0.451827 1.654888 0.000000
1.814888 0.302633 0.000000
1.266738 0.647327 0.000000
0.931577 1.262849 0.000000
0.662951 1.022349 0.000000
1.091727 0.451953 0.000000
1.083042 0.469969 0.000000
1.089151 0.417408 0.000000
1.238109 0.666830 0.000000
0.682896 1.020862 0.000000
0.651691 1.005820 0.000000
0.702841 1.019375 0.000000
1.082085 0.591620 0.000000
1.247751 0.527162 0.000000
1.239066 0.545179 0.000000
1.250326 0.561708 0.000000
1.240795 1.781095 0.000000
1.204991 1.815939 0.000000
1.253103 1.829503 0.000000
1.301234 1.843093 0.000000
1.313517 1.891894 0.000000
1.385223 1.964382 0.000000
1.347646 2.024807 0.000000
0.421701 1.283497 0.000000
0.410441 1.266968 0.000000
0.152117 1.164649 0.000000
1.022616 1.273429 0.000000
1.051245 1.253926 0.000000
1.211759 1.120378 0.000000
1.405689 0.359069 0.000000
1.203075 1.138394 0.000000
0.942837 1.279378 0.000000
0.911633 1.264336 0.000000
0.174638 1.197707 0.000000
0.154694 1.199194 0.000000
0.545515 1.689867 0.000000
1.289623 1.357732 0.000000
0.902948 1.282352 0.000000
0.488601 1.104823 0.000000
0.479917 1.122839 0.000000
1.260994 1.377236 0.000000
0.248308 1.244320 0.000000
0.367976 1.235397 0.000000
0.868210 1.354416 0.000000
0.380193 1.130275 0.000000
0.391454 1.146804 0.000000
0.382769 1.164820 0.000000
1.230382 0.563195 0.000000
1.241642 0.579724 0.000000
0.411398 1.145317 0.000000
1.296800 1.463165 0.000000
1.436598 0.773611 0.000000
1.455783 0.771757 0.000000
1.464473 0.754474 0.000000
1.475642 0.769360 0.000000
0.328087 1.238371 0.000000
1.039620 0.560049 0.000000
1.178571 0.271792 0.000000
0.828321 1.357391 0.000000
1.107546 1.336571 0.000000
1.098862 1.354587 0.000000
1.087601 1.338058 0.000000
1.078917 1.356074 0.000000
1.067657 1.339545 0.000000
1.058972 1.357562 0.000000
1.090177 1.372603 0.000000
1.047712 1.341033 0.000000
1.039028 1.359049 0.000000
1.027767 1.342520 0.000000
1.019083 1.360536 0.000000
1.007823 1.344007 0.000000
0.999138 1.362023 0.000000
0.987878 1.345494 0.000000
0.979194 1.363510 0.000000
0.967934 1.346981 0.000000
0.956673 1.330452 0.000000
0.947989 1.348468 0.000000
0.856950 1.337887 0.000000
0.888155 1.352929 0.000000
0.782619 1.013426 0.000000
1.037044 0.525504 0.000000
1.426585 0.235935 0.000000
1.201091 0.304850 0.000000
1.227806 0.528649 0.000000
1.079874 1.234423 0.000000
0.387921 1.233910 0.000000
1.466569 1.029136 0.000000
1.477349 1.048093 0.000000
6.310222 3.378340 0.000000
1.467807 1.344625 0.000000
0.090373 1.412411 0.000000
0.101631 1.428941 0.000000
0.092862 1.445836 0.000000
0.112876 1.445284 0.000000
0.104121 1.461183 0.000000
0.124134 1.461585 0.000000
0.113238 1.479917 0.000000
0.134685 1.479251 0.000000
0.132821 1.443764 0.000000
0.505970 1.068791 0.000000
0.534599 1.049288 0.000000
0.554544 1.047801 0.000000
0.368933 1.113746 0.000000
0.357673 1.097217 0.000000
0.098394 1.116551 0.000000
0.521424 1.276062 0.000000
1.406041 1.036408 0.000000
1.212717 0.998726 0.000000
1.291173 0.437082 0.000000
1.311118 0.435595 0.000000
1.319802 0.417579 0.000000
1.302433 0.453611 0.000000
1.419888 1.087489 0.000000
1.357777 0.657907 0.000000
1.076341 1.321529 0.000000
0.746924 1.207142 0.000000
1.320828 1.372774 0.000000
1.329513 1.354758 0.000000
1.068583 0.141021 0.000000
0.749481 1.858090 0.000000
1.282488 0.455098 0.000000
0.567422 1.220526 0.000000
0.556162 1.203997 0.000000
1.062505 1.270455 0.000000
1.071190 1.252439 0.000000
1.091134 1.250952 0.000000
0.454524 1.454736 0.000000
0.465785 1.471265 0.000000
0.485443 1.469640 0.000000
0.647201 1.214578 0.000000
1.133895 0.883023 0.000000
0.791304 0.995410 0.000000
0.799988 0.977394 0.000000
0.071382 1.292249 0.000000
0.230939 1.280352 0.000000
0.242199 1.296881 0.000000
1.337536 1.058894 0.000000
1.294410 0.749475 0.000000
1.305670 0.766004 0.000000
0.082682 1.308798 0.000000
0.545859 1.065817 0.000000
1.205947 0.773440 0.000000
1.194687 0.756911 0.000000
1.214631 0.755423 0.000000
1.203371 0.738894 0.000000
1.223316 0.737407 0.000000
1.212056 0.720878 0.000000
1.328852 1.076910 0.000000
1.340112 1.093439 0.000000
1.320167 1.094926 0.000000
1.300222 1.096413 0.000000
1.311483 1.112942 0.000000
1.029978 0.699717 0.000000
1.010033 0.701204 0.000000
1.001349 0.719220 0.000000
0.990089 0.702691 0.000000
0.981404 0.720707 0.000000
0.992665 0.737236 0.000000
0.998773 0.684675 0.000000
1.066038 1.183349 0.000000
1.196966 1.190955 0.000000
1.285360 0.090144 0.000000
1.908708 0.396011 0.000000
1.966927 0.410129 0.000000
2.006943 0.363777 0.000000
0.397562 1.094242 0.000000
0.979490 0.964010 0.000000
0.999434 0.962523 0.000000
0.988174 0.945994 0.000000
1.008119 0.944507 0.000000
1.028064 0.943020 0.000000
1.016803 0.926491 0.000000
0.970144 0.704178 0.000000
0.434580 1.456223 0.000000
0.445840 1.472752 0.000000
0.424870 1.473520 0.000000
0.407245 1.476858 0.000000
0.395393 1.459054 0.000000
0.375331 1.460079 0.000000
1.156946 1.802346 0.000000
0.494704 0.929147 0.000000
0.840539 1.252268 0.000000
0.831854 1.270284 0.000000
1.104605 0.624678 0.000000
1.148393 1.211946 0.000000
0.926426 1.193758 0.000000
0.915166 1.177229 0.000000
1.388024 0.794601 0.000000
1.396709 0.776585 0.000000
1.404071 0.202872 0.000000
0.459972 1.124326 0.000000
0.471232 1.140855 0.000000
0.491177 1.139368 0.000000
1.237813 1.066330 0.000000
1.249073 1.082859 0.000000
1.016507 1.325991 0.000000
1.147731 0.934097 0.000000
1.127787 0.935585 0.000000
1.116527 0.919056 0.000000
1.139047 0.952114 0.000000
1.119102 0.953601 0.000000
1.130362 0.970130 0.000000
1.110418 0.971617 0.000000
1.121678 0.988146 0.000000
1.101733 0.989633 0.000000
1.090473 0.973104 0.000000
1.112994 1.006162 0.000000
1.093049 1.007649 0.000000
1.104309 1.024178 0.000000
1.084364 1.025665 0.000000
1.095625 1.042194 0.000000
1.075680 1.043681 0.000000
1.086940 1.060210 0.000000
1.066996 1.061697 0.000000
1.078256 1.078226 0.000000
1.058311 1.079713 0.000000
1.089516 1.094755 0.000000
1.150307 0.968643 0.000000
1.461985 0.441713 0.000000
1.395090 0.620388 0.000000
0.760760 1.258216 0.000000
0.753990 1.032930 0.000000
0.753694 1.432429 0.000000
0.764954 1.448958 0.000000
0.784899 1.447471 0.000000
0.745445 1.450148 0.000000
0.756821 1.466122 0.000000
0.733822 1.433867 0.000000
0.725393 1.451485 0.000000
1.034764 0.091460 0.000000
1.196009 1.312607 0.000000
0.965998 0.513460 0.000000
0.072731 1.447052 0.000000
0.986556 0.789798 0.000000
0.966611 0.791285 0.000000
0.957927 0.809301 0.000000
0.975296 0.773269 0.000000
0.946667 0.792772 0.000000
0.937982 0.810788 0.000000
0.918037 0.812275 0.000000
0.929298 0.828804 0.000000
0.983980 0.755252 0.000000
0.964035 0.756740 0.000000
0.955351 0.774756 0.000000
0.972720 0.738723 0.000000
0.667145 1.213091 0.000000
0.811248 0.993923 0.000000
0.732819 1.759783 0.000000
0.583173 1.028297 0.000000
0.663914 0.900689 0.000000
1.065673 0.506001 0.000000
1.111079 1.249465 0.000000
1.122339 1.265994 0.000000
1.069571 1.096242 0.000000
1.049627 1.097730 0.000000
1.040942 1.115746 0.000000
1.029682 1.099217 0.000000
1.002967 0.875417 0.000000
1.022912 0.873930 0.000000
1.031597 0.855914 0.000000
1.014228 0.891946 0.000000
1.042857 0.872443 0.000000
1.051541 0.854427 0.000000
1.034172 0.890459 0.000000
0.994283 0.893433 0.000000
1.222951 0.060060 0.000000
1.211354 0.044398 0.000000
1.231094 0.043630 0.000000
1.250991 0.042487 0.000000
1.262742 0.057407 0.000000
1.272006 0.036489 0.000000
0.308142 1.239858 0.000000
0.850484 0.713104 0.000000
0.861738 0.729631 0.000000
0.853053 0.747647 0.000000
0.872997 0.746159 0.000000
1.263866 1.012281 0.000000
1.309568 1.356245 0.000000
1.278363 1.341203 0.000000
0.724503 1.710478 0.000000
0.995605 1.449129 0.000000
1.007069 1.465519 0.000000
1.026828 1.463931 0.000000
0.975661 1.450616 0.000000
1.018985 1.482216 0.000000
1.413775 1.140049 0.000000
0.519806 1.119865 0.000000
0.531066 1.136394 0.000000
0.551011 1.134907 0.000000
0.511121 1.137881 0.000000
0.958733 0.410047 0.000000
1.390233 0.151798 0.000000
1.381549 0.169814 0.000000
1.396048 0.498737 0.000000
1.404732 0.480721 0.000000
0.808888 0.682139 0.000000
0.601203 1.270113 0.000000
0.592518 1.288129 0.000000
1.160610 1.106823 0.000000
1.444505 0.477690 0.000000
0.165954 1.215723 0.000000
0.146009 1.217210 0.000000
0.137325 1.235226 0.000000
1.284472 1.288642 0.000000
1.273212 1.272113 0.000000
1.293156 1.270626 0.000000
1.281896 1.254097 0.000000
1.261952 1.255584 0.000000
1.270636 1.237568 0.000000
1.290581 1.236081 0.000000
1.279321 1.219552 0.000000
1.299265 1.218065 0.000000
1.288005 1.201536 0.000000
1.307950 1.200049 0.000000
1.296689 1.183520 0.000000
1.310525 1.234594 0.000000
1.316634 1.182033 0.000000
1.305374 1.165504 0.000000
1.325319 1.164017 0.000000
1.314058 1.147488 0.000000
1.327894 1.198562 0.000000
1.304417 1.287155 0.000000
1.368080 0.796088 0.000000
1.252310 1.395252 0.000000
0.833472 1.426481 0.000000
0.844864 1.442920 0.000000
0.824793 1.444453 0.000000
1.034833 1.168307 0.000000
1.054778 1.166820 0.000000
1.414374 0.341053 0.000000
1.422492 0.045512 0.000000
1.443229 0.048300 0.000000
1.158626 0.273279 0.000000
1.184749 1.296078 0.000000
1.275126 1.028810 0.000000
0.964400 1.434087 0.000000
0.955574 1.452638 0.000000
0.966976 1.468632 0.000000
0.961516 1.488645 0.000000
0.935022 1.455751 0.000000
1.262544 0.456585 0.000000
0.680024 1.385816 0.000000
0.660079 1.387303 0.000000
0.688709 1.367800 0.000000
0.708653 1.366313 0.000000
0.697393 1.349784 0.000000
0.728598 1.364826 0.000000
0.668764 1.369287 0.000000
0.648819 1.370774 0.000000
1.240389 1.100875 0.000000
1.106885 1.058723 0.000000
1.164735 0.220718 0.000000
1.153475 0.204189 0.000000
1.094302 0.486498 0.000000
1.381619 1.246662 0.000000
0.326468 1.082175 0.000000
0.346413 1.080688 0.000000
1.175995 0.237247 0.000000
0.611490 1.408274 0.000000
0.620185 1.390272 0.000000
0.600242 1.391760 0.000000
0.580300 1.393251 0.000000
1.209480 0.686333 0.000000
1.370655 0.830633 0.000000
1.381916 0.847162 0.000000
1.361971 0.848649 0.000000
0.955055 1.174255 0.000000
0.348031 1.236884 0.000000
0.762675 1.014914 0.000000
1.105928 1.180375 0.000000
1.178640 1.348639 0.000000
1.006797 0.388811 0.000000
0.870125 1.111113 0.000000
0.935110 1.175742 0.000000
0.347074 1.358536 0.000000
0.776291 1.465144 0.000000
0.796039 1.463879 0.000000
0.787604 1.480995 0.000000
0.807419 1.480529 0.000000
0.796486 1.497715 0.000000
1.865287 1.777270 0.000000
1.913100 1.790809 0.000000
1.173420 0.202701 0.000000
1.292791 0.593278 0.000000
0.688241 1.487936 0.000000
0.707417 1.489072 0.000000
1.376103 0.500224 0.000000
1.363224 0.327498 0.000000
1.371909 0.309482 0.000000
1.107477 0.259724 0.000000
1.103944 0.346830 0.000000
1.115204 0.363359 0.000000
1.123889 0.345343 0.000000
1.106520 0.381375 0.000000
0.199734 1.265310 0.000000
1.151560 0.447492 0.000000
1.266077 0.369479 0.000000
0.291730 1.154239 0.000000
1.219122 0.546666 0.000000
0.569041 1.376723 0.000000
0.948630 0.549492 0.000000
1.025488 0.908475 0.000000
1.444325 0.877246 0.000000
1.455512 0.893740 0.000000
1.464258 0.875753 0.000000
1.472015 0.857875 0.000000
1.477947 0.891654 0.000000
1.499769 0.916063 0.000000
1.479823 0.925453 0.000000
1.250366 1.484799 0.000000
1.268985 1.481443 0.000000
0.480578 1.400687 0.000000
0.735963 0.791115 0.000000
1.217207 0.789969 0.000000
0.963643 0.478984 0.000000
1.381247 3.545586 0.000000
1.307357 3.802739 0.000000
3.796077 5.694169 0.000000
1.055074 0.767320 0.000000
1.075019 0.765833 0.000000
1.083703 0.747817 0.000000
1.094963 0.764346 0.000000
1.103648 0.746330 0.000000
1.086279 0.782362 0.000000
1.066334 0.783849 0.000000
1.057650 0.801865 0.000000
1.077595 0.800378 0.000000
1.068910 0.818394 0.000000
1.048965 0.819881 0.000000
1.450821 0.702758 0.000000
0.833112 0.749135 0.000000
0.844369 0.765663 0.000000
0.824424 0.767150 0.000000
1.403114 0.324524 0.000000
1.383169 0.326011 0.000000
0.228363 1.245807 0.000000
0.469318 1.384158 0.000000
1.335552 0.225350 0.000000
1.326868 0.243366 0.000000
1.338128 0.259895 0.000000
1.315608 0.226837 0.000000
0.971101 0.582527 0.000000
1.012609 0.735749 0.000000
0.278556 1.381013 0.000000
1.256800 1.186494 0.000000
0.743391 1.294249 0.000000
1.333342 0.868152 0.000000
1.344602 0.884681 0.000000
1.326572 0.642866 0.000000
0.655225 0.918712 0.000000
0.646540 0.936730 0.000000
0.626596 0.938217 0.000000
0.637855 0.954746 0.000000
0.549096 1.378210 0.000000
1.380958 0.968814 0.000000
0.460929 1.002675 0.000000
1.212352 0.321379 0.000000
0.700265 0.984830 0.000000
1.345927 1.440351 0.000000
0.669386 1.643702 0.000000
1.373231 0.865178 0.000000
1.299196 0.141218 0.000000
0.817357 0.941362 0.000000
1.133530 0.205676 0.000000
1.437672 0.252401 0.000000
1.448067 0.268509 0.000000
0.707035 1.210117 0.000000
0.695775 1.193588 0.000000
0.332577 1.029614 0.000000
0.213001 1.039510 0.000000
1.193364 0.201214 0.000000
0.091138 1.290743 0.000000
0.102562 1.307291 0.000000
0.113843 1.323820 0.000000
0.133791 1.322333 0.000000
0.145052 1.338862 0.000000
1.127422 0.258237 0.000000
1.489446 0.872136 0.000000
1.246497 1.048313 0.000000
1.191450 0.444517 0.000000
0.377618 1.095730 0.000000
0.500522 1.399200 0.000000
0.509207 1.381184 0.000000
0.529151 1.379697 0.000000
1.123593 0.744843 0.000000
0.996198 0.650130 0.000000
1.016142 0.648643 0.000000
1.024827 0.630627 0.000000
1.027402 0.665172 0.000000
1.013566 0.614098 0.000000
0.829574 0.836240 0.000000
0.629881 0.851236 0.000000
0.737282 1.346810 0.000000
0.748542 1.363339 0.000000
0.643007 1.023836 0.000000
0.930620 1.384500 0.000000
1.730950 0.731371 0.000000
1.190789 0.166669 0.000000
1.452698 1.258765 0.000000
1.393836 1.141539 0.000000
1.209776 0.286834 0.000000
1.192407 0.322866 0.000000
0.336771 1.220355 0.000000
0.864699 1.441508 0.000000
0.875888 1.457342 0.000000
0.895812 1.456449 0.000000
0.884841 1.475607 0.000000
0.856059 1.458580 0.000000
0.683557 1.298710 0.000000
0.589282 0.975736 0.000000
0.578021 0.959207 0.000000
0.586706 0.941191 0.000000
1.003264 0.475917 0.000000
1.929375 1.837466 0.000000
1.944990 1.888261 0.000000
1.958682 1.798062 0.000000
1.998934 1.758251 0.000000
2.092466 1.751391 0.000000
0.509503 0.981685 0.000000
1.348431 0.398075 0.000000
0.087794 1.377868 0.000000
1.063097 0.471456 0.000000
0.561670 0.875230 0.000000
0.803521 0.890288 0.000000
1.420832 0.965828 0.000000
1.186298 0.375427 0.000000
0.934449 0.897894 0.000000
0.923189 0.881365 0.000000
0.931873 0.863349 0.000000
0.914504 0.899381 0.000000
0.903244 0.882852 0.000000
0.905820 0.917397 0.000000
0.862343 0.607815 0.000000
1.332088 1.389303 0.000000
0.779747 1.378381 0.000000
0.788432 1.360365 0.000000
0.874615 0.902356 0.000000
0.865931 0.920372 0.000000
1.218825 0.946165 0.000000
0.487644 1.226475 0.000000
0.808673 0.959378 0.000000
0.136367 1.356878 0.000000
0.607312 1.217552 0.000000
0.788728 0.960865 0.000000
0.227406 1.367458 0.000000
0.218722 1.385474 0.000000
0.238666 1.383987 0.000000
0.514358 1.450274 0.000000
0.526460 1.466230 0.000000
0.545703 1.465221 0.000000
0.538253 1.484215 0.000000
0.557233 1.481421 0.000000
0.420744 1.405149 0.000000
0.277894 1.103165 0.000000
0.763049 0.737236 0.000000
3.529894 5.993530 0.000000
0.917080 0.933927 0.000000
0.886537 1.196733 0.000000
0.597670 1.357220 0.000000
0.938643 1.088636 0.000000
0.823170 1.288300 0.000000
0.719913 1.382842 0.000000
0.418168 1.370603 0.000000
1.131981 1.126326 0.000000
1.109095 0.415921 0.000000
0.643668 1.301684 0.000000
1.317591 1.060381 0.000000
1.141623 0.986659 0.000000
0.879470 1.370945 0.000000
0.899415 1.369458 0.000000
1.044110 0.351292 0.000000
1.359395 0.814104 0.000000
1.318253 1.338229 0.000000
1.385449 0.760056 0.000000
0.700926 1.262678 0.000000
0.416550 1.214407 0.000000
0.427810 1.230936 0.000000
0.931235 0.585512 0.000000
1.136175 1.317068 0.000000
0.386302 1.077713 0.000000
0.406247 1.076226 0.000000
0.363583 1.444054 0.000000
0.352093 1.462965 0.000000
1.232000 0.719391 0.000000
1.769055 1.750127 0.000000
1.168633 0.810959 0.000000
0.280470 1.137710 0.000000
0.269210 1.121181 0.000000
0.819933 0.975907 0.000000
0.773364 0.753558 0.000000
0.293349 1.310436 0.000000
0.596051 1.201023 0.000000
1.202049 0.183198 0.000000
1.182104 0.184685 0.000000
1.223020 1.136907 0.000000
0.769741 0.840701 0.000000
1.720934 1.736550 0.000000
0.338390 1.376552 0.000000
0.333238 1.307462 0.000000
0.337728 1.098704 0.000000
0.122532 1.305804 0.000000
1.318184 0.261382 0.000000
1.234576 0.753936 0.000000
1.461080 0.841042 0.000000
1.472023 0.821691 0.000000
0.797412 0.942849 0.000000
1.470137 1.224616 0.000000
1.488816 1.201229 0.000000
1.478850 1.241283 0.000000
1.335918 0.902697 0.000000
0.896839 1.334913 0.000000
1.353879 0.067668 0.000000
0.821551 1.132104 0.000000
0.767826 1.084004 0.000000
0.787771 1.082517 0.000000
0.779086 1.100533 0.000000
0.799031 1.099046 0.000000
0.790346 1.117062 0.000000
0.759142 1.102020 0.000000
0.739197 1.103507 0.000000
0.750457 1.120036 0.000000
0.945048 0.636575 0.000000
0.496328 1.208458 0.000000
1.380297 0.690965 0.000000
1.369037 0.674436 0.000000
0.079130 1.395869 0.000000
1.296620 0.106673 0.000000
1.685115 1.771436 0.000000
0.616555 1.855026 0.000000
1.927255 0.136428 0.000000
1.953839 0.093748 0.000000
0.608762 1.805969 0.000000
0.170147 1.406448 0.000000
0.896474 0.657566 0.000000
0.905159 0.639549 0.000000
0.366332 1.669516 0.000000
0.438066 1.834803 0.000000
0.399868 1.865622 0.000000
1.157373 0.794430 0.000000
1.026149 1.186323 0.000000
0.726318 0.930781 0.000000
1.198516 0.270305 0.000000
1.327825 0.121714 0.000000
1.303094 0.731459 0.000000
0.223212 1.176717 0.000000
1.270271 0.560220 0.000000
0.554271 1.447284 0.000000
1.041603 1.393594 0.000000
0.754943 1.629484 0.000000
0.716236 1.661199 0.000000
1.217243 1.864096 0.000000
0.599584 1.113917 0.000000
0.590900 1.131933 0.000000
1.321124 0.973275 0.000000
0.735664 1.190613 0.000000
0.920317 1.246320 0.000000
0.677672 1.693019 0.000000
1.047347 0.663685 0.000000
0.988470 0.546495 0.000000
1.376399 0.100724 0.000000
0.956012 1.052604 0.000000
0.944752 1.036075 0.000000
1.398988 1.210629 0.000000
0.643973 0.902162 0.000000
1.378679 0.534769 0.000000
1.284403 0.211795 0.000000
1.054117 0.888972 0.000000
1.837486 1.503602 0.000000
0.462548 1.158871 0.000000
0.972424 1.138223 0.000000
0.276937 1.224817 0.000000
1.611300 1.480659 0.000000
1.126464 0.379888 0.000000
0.944261 1.436109 0.000000
0.703798 0.897723 0.000000
1.361606 0.171301 0.000000
1.254817 0.352950 0.000000
0.788045 1.826488 0.000000
0.975000 1.172768 0.000000
1.330105 0.555759 0.000000
1.247089 0.249314 0.000000
1.010695 0.979052 0.000000
1.325911 0.365017 0.000000
1.348028 1.676569 0.000000
1.587856 1.563830 0.000000
1.175107 1.435745 0.000000
1.088855 0.816907 0.000000
1.744450 1.653201 0.000000
0.692538 0.881194 0.000000
1.456811 1.752015 0.000000
1.504932 1.765590 0.000000
1.176657 0.515095 0.000000
1.185341 0.497079 0.000000
6.287501 5.495561 0.000000
0.184941 1.335887 0.000000
0.353576 1.847136 0.000000
6.298399 4.436577 0.000000
1.170548 0.567656 0.000000
0.162421 1.302829 0.000000
1.577653 1.876349 0.000000
1.529537 1.862558 0.000000
4.453751 5.474673 0.000000
1.069206 0.418895 0.000000
1.330470 1.233107 0.000000
0.835387 1.183178 0.000000
1.393472 0.464191 0.000000
0.800649 1.255242 0.000000
1.493690 1.897101 0.000000
0.911929 0.864836 0.000000
0.622105 1.146975 0.000000
0.630789 1.128959 0.000000
1.384085 1.641510 0.000000
1.671724 1.542698 0.000000
1.947825 0.260423 0.000000
1.319141 0.139731 0.000000
1.112628 0.328814 0.000000
1.070167 0.297245 0.000000
1.257392 0.387495 0.000000
1.313032 0.192292 0.000000
0.707987 1.611885 0.000000
0.706374 0.932268 0.000000
1.335266 1.628219 0.000000
1.878112 2.622424 0.000000
0.558077 0.960694 0.000000
7.219335 3.918168 0.000000
7.501989 3.594100 0.000000
7.689786 4.045699 0.000000
5.364270 6.013679 0.000000
5.487092 6.400131 0.000000
1.725767 3.258206 0.000000
1.540751 1.730704 0.000000
3.922952 6.073304 0.000000
1.175403 1.036246 0.000000
1.184088 1.018230 0.000000
0.446609 1.889523 0.000000
0.504055 1.312094 0.000000
7.360113 4.305167 0.000000
7.723271 4.441837 0.000000
1.077298 1.199878 0.000000
0.635941 1.198049 0.000000
6.575487 3.078894 0.000000
0.935406 0.776243 0.000000
1.333638 0.468653 0.000000
1.181216 1.383184 0.000000
3.586680 1.865690 0.000000
2.530765 2.584056 0.000000
2.504860 2.436309 0.000000
3.612752 3.539391 0.000000
0.817160 3.341381 0.000000
0.429428 1.387132 0.000000
0.958055 3.392811 0.000000
2.489508 1.601456 0.000000
2.835297 1.312412 0.000000
2.861241 1.460096 0.000000
2.746234 1.556404 0.000000
1.135314 1.438482 0.000000
1.141919 0.587159 0.000000
3.489173 1.272477 0.000000
3.632608 1.323124 0.000000
3.603338 1.173553 0.000000
3.232143 1.318920 0.000000
0.254573 3.124127 0.000000
3.444170 0.268487 0.000000
0.936364 0.654591 0.000000
2.411508 1.159086 0.000000
0.114741 1.202197 0.000000
1.035791 1.046655 0.000000
3.243297 0.631552 0.000000
2.300766 2.776670 0.000000
2.441670 2.828109 0.000000
2.237575 3.168469 0.000000
3.094382 2.789812 0.000000
3.120287 2.937558 0.000000
3.005287 3.033865 0.000000
0.602774 1.426160 0.000000
2.197708 2.186274 0.000000
2.338129 2.237251 0.000000
3.324360 2.597201 0.000000
3.028050 1.659281 0.000000
0.732190 6.473835 0.000000
5.940668 1.184099 0.000000
5.548535 1.104638 0.000000
5.282954 1.390623 0.000000
5.120670 1.000911 0.000000
5.400005 0.744994 0.000000
5.056596 0.620721 0.000000
5.293921 0.353931 0.000000
5.799390 0.782104 0.000000
3.083000 3.477104 0.000000
3.762980 2.898085 0.000000
3.789357 3.048192 0.000000
2.660288 3.322787 0.000000
2.775287 3.226480 0.000000
2.801192 3.374226 0.000000
2.312074 2.089679 0.000000
2.976158 1.363880 0.000000
3.376189 2.892690 0.000000
1.492630 1.717128 0.000000
2.887144 1.607842 0.000000
2.645764 2.487749 0.000000
2.296922 1.254373 0.000000
1.698439 5.972749 0.000000
2.090586 6.052309 0.000000
1.825179 6.352083 0.000000
2.217040 6.432144 0.000000
2.355890 5.751307 0.000000
1.141327 1.386158 0.000000
2.990760 2.198828 0.000000
3.131667 2.250266 0.000000
3.878188 0.441362 0.000000
2.735686 6.891509 0.000000
0.387250 3.854421 0.000000
4.302925 7.210987 0.000000
2.211670 3.020723 0.000000
1.993144 2.526155 0.000000
3.647847 7.432273 0.000000
4.048103 7.547216 0.000000
4.424413 7.590218 0.000000
3.287095 3.136744 0.000000
3.478482 3.484388 0.000000
2.608989 6.512099 0.000000
1.162159 0.186172 0.000000
1.150899 0.169643 0.000000
6.979226 2.100633 0.000000
1.063643 5.143774 0.000000
2.593927 2.192267 0.000000
2.343763 6.811532 0.000000
3.720868 2.603406 0.000000
3.836129 2.507402 0.000000
3.807495 2.367304 0.000000
3.682312 3.143512 0.000000
3.832024 3.196489 0.000000
3.947632 3.067079 0.000000
1.419458 7.332913 0.000000
1.150768 3.739741 0.000000
6.583495 2.021931 0.000000
2.515385 1.749296 0.000000
1.181583 1.898691 0.000000
2.478956 2.288563 0.000000
3.665122 2.317317 0.000000
3.270787 3.831286 0.000000
3.428886 1.666341 0.000000
3.303743 3.973917 0.000000
3.488530 4.047576 0.000000
2.697574 2.783241 0.000000
3.772945 7.810254 0.000000
2.467574 2.975855 0.000000
2.430288 3.515401 0.000000
1.337048 1.808221 0.000000
1.349351 1.856729 0.000000
1.201457 0.982197 0.000000
0.128640 1.253242 0.000000
2.096670 3.117030 0.000000
2.853605 3.668194 0.000000
3.042573 2.494319 0.000000
1.792572 1.666778 0.000000
0.727937 1.086978 0.000000
0.719252 1.104994 0.000000
3.268758 0.779154 0.000000
3.105607 0.582993 0.000000
2.991030 0.679765 0.000000
2.556669 2.731802 0.000000
2.772128 1.704155 0.000000
2.798006 1.851912 0.000000
2.630940 1.652795 0.000000
1.156181 7.629842 0.000000
0.718085 7.539233 0.000000
1.374484 0.344027 0.000000
2.363970 2.384890 0.000000
1.399581 0.411630 0.000000
0.753960 3.733170 0.000000
1.497952 0.536840 0.000000
1.788957 2.866406 0.000000
3.859888 2.652580 0.000000
3.641036 0.638590 0.000000
3.763406 0.686459 0.000000
2.033911 3.507650 0.000000
0.780128 3.877795 0.000000
3.063911 1.119887 0.000000
0.447043 3.483497 0.000000
2.604984 1.505030 0.000000
3.220762 2.006213 0.000000
3.561394 1.725928 0.000000
3.646618 3.682860 0.000000
0.839877 0.974420 0.000000
0.502437 1.155897 0.000000
1.419858 1.606832 0.000000
1.313693 0.470140 0.000000
0.448712 1.107797 0.000000
2.185766 2.872977 0.000000
2.044862 2.821539 0.000000
0.861440 1.129130 0.000000
2.686192 3.470533 0.000000
3.246644 2.153963 0.000000
0.489262 1.382671 0.000000
0.783280 1.291275 0.000000
0.302991 1.170768 0.000000
0.322935 1.169281 0.000000
1.920729 3.595679 0.000000
0.826661 4.032567 0.000000
1.672813 1.722973 0.000000
0.279187 3.439112 0.000000
1.358073 0.258408 0.000000
1.349388 0.276424 0.000000
1.192111 0.722365 0.000000
3.873955 3.360365 0.000000
1.082450 1.268968 0.000000
0.164997 1.337374 0.000000
0.657800 0.953259 0.000000
3.157565 2.398014 0.000000
3.183465 2.545761 0.000000
3.347262 1.222430 0.000000
1.156712 0.516582 0.000000
1.165396 0.498566 0.000000
3.272506 2.301717 0.000000
2.326670 2.924416 0.000000
0.732427 0.878220 0.000000
1.623603 1.529121 0.000000
3.091005 1.267568 0.000000
0.542326 1.152923 0.000000
0.850180 1.112601 0.000000
3.209376 2.693506 0.000000
7.915315 4.760967 0.000000
3.235284 2.841251 0.000000
0.243810 1.452969 0.000000
0.223983 1.454277 0.000000
0.235305 1.470737 0.000000
0.422658 1.161846 0.000000
0.826703 1.201194 0.000000
0.806758 1.202681 0.000000
1.397364 1.054429 0.000000
0.268253 1.242833 0.000000
0.771351 1.727931 0.000000
1.184384 0.618730 0.000000
1.447197 0.512291 0.000000
1.458461 0.528871 0.000000
1.449773 0.546845 0.000000
1.468823 0.545969 0.000000
1.460884 0.563470 0.000000
1.479909 0.562609 0.000000
1.479555 0.529004 0.000000
1.429828 0.548325 0.000000
3.261190 2.988997 0.000000
1.394133 0.742040 0.000000
0.263101 1.173742 0.000000
1.600098 1.612440 0.000000
1.071486 0.852939 0.000000
1.440253 0.286925 0.000000
3.031191 3.181612 0.000000
1.241050 1.378723 0.000000
0.969187 0.825830 0.000000
1.900755 1.742349 0.000000
2.942096 3.425665 0.000000
1.220444 1.102362 0.000000
1.084661 0.626166 0.000000
2.827197 3.521718 0.000000
3.657758 6.372690 0.000000
2.570836 3.567675 0.000000
3.146191 3.085304 0.000000
0.374609 1.718758 0.000000
0.367019 1.357049 0.000000
2.916192 3.277919 0.000000
0.582215 1.149949 0.000000
0.543945 1.309120 0.000000
0.688047 1.089952 0.000000
1.208819 0.408485 0.000000
1.454398 1.293014 0.000000
0.424277 1.318042 0.000000
0.741151 1.809030 0.000000
1.364547 0.883194 0.000000
0.775553 1.187639 0.000000
1.256435 0.509146 0.000000
0.698804 0.828709 0.000000
0.557781 1.360194 0.000000
2.454265 3.660505 0.000000
0.701883 1.141026 0.000000
0.690623 1.124497 0.000000
1.168929 0.411459 0.000000
0.283699 1.450084 0.000000
0.275023 1.468120 0.000000
0.298450 1.469382 0.000000
1.239431 1.222526 0.000000
2.338954 3.755466 0.000000
2.376646 3.904757 0.000000
1.276084 0.907159 0.000000
1.803253 1.536052 0.000000
1.124254 1.022691 0.000000
1.169956 1.366655 0.000000
1.032879 0.334777 0.000000
1.024190 0.352791 0.000000
1.757773 1.881669 0.000000
1.625692 1.890085 0.000000
1.417976 1.330794 0.000000
0.967272 1.069133 0.000000
0.958588 1.087149 0.000000
1.351007 0.432621 0.000000
1.143241 1.142855 0.000000
0.840835 0.852769 0.000000
1.481411 1.848896 0.000000
0.264059 1.052094 0.000000
0.866888 0.798720 0.000000
1.222062 1.258558 0.000000
0.822508 1.010452 0.000000
1.272551 0.994265 0.000000
0.703502 1.297223 0.000000
1.287344 0.923688 0.000000
0.485351 1.853094 0.000000
1.053160 1.010623 0.000000
0.520763 0.998214 0.000000
0.810291 1.115575 0.000000
1.301841 1.252610 0.000000
1.259307 0.144192 0.000000
0.502330 1.953460 0.000000
1.223681 1.414755 0.000000
0.296882 1.223329 0.000000
1.086575 0.382863 0.000000
1.372570 0.587330 0.000000
1.268356 0.803523 0.000000
1.553054 1.779167 0.000000
0.735003 0.912765 0.000000
0.500819 0.999701 0.000000
0.489558 0.983172 0.000000
0.074005 1.326817 0.000000
0.376660 1.217381 0.000000
1.321786 1.251123 0.000000
0.606651 0.939704 0.000000
1.805291 1.895318 0.000000
1.946824 0.491957 0.000000
1.977824 0.528672 0.000000
2.000326 0.579599 0.000000
1.106224 0.780875 0.000000
0.456439 1.211433 0.000000
1.174742 0.758398 0.000000
1.443735 0.078028 0.000000
1.039985 1.237397 0.000000
0.062699 1.189096 0.000000
0.141506 1.425795 0.000000
0.146185 1.462047 0.000000
0.720210 0.983343 0.000000
1.756753 1.701664 0.000000
0.148585 1.251755 0.000000
0.176257 1.353904 0.000000
0.585749 1.062843 0.000000
1.096582 0.920543 0.000000
1.426956 0.913278 0.000000
1.137063 0.118569 0.000000
1.659396 1.494246 0.000000
1.176953 0.115595 0.000000
1.165692 0.099066 0.000000
1.551966 1.598732 0.000000
0.716029 0.792617 0.000000
0.891027 0.987975 0.000000
0.464166 1.315068 0.000000
1.431351 0.704474 0.000000
1.465353 0.718597 0.000000
0.469614 0.984659 0.000000
1.464021 0.199413 0.000000
1.088496 0.139555 0.000000
0.996563 1.327478 0.000000
0.891984 0.866323 0.000000
1.389347 1.350297 0.000000
1.320759 0.295927 0.000000
1.149350 1.090294 0.000000
1.158034 1.072278 0.000000
0.517891 1.363168 0.000000
0.870422 0.711615 0.000000
1.289258 0.680385 0.000000
1.439015 0.808264 0.000000
1.446809 0.789823 0.000000
0.889949 1.910761 0.000000
0.852294 1.944166 0.000000
1.239362 0.145679 0.000000
1.228102 0.129150 0.000000
1.035498 1.446115 0.000000
1.046742 1.462420 0.000000
1.284768 0.889143 0.000000
1.443664 0.599398 0.000000
0.962417 0.600543 0.000000
0.870786 1.388962 0.000000
0.284003 1.050607 0.000000
1.517235 1.814053 0.000000
0.353183 1.305975 0.000000
0.412355 1.023665 0.000000
0.795498 1.186152 0.000000
1.375807 0.899723 0.000000
0.952775 0.740211 0.000000
0.595394 0.923175 0.000000
1.130659 0.570630 0.000000
0.289155 1.119694 0.000000
0.820890 0.854256 0.000000
0.249927 1.400516 0.000000
1.113586 0.207163 0.000000
1.167015 0.654762 0.000000
1.817175 1.763702 0.000000
1.342026 0.850136 0.000000
1.366826 1.317239 0.000000
1.355566 1.300710 0.000000
0.907569 0.520912 0.000000
1.140004 0.830462 0.000000
0.237048 1.227791 0.000000
0.497947 1.364655 0.000000
1.363885 0.605346 0.000000
0.866592 1.198220 0.000000
0.922543 0.603524 0.000000
1.914356 1.610050 0.000000
0.859164 0.695087 0.000000
0.212603 1.437813 0.000000
0.540412 1.396226 0.000000
1.185637 0.097579 0.000000
1.065012 0.228153 0.000000
0.881385 1.127642 0.000000
1.414443 1.417900 0.000000
1.403183 1.401371 0.000000
1.244583 1.291616 0.000000
1.273143 0.195266 0.000000
1.336579 1.180546 0.000000
1.323700 1.007820 0.000000
0.819637 1.375407 0.000000
1.001714 1.396568 0.000000
1.454291 0.737479 0.000000
0.687921 0.812308 0.000000
4.315148 6.153181 0.000000
0.754947 0.911278 0.000000
1.304348 0.210308 0.000000
4.188404 5.774039 0.000000
1.401860 0.845675 0.000000
1.298239 0.262869 0.000000
1.395386 0.220889 0.000000
1.116823 0.519556 0.000000
1.251945 0.717904 0.000000
0.959545 0.965497 0.000000
1.463319 0.320869 0.000000
1.472505 0.303656 0.000000
1.470739 0.338018 0.000000
0.855332 1.181691 0.000000
0.474765 1.053749 0.000000
0.830236 1.114088 0.000000
0.038886 1.122089 0.000000
1.448213 1.067253 0.000000
1.173785 0.880049 0.000000
1.260925 0.300388 0.000000
0.707489 0.810696 0.000000
1.473141 0.738679 0.000000
1.329809 0.955259 0.000000
1.094667 1.163846 0.000000
1.055438 1.444617 0.000000
0.672622 0.882682 0.000000
0.252719 1.036228 0.000000
1.421144 0.566340 0.000000
1.472090 0.580034 0.000000
0.358334 1.375065 0.000000
0.458057 1.367629 0.000000
1.233915 0.476088 0.000000
0.894560 0.900868 0.000000
1.364251 1.282694 0.000000
1.060015 0.159002 0.000000
1.375146 0.621875 0.000000
0.720871 1.261191 0.000000
0.404332 1.319529 0.000000
1.416653 0.775098 0.000000
1.417611 0.653446 0.000000
1.356523 1.179058 0.000000
0.877191 0.936901 0.000000
0.797116 1.342349 0.000000
1.387363 0.516753 0.000000
0.637559 1.354245 0.000000
1.280870 0.298901 0.000000
0.718591 0.827146 0.000000
1.393176 0.863691 0.000000
0.823466 0.888801 0.000000
0.600481 0.867216 0.000000
1.189900 1.365168 0.000000
0.757227 1.345323 0.000000
0.217103 1.229278 0.000000
1.235829 0.232785 0.000000
1.164439 0.620217 0.000000
0.666330 0.814698 0.000000
1.161863 0.585672 0.000000
1.153179 0.603688 0.000000
0.910971 0.986488 0.000000
0.153736 1.320845 0.000000
0.438409 0.969617 0.000000
1.274169 1.150462 0.000000
1.941361 1.572235 0.000000
1.170913 1.245004 0.000000
1.417876 0.253938 0.000000
1.903968 2.770111 0.000000
0.269871 1.399029 0.000000
0.983684 1.154752 0.000000
0.792261 0.873759 0.000000
1.125507 0.501540 0.000000
0.693855 1.436894 0.000000
1.312736 0.591791 0.000000
1.341069 0.971788 0.000000
1.332385 0.989804 0.000000
0.951818 0.861862 0.000000
1.226849 0.650301 0.000000
1.415330 0.219402 0.000000
1.464945 0.354845 0.000000
0.883004 1.283839 0.000000
0.871743 1.267310 0.000000
0.860483 1.250781 0.000000
0.075898 1.083504 0.000000
1.374850 1.021375 0.000000
0.569337 0.977223 0.000000
1.441064 0.564872 0.000000
0.766869 1.205655 0.000000
0.527533 1.223500 0.000000
1.154432 0.082537 0.000000
0.401095 1.007136 0.000000
0.976914 0.929465 0.000000
1.648053 2.814967 0.000000
1.451647 1.380424 0.000000
1.470897 1.379405 0.000000
1.167676 0.932610 0.000000
1.244514 0.214769 0.000000
0.390496 1.268455 0.000000
1.041600 0.316778 0.000000
1.061495 0.315267 0.000000
1.058937 0.280730 0.000000
1.042196 0.594595 0.000000
0.715058 0.914252 0.000000
1.230086 0.962694 0.000000
0.555548 0.926172 0.000000
1.357185 1.456907 0.000000
1.369327 1.473121 0.000000
0.694156 1.037391 0.000000
1.327529 0.521214 0.000000
1.487430 0.596337 0.000000
1.491772 0.576542 0.000000
1.500922 0.560391 0.000000
1.026741 0.387324 0.000000
1.095322 1.441613 0.000000
1.106043 1.457124 0.000000
0.940558 0.845333 0.000000
1.440650 0.165841 0.000000
0.985903 0.511953 0.000000
0.974634 0.495421 0.000000
1.319210 1.216578 0.000000
0.734045 1.034417 0.000000
1.085983 1.181862 0.000000
0.341923 1.289446 0.000000
0.449373 1.385645 0.000000
1.079509 0.557075 0.000000
1.071152 0.175608 0.000000
1.020632 0.439885 0.000000
1.274761 0.351463 0.000000
1.130955 0.171131 0.000000
0.110315 1.410926 0.000000
1.278659 0.941704 0.000000
1.207269 1.329136 0.000000
0.247351 1.365971 0.000000
0.372186 1.426122 0.000000
0.704941 1.453242 0.000000
0.651387 1.405320 0.000000
0.287240 1.362997 0.000000
0.307185 1.361510 0.000000
0.050263 1.137909 0.000000
1.151980 0.048151 0.000000
1.160832 0.031576 0.000000
0.739858 1.381355 0.000000
1.291538 1.114430 0.000000
0.372466 1.026639 0.000000
1.452326 0.581398 0.000000
1.290877 0.836581 0.000000
1.186663 1.052775 0.000000
0.808376 1.358878 0.000000
1.251284 0.440056 0.000000
0.882342 1.005991 0.000000
0.893603 1.022520 0.000000
0.884918 1.040536 0.000000
1.267399 0.925175 0.000000
0.150201 1.407917 0.000000
1.056397 1.323016 0.000000
1.342984 0.728485 0.000000
1.234958 1.431272 0.000000
1.253198 0.196753 0.000000
0.909353 0.830291 0.000000
0.711525 1.001359 0.000000
0.723743 0.896236 0.000000
1.247455 0.926662 0.000000
0.910675 1.385987 0.000000
0.995677 0.372350 0.000000
0.566769 0.942682 0.000000
1.204032 1.016743 0.000000
1.294775 1.426823 0.000000
1.155755 0.638233 0.000000
0.885875 0.918885 0.000000
0.904419 1.438571 0.000000
1.187325 1.330623 0.000000
0.454820 1.055236 0.000000
0.846299 0.644650 0.000000
1.396342 0.099236 0.000000
1.277041 0.785507 0.000000
1.022251 0.596082 0.000000
1.308542 0.401050 0.000000
0.987087 1.466017 0.000000
0.657504 1.352758 0.000000
1.129997 0.292782 0.000000
1.125803 0.102040 0.000000
1.188874 0.409972 0.000000
1.132573 0.327327 0.000000
1.157077 1.193929 0.000000
0.409484 1.388620 0.000000
0.787109 0.804669 0.000000
1.167311 0.255263 0.000000
1.253267 1.273600 0.000000
1.266442 1.046826 0.000000
0.258611 1.382500 0.000000
0.768783 0.962352 0.000000
1.003925 0.753765 0.000000
0.800945 0.855743 0.000000
0.812206 0.872272 0.000000
1.380593 0.291466 0.000000
1.077237 0.123026 0.000000
1.150011 1.368142 0.000000
1.353286 0.866665 0.000000
0.226745 1.089610 0.000000
1.236787 0.111134 0.000000
1.365869 1.438886 0.000000
1.426517 1.435038 0.000000
0.494710 1.052262 0.000000
1.083330 0.070421 0.000000
1.409291 1.348810 0.000000
0.968891 1.225329 0.000000
1.388627 1.471357 0.000000
0.796455 1.064501 0.000000
1.142215 0.187660 0.000000
0.807715 1.081030 0.000000
0.440688 1.403662 0.000000
0.610845 1.130446 0.000000
1.037705 0.803352 0.000000
0.661037 1.265652 0.000000
1.414732 1.018397 0.000000
1.180190 0.427988 0.000000
1.352033 1.387816 0.000000
0.331620 1.151265 0.000000
0.793583 1.429455 0.000000
0.929959 1.106652 0.000000
0.121570 1.427386 0.000000
0.920613 0.846820 0.000000
0.838259 0.818223 0.000000
0.908100 1.351442 0.000000
0.919360 1.367971 0.000000
1.258419 1.342691 0.000000
0.639474 1.110942 0.000000
1.385083 0.082708 0.000000
1.334003 1.146000 0.000000
1.299561 0.818565 0.000000
1.044775 0.229915 0.000000
0.789685 0.839214 0.000000
0.778425 0.822685 0.000000
1.392809 0.186344 0.000000
1.197558 0.391956 0.000000
1.018718 0.683188 0.000000
1.171505 0.446004 0.000000
0.318445 1.378039 0.000000
1.459198 0.407293 0.000000
1.372866 0.187831 0.000000
0.768487 1.361852 0.000000
0.381153 1.008652 0.000000
1.305305 0.088656 0.000000
0.907735 0.674095 0.000000
1.122635 0.866494 0.000000
1.370290 0.153285 0.000000
0.977218 0.529970 0.000000
1.206243 0.373940 0.000000
0.588985 1.375235 0.000000
1.045729 0.507488 0.000000
1.307585 0.522701 0.000000
1.088559 1.216407 0.000000
0.608928 1.373747 0.000000
0.640130 1.388787 0.000000
1.318845 0.539230 0.000000
0.329705 1.394568 0.000000
0.321021 1.412584 0.000000
1.179597 1.226987 0.000000
0.837005 1.339374 0.000000
1.394791 1.019886 0.000000
0.858204 0.816736 0.000000
0.918699 1.090123 0.000000
0.621147 1.268626 0.000000
0.884257 0.762688 0.000000
1.462541 0.283769 0.000000
1.398031 1.332281 0.000000
1.114247 0.485011 0.000000
1.269679 1.359220 0.000000
0.985531 0.356358 0.000000
0.936729 1.331939 0.000000
0.855628 0.782191 0.000000
0.494366 1.451738 0.000000
1.000688 0.441372 0.000000
1.369698 0.952285 0.000000
0.481535 1.279036 0.000000
0.321978 1.290933 0.000000
0.535946 0.927851 0.000000
1.020336 0.839385 0.000000
1.154136 0.482037 0.000000
1.404140 1.279720 0.000000
1.116230 1.318555 0.000000
0.559695 1.116891 0.000000
1.072443 0.731288 0.000000
1.294046 0.072143 0.000000
1.143833 0.343856 0.000000
1.002671 1.274916 0.000000
1.439434 0.408677 0.000000
1.191206 0.046226 0.000000
0.890366 0.710127 0.000000
0.918995 0.690624 0.000000
1.143172 0.066008 0.000000
0.570955 1.133420 0.000000
1.363116 0.050324 0.000000
1.168337 1.210458 0.000000
0.988835 1.223842 0.000000
1.145748 0.100553 0.000000
0.206800 1.091097 0.000000
0.399181 1.250439 0.000000
0.419125 1.248952 0.000000
0.864312 0.764175 0.000000
1.072115 0.053682 0.000000
1.373921 0.066371 0.000000
1.478059 0.370801 0.000000
1.495514 0.394525 0.000000
1.486713 0.348549 0.000000
1.145452 0.500053 0.000000
1.248047 0.127663 0.000000
1.162821 0.464021 0.000000
1.386771 1.315752 0.000000
0.910310 0.708640 0.000000
1.242007 1.257071 0.000000
1.250691 1.239055 0.000000
1.259376 1.221039 0.000000
1.361014 0.970301 0.000000
0.722785 1.017888 0.000000
0.804691 1.445892 0.000000
0.675830 1.195075 0.000000
0.561314 1.273087 0.000000
1.267991 0.126176 0.000000
0.661994 1.144000 0.000000
0.631747 1.007307 0.000000
1.141258 0.309311 0.000000
0.892941 0.744672 0.000000
1.394429 0.342540 0.000000
0.933790 0.620047 0.000000
1.322378 0.452124 0.000000
1.331062 0.434108 0.000000
1.424654 0.479223 0.000000
1.288301 0.802036 0.000000
0.949242 0.827317 0.000000
0.332259 1.428935 0.000000
1.339747 0.416092 0.000000
0.951160 0.584015 0.000000
0.458460 0.968132 0.000000
1.147070 0.656249 0.000000
1.413413 0.462703 0.000000
0.968530 0.547984 0.000000
0.302033 1.292420 0.000000
0.506869 1.721787 0.000000
0.923850 1.159213 0.000000
0.925104 0.638063 0.000000
0.343003 1.444505 0.000000
1.253859 0.474601 0.000000
1.130066 1.369629 0.000000
0.361214 1.010160 0.000000
0.895221 1.178717 0.000000
1.086532 1.459240 0.000000
1.066678 1.461066 0.000000
1.058015 1.479213 0.000000
1.076365 1.478044 0.000000
1.108650 1.494652 0.000000
1.131374 1.490567 0.000000
1.307881 0.123202 0.000000
1.097835 0.399392 0.000000
1.400900 0.967324 0.000000
0.959856 0.566005 0.000000
0.942480 0.602034 0.000000
1.125211 0.901039 0.000000
1.375511 1.299223 0.000000
0.507085 1.471081 0.000000
1.384195 1.281207 0.000000
1.309499 0.279398 0.000000
0.407865 1.232423 0.000000
0.311064 0.996880 0.000000
0.881681 0.728143 0.000000
0.628873 1.372260 0.000000
1.074358 0.487985 0.000000
1.397005 0.377085 0.000000
1.347839 1.197075 0.000000
1.328486 0.399563 0.000000
0.916419 0.656078 0.000000
0.699308 1.106481 0.000000
0.928044 1.349955 0.000000
1.081493 1.390620 0.000000
0.447754 1.229449 0.000000
1.110122 1.371116 0.000000
1.287936 0.124689 0.000000
1.080831 1.112771 0.000000
1.015493 0.370801 0.000000
1.282850 0.055241 0.000000
1.292221 0.037214 0.000000
1.408265 0.393614 0.000000
1.409584 0.949308 0.000000
1.296986 0.784020 0.000000
0.645582 1.058381 0.000000
1.018422 1.082688 0.000000
1.232957 0.597740 0.000000
1.268060 1.203023 0.000000
1.060226 0.836410 0.000000
1.285874 1.445077 0.000000
0.900372 1.247807 0.000000
1.301476 0.575262 0.000000
0.233515 1.314897 0.000000
0.992003 0.459388 0.000000
1.322743 1.129471 0.000000
0.222255 1.298368 0.000000
1.285429 1.166991 0.000000
1.142284 1.264507 0.000000
0.980151 1.241858 0.000000
1.105266 0.902527 0.000000
0.341271 1.011642 0.000000
0.891688 1.265823 0.000000
1.276745 1.185007 0.000000
1.070232 1.374091 0.000000
1.092388 0.729801 0.000000
0.959249 1.364997 0.000000
0.990454 1.380039 0.000000
0.219679 1.263823 0.000000
1.070529 0.974591 0.000000
1.283515 1.410294 0.000000
1.040281 0.837898 0.000000
0.741773 1.138052 0.000000
1.429507 0.947801 0.000000
0.983364 0.477420 0.000000
0.970509 1.381526 0.000000
1.007458 0.666659 0.000000
1.317226 0.383034 0.000000
0.117342 1.236716 0.000000
1.303390 0.331959 0.000000
1.316930 0.782533 0.000000
1.101437 1.389132 0.000000
1.138682 0.274766 0.000000
1.010399 1.378552 0.000000
0.282089 1.293907 0.000000
1.310160 0.557246 0.000000
1.221697 0.581211 0.000000
0.730512 1.121523 0.000000
1.325615 0.764517 0.000000
1.329444 0.277911 0.000000
0.330787 0.995481 0.000000
0.262144 1.295394 0.000000
1.305966 0.366505 0.000000
1.294114 1.148975 0.000000
0.939304 1.366484 0.000000
0.952114 0.462362 0.000000
1.050288 1.375578 0.000000
0.770402 1.118549 0.000000
1.107842 0.937072 0.000000
1.243629 1.413266 0.000000
1.292130 0.315430 0.000000
1.300815 0.297414 0.000000
0.843114 1.286813 0.000000
0.253460 1.313410 0.000000
0.851799 1.268797 0.000000
1.438216 0.929741 0.000000
1.294706 0.349975 0.000000
1.030343 1.377065 0.000000
0.563228 1.029784 0.000000
0.978829 0.686162 0.000000
1.314354 0.747988 0.000000
1.265120 0.491130 0.000000
1.302798 1.130959 0.000000
1.323039 0.729972 0.000000
1.392880 1.263191 0.000000
0.781662 1.135078 0.000000
0.962782 1.277891 0.000000
1.281531 0.576749 0.000000
1.380001 1.090465 0.000000
1.446825 0.911685 0.000000
0.971467 1.259875 0.000000
1.360056 1.091952 0.000000
1.099158 0.955088 0.000000
1.331427 1.111455 0.000000
0.536217 1.205484 0.000000
0.811909 1.271771 0.000000
1.351372 1.109968 0.000000
1.242303 0.857572 0.000000
1.440169 1.085970 0.000000
1.360649 0.292953 0.000000
1.399945 1.088978 0.000000
1.081789 0.991120 0.000000
1.261587 0.578237 0.000000
1.408623 1.070957 0.000000
1.079213 0.956575 0.000000
0.574488 1.046313 0.000000
1.428204 0.392131 0.000000
0.791965 1.273258 0.000000
0.752075 1.276233 0.000000
1.331723 0.711956 0.000000
1.140961 0.708811 0.000000
1.401564 1.245175 0.000000
0.836344 1.061526 0.000000
1.252902 0.596253 0.000000
0.732131 1.277720 0.000000
1.263570 1.411781 0.000000
0.712186 1.279207 0.000000
1.320463 0.695427 0.000000
1.425040 1.156586 0.000000
0.143431 1.182667 0.000000
0.692242 1.280694 0.000000
0.772020 1.274746 0.000000
0.126023 1.218712 0.000000
0.672297 1.282181 0.000000
0.864973 1.042023 0.000000
1.410248 1.227159 0.000000
1.073104 1.009136 0.000000
1.445537 1.155040 0.000000
1.309203 0.678898 0.000000
1.020998 1.117233 0.000000
0.583834 1.306145 0.000000
1.177979 1.070791 0.000000
0.876234 1.058552 0.000000
1.064420 1.027152 0.000000
0.652352 1.283668 0.000000
0.634322 1.041852 0.000000
1.418933 1.209142 0.000000
1.149646 0.690794 0.000000
1.036748 0.925004 0.000000
1.457436 0.650564 0.000000
1.465227 1.154518 0.000000
1.484508 1.155680 0.000000
1.297943 0.662369 0.000000
1.142580 0.865007 0.000000
1.406350 0.636917 0.000000
1.151926 1.124839 0.000000
0.904863 1.039049 0.000000
1.055735 1.045168 0.000000
1.211098 0.842530 0.000000
0.632408 1.285155 0.000000
1.427596 1.191155 0.000000
1.009737 1.100704 0.000000
1.216250 0.911620 0.000000
1.047051 1.063184 0.000000
0.924807 1.037562 0.000000
1.231043 0.841043 0.000000
1.171870 1.123352 0.000000
0.134728 1.200690 0.000000
1.227510 0.928149 0.000000
1.070825 0.575091 0.000000
1.416359 1.174613 0.000000
0.953436 1.018059 0.000000
1.038366 1.081201 0.000000
1.183130 1.139881 0.000000
0.612463 1.286642 0.000000
0.499861 1.121352 0.000000
1.205651 1.172939 0.000000
1.050880 0.576578 0.000000
1.194391 1.156410 0.000000
0.964697 1.034588 0.000000
0.984641 1.033101 0.000000
0.996859 0.927978 0.000000
0.603779 1.304658 0.000000
1.089812 0.695256 0.000000
0.572574 1.289616 0.000000
0.497285 1.086807 0.000000
1.005543 0.909962 0.000000
1.182469 0.862033 0.000000
1.202414 0.860546 0.000000
1.286683 0.645840 0.000000
0.552629 1.291104 0.000000
1.162525 0.863520 0.000000
0.532684 1.292591 0.000000
0.512740 1.294078 0.000000
0.492795 1.295565 0.000000
0.432961 1.300026 0.000000
0.472851 1.297052 0.000000
0.430386 1.265481 0.000000
0.452906 1.298539 0.000000
1.101072 0.711785 0.000000
0.498817 1.672141 0.000000
1.112332 0.728314 0.000000
0.220636 1.142171 0.000000
0.650734 1.127471 0.000000
0.710568 1.123010 0.000000
0.231896 1.158700 0.000000
0.362824 1.166307 0.000000
0.209376 1.125642 0.000000
7.318474 5.340047 0.000000
1.610747 3.354489 0.000000
5.201734 6.683472 0.000000
0.100955 1.151102 0.000000
4.983711 4.876392 0.000000
0.198116 1.109113 0.000000
0.109650 1.133080 0.000000
0.175596 1.076055 0.000000
0.186856 1.092584 0.000000
1.188049 3.200210 0.000000
0.932155 3.245087 0.000000
0.624350 2.993060 0.000000
1.631335 0.723199 0.000000
0.153223 1.042408 0.000000
1.472855 0.424103 0.000000
0.791241 3.193668 0.000000
0.650309 3.141985 0.000000
1.248797 0.016680 0.000000
1.209001 0.016374 0.000000
0.144451 1.060894 0.000000
9.390194 0.579084 0.000000
6.235635 0.328677 0.000000
3.192154 0.153758 0.000000
12.126624 4.345645 0.000000
2.368950 17.398877 0.000000
1.047436 1.728409 0.000000
0.095863 1.082007 0.000000
1.288041 0.017443 0.000000
0.016760 1.288282 0.000000
0.035367 1.277784 0.000000
0.016983 1.408005 0.000000
0.017237 1.487642 0.000000
1.487642 0.017237 0.000000
0.129279 3.342800 0.000000
0.348335 7.388241 0.000000
0.344743 6.603118 0.000000
1.918910 0.043609 0.000000
1.446361 0.016272 0.000000
0.017082 1.388104 0.000000
14.021964 2.682394 0.000000
3.880245 4.155782 0.000000
0.126726 1.496545 0.000000
1.852222 1.088807 0.000000
0.311477 1.602902 0.000000
1.608985 1.299777 0.000000
0.896345 1.957954 0.000000
0.799525 1.980699 0.000000
1.599654 1.432947 0.000000
1.084141 1.692063 0.000000
0.907142 1.473094 0.000000
4.503571 14.229655 0.000000
0.037667 1.363833 0.000000
0.073296 1.049012 0.000000
1.873639 1.133757 0.000000
1.892719 1.176093 0.000000
1.463167 1.275063 0.000000
1.483819 1.274547 0.000000
1.489432 1.253893 0.000000
5.067830 13.504088 0.000000
1.602017 1.972765 0.000000
1.584356 2.041020 0.000000
0.802250 1.924901 0.000000
1.464412 0.476185 0.000000
1.474374 0.458195 0.000000
1.482945 0.475002 0.000000
1.484197 0.440816 0.000000
0.912710 11.375261 0.000000
15.218346 6.951900 0.000000
13.433807 12.136321 0.000000
1.224775 4.075756 0.000000
9.525288 12.467995 0.000000
17.439430 2.518475 0.000000
11.529533 13.493785 0.000000
17.638156 6.338167 0.000000
10.839827 11.899498 0.000000
4.124397 17.459241 0.000000
17.978184 8.694961 0.000000
0.996922 1.715295 0.000000
15.866779 4.565374 0.000000
0.251080 1.764295 0.000000
1.730489 0.425685 0.000000
9.683353 17.344283 0.000000
1.780440 0.429412 0.000000
15.842521 17.375590 0.000000
6.380122 15.969884 0.000000
6.117634 9.903227 0.000000
13.685478 14.516739 0.000000
11.024028 18.292784 0.000000
0.318796 1.462519 0.000000
1.438700 0.131348 0.000000
8.529289 10.209669 0.000000
3.785037 0.129968 0.000000
1.467164 0.511108 0.000000
1.487022 0.509359 0.000000
16.049243 13.934037 0.000000
8.399586 19.044282 0.000000
0.243742 1.714136 0.000000
0.862009 15.514156 0.000000
3.576399 1.027414 0.000000
1.109762 0.016807 0.000000
1.473197 0.180579 0.000000
4.902063 9.451164 0.000000
3.762090 10.187575 0.000000
13.049412 11.346582 0.000000
0.455166 1.491646 0.000000
0.477927 1.493175 0.000000
10.022631 11.801746 0.000000
0.057569 1.275789 0.000000
19.178864 10.521739 0.000000
1.912908 1.135993 0.000000
1.948865 1.109966 0.000000
1.984963 1.062046 0.000000
1.209405 2.504414 0.000000
7.237128 1.767744 0.000000
0.913742 1.780817 0.000000
10.254493 9.012177 0.000000
1.466583 0.909830 0.000000
1.455439 0.494062 0.000000
1.312976 0.035935 0.000000
2.770221 0.656290 0.000000
0.489081 2.082332 0.000000
1.701562 0.466679 0.000000
1.090023 0.017315 0.000000
1.783840 1.438591 0.000000
4.199948 13.385244 0.000000
0.254886 1.468799 0.000000
0.225994 1.490765 0.000000
1.644974 0.549421 0.000000
2.431570 13.158201 0.000000
1.149690 1.500283 0.000000
11.585603 2.979527 0.000000
0.915477 1.455920 0.000000
4.009786 0.284647 0.000000
0.613722 1.442645 0.000000
0.067442 1.573431 0.000000
0.100752 1.581165 0.000000
0.268726 1.000309 0.000000
16.388509 3.773240 0.000000
3.652998 2.162174 0.000000
1.040074 0.160551 0.000000
10.603659 9.723438 0.000000
0.142098 1.025164 0.000000
1.681519 3.795494 0.000000
14.059219 15.377063 0.000000
6.690194 6.639141 0.000000
7.033723 6.718250 0.000000
1.029521 0.020767 0.000000
10.084947 18.229068 0.000000
1.448685 0.148421 0.000000
0.955492 1.749305 0.000000
1.672994 0.507970 0.000000
1.870964 0.044134 0.000000
0.674957 0.762389 0.000000
0.722658 0.740008 0.000000
1.511314 0.046284 0.000000
0.807331 0.646292 0.000000
1.489492 10.094534 0.000000
0.758448 1.905775 0.000000
1.498696 0.490874 0.000000
0.360084 5.414359 0.000000
4.937135 1.275274 0.000000
0.791380 0.717298 0.000000
0.816067 1.462782 0.000000
15.077781 8.477586 0.000000
1.814603 3.713113 0.000000
0.605285 1.460512 0.000000
1.470284 0.979585 0.000000
1.492845 0.180247 0.000000
0.836680 1.460758 0.000000
0.848514 1.477454 0.000000
0.130158 3.196465 0.000000
0.945239 2.559458 0.000000
4.960341 0.293509 0.000000
0.098156 2.410474 0.000000
1.458041 0.806074 0.000000
1.489028 0.813148 0.000000
1.764649 0.040851 0.000000
1.282907 4.445471 0.000000
2.226133 4.016820 0.000000
1.497734 0.422714 0.000000
0.214400 1.470900 0.000000
5.684298 2.533080 0.000000
5.407999 2.840297 0.000000
0.046938 1.769206 0.000000
0.926234 1.474085 0.000000
0.936208 1.497433 0.000000
1.140860 0.032276 0.000000
1.323467 1.501858 0.000000
0.017491 1.088785 0.000000
0.853845 0.581338 0.000000
19.174714 18.463910 0.000000
0.317920 2.597547 0.000000
15.523582 19.114397 0.000000
3.382077 15.704029 0.000000
1.120474 0.033430 0.000000
16.576221 13.158250 0.000000
3.497288 14.170038 0.000000
7.388976 0.362247 0.000000
0.327172 0.962647 0.000000
0.616421 1.476120 0.000000
0.235916 1.664745 0.000000
12.607175 16.025711 0.000000
0.063935 1.466914 0.000000
0.767544 1.481667 0.000000
0.758426 1.502755 0.000000
0.622869 1.905061 0.000000
9.786667 5.123732 0.000000
5.401344 1.763837 0.000000
0.982609 0.322891 0.000000
11.540025 17.511521 0.000000
1.341683 1.517617 0.000000
4.585333 1.316859 0.000000
1.328412 0.015999 0.000000
0.716664 1.469127 0.000000
19.163416 7.494681 0.000000
1.039280 1.479605 0.000000
3.641357 0.119738 0.000000
1.031539 0.179659 0.000000
1.251014 1.650905 0.000000
0.402368 2.522298 0.000000
1.853152 1.913404 0.000000
1.189671 1.585503 0.000000
0.106849 1.516658 0.000000
13.952190 11.385956 0.000000
0.524959 0.911912 0.000000
3.711301 1.073791 0.000000
1.014163 0.049870 0.000000
1.564421 3.883137 0.000000
0.934043 0.467144 0.000000
0.797000 2.519977 0.000000
18.450111 3.974977 0.000000
1.868820 1.213974 0.000000
0.114392 2.748059 0.000000
0.658275 1.512401 0.000000
0.991387 0.303965 0.000000
0.998272 1.482961 0.000000
1.013071 1.506355 0.000000
1.454936 0.033567 0.000000
0.109012 1.617054 0.000000
7.004111 0.356703 0.000000
1.792877 0.260647 0.000000
0.365950 1.477200 0.000000
10.362688 12.567394 0.000000
19.079934 5.702587 0.000000
1.821755 0.216679 0.000000
1.461398 1.118802 0.000000
1.478084 1.108554 0.000000
0.741086 2.270758 0.000000
1.766907 1.299918 0.000000
1.476775 0.096146 0.000000
0.225732 1.892690 0.000000
1.459844 1.081168 0.000000
7.703550 5.413955 0.000000
7.992851 5.135854 0.000000
4.000434 3.477260 0.000000
1.097433 1.474999 0.000000
0.940519 0.384908 0.000000
0.356013 2.314099 0.000000
0.016709 1.329471 0.000000
0.656714 7.143545 0.000000
12.975847 16.887120 0.000000
0.591387 1.500155 0.000000
1.475830 0.033934 0.000000
8.824266 2.733386 0.000000
1.474105 0.216767 0.000000
1.576239 0.062416 0.000000
1.969691 1.488751 0.000000
1.960377 1.441429 0.000000
1.990220 1.543530 0.000000
1.027665 0.233626 0.000000
1.503921 13.014581 0.000000
12.711695 0.851759 0.000000
3.875634 1.279726 0.000000
1.494728 1.118641 0.000000
2.304074 0.732819 0.000000
4.128475 2.993000 0.000000
7.160013 7.063346 0.000000
0.436646 0.937293 0.000000
0.240064 2.969002 0.000000
0.160959 1.721963 0.000000
0.220352 2.672068 0.000000
0.583503 0.853801 0.000000
3.861054 1.495732 0.000000
3.775127 1.704112 0.000000
0.885964 2.322933 0.000000
0.495273 1.485479 0.000000
3.646458 1.457988 0.000000
1.499077 0.796380 0.000000
1.150240 0.016017 0.000000
3.081764 0.264842 0.000000
0.186206 1.926116 0.000000
1.637045 0.240662 0.000000
1.505883 0.335688 0.000000
0.214105 2.548614 0.000000
0.015301 1.447656 0.000000
7.548780 9.342855 0.000000
14.083446 9.873986 0.000000
1.346777 0.017021 0.000000
1.940959 1.211749 0.000000
2.045590 1.044202 0.000000
2.039333 0.946092 0.000000
0.031780 1.420214 0.000000
0.723613 6.087570 0.000000
1.749810 1.164623 0.000000
0.030814 1.140605 0.000000
4.623048 19.207984 0.000000
19.019672 8.608381 0.000000
1.024148 4.588579 0.000000
3.869747 2.806003 0.000000
0.262491 1.487779 0.000000
0.271330 1.912234 0.000000
1.457365 1.454227 0.000000
1.475949 1.456850 0.000000
1.512347 1.198034 0.000000
1.945766 1.935613 0.000000
2.006019 1.921235 0.000000
1.917403 1.976012 0.000000
2.426978 0.205824 0.000000
11.266457 4.605967 0.000000
0.114312 3.784517 0.000000
1.491791 0.219145 0.000000
0.244296 1.510554 0.000000
0.636994 1.514661 0.000000
0.032082 1.299516 0.000000
5.927911 7.508934 0.000000
1.165926 1.450852 0.000000
3.342800 0.111014 0.000000
0.819228 0.629293 0.000000
3.980311 2.420080 0.000000
3.925285 2.263408 0.000000
3.977290 2.578981 0.000000
4.001968 2.732851 0.000000
3.957883 2.095989 0.000000
1.466814 1.471535 0.000000
1.456706 1.489326 0.000000
1.468691 1.506164 0.000000
1.481743 1.471711 0.000000
1.812578 2.193728 0.000000
1.589171 10.864874 0.000000
7.653996 6.161785 0.000000
14.983420 9.893589 0.000000
1.500217 0.693788 0.000000
1.908723 1.433899 0.000000
1.986499 1.392249 0.000000
1.952798 1.352195 0.000000
2.121792 0.112731 0.000000
0.405049 0.956043 0.000000
0.767608 7.962938 0.000000
0.118090 2.895177 0.000000
1.761533 1.389106 0.000000
1.169642 0.015905 0.000000
0.510820 2.010143 0.000000
1.688479 2.289111 0.000000
9.429656 3.217830 0.000000
0.974763 0.341535 0.000000
1.009261 0.111486 0.000000
1.498467 1.024106 0.000000
0.884099 0.573085 0.000000
1.494033 1.139965 0.000000
1.487908 0.122291 0.000000
7.282327 3.201956 0.000000
0.729166 1.500979 0.000000
0.746326 1.483523 0.000000
0.527235 1.505237 0.000000
0.737805 0.722439 0.000000
12.440014 17.602767 0.000000
1.473852 1.410927 0.000000
1.479414 1.394161 0.000000
1.491689 1.379498 0.000000
1.499662 1.435980 0.000000
0.884947 1.497957 0.000000
1.372078 0.036151 0.000000
1.479031 0.838470 0.000000
9.801179 13.282487 0.000000
0.710872 5.098007 0.000000
1.488634 0.151466 0.000000
0.382178 0.938340 0.000000
1.125899 1.454996 0.000000
14.383223 0.779158 0.000000
7.188185 0.734441 0.000000
1.499995 0.731682 0.000000
2.631234 8.022373 0.000000
2.320789 7.839975 0.000000
0.013244 1.050501 0.000000
0.787947 1.516023 0.000000
0.544613 0.876728 0.000000
1.460474 0.996042 0.000000
1.989053 1.261941 0.000000
2.072648 0.174613 0.000000
0.595245 1.985782 0.000000
0.626495 1.955819 0.000000
0.736285 1.467224 0.000000
8.891518 1.013095 0.000000
0.613094 0.854001 0.000000
1.467408 0.699910 0.000000
3.104075 4.598326 0.000000
1.116130 1.473585 0.000000
1.487038 1.343159 0.000000
1.870146 1.972851 0.000000
5.517612 19.372002 0.000000
1.085406 1.493287 0.000000
0.014774 1.249083 0.000000
17.478809 19.321473 0.000000
1.979332 0.968116 0.000000
0.320433 0.980552 0.000000
13.883343 1.607056 0.000000
1.495503 0.301938 0.000000
1.480932 0.287361 0.000000
16.810130 3.058441 0.000000
1.492313 9.388271 0.000000
0.983282 9.035976 0.000000
5.790309 7.195322 0.000000
1.179733 0.031205 0.000000
1.496541 1.487151 0.000000
0.332460 1.961882 0.000000
0.387107 1.932624 0.000000
1.725148 0.218895 0.000000
0.387714 1.475481 0.000000
0.395069 1.492725 0.000000
0.357574 1.497104 0.000000
0.347960 1.480462 0.000000
0.332764 1.493306 0.000000
0.378658 1.515232 0.000000
3.843002 1.123591 0.000000
3.961382 1.029044 0.000000
0.891600 8.471995 0.000000
13.183597 2.934232 0.000000
6.430532 0.642232 0.000000
0.660201 0.794445 0.000000
0.163701 1.454802 0.000000
0.182621 1.478348 0.000000
1.201063 1.466630 0.000000
1.490802 0.855279 0.000000
1.511147 0.856271 0.000000
0.241810 1.022683 0.000000
1.494136 0.033518 0.000000
1.458289 0.165937 0.000000
1.388927 0.012151 0.000000
1.953388 1.012440 0.000000
6.531676 18.313118 0.000000
1.167201 1.514697 0.000000
3.896109 1.763458 0.000000
0.194889 1.972283 0.000000
1.436599 1.501722 0.000000
1.417954 1.488578 0.000000
1.399385 1.485875 0.000000
1.381576 1.491439 0.000000
1.366105 1.510331 0.000000
1.363233 1.489862 0.000000
0.474520 0.916889 0.000000
1.300798 1.504818 0.000000
3.260606 17.370376 0.000000
17.483784 0.667137 0.000000
0.668252 17.488515 0.000000
1.508648 1.162987 0.000000
0.040738 1.492360 0.000000
0.031975 1.477592 0.000000
0.874213 0.543901 0.000000
1.509167 0.825735 0.000000
2.463527 0.299631 0.000000
0.967409 0.359134 0.000000
0.845927 1.501790 0.000000
0.782849 0.700211 0.000000
1.078192 1.954049 0.000000
2.941058 0.444181 0.000000
1.545396 0.625990 0.000000
1.964924 1.305537 0.000000
2.437278 0.790060 0.000000
1.060207 1.502210 0.000000
0.013317 1.208990 0.000000
1.510438 0.520125 0.000000
0.015276 1.172578 0.000000
0.055405 2.156308 0.000000
0.945929 2.190065 0.000000
1.994064 0.794696 0.000000
1.936722 1.275406 0.000000
0.688277 0.745155 0.000000
4.167037 0.293146 0.000000
1.000276 0.243554 0.000000
1.465934 0.146971 0.000000
1.510362 0.184500 0.000000
1.484978 1.032497 0.000000
1.491819 1.063844 0.000000
1.518340 1.061096 0.000000
0.109725 3.636251 0.000000
0.031460 1.379376 0.000000
2.381986 0.125687 0.000000
0.866401 1.471541 0.000000
1.015383 0.180949 0.000000
1.474052 1.293562 0.000000
1.199910 0.030734 0.000000
1.701834 1.154975 0.000000
4.514513 8.821993 0.000000
1.498765 0.258765 0.000000
3.677015 1.784249 0.000000
9.351159 6.469997 0.000000
3.572902 0.221261 0.000000
0.635169 0.835587 0.000000
0.044287 1.594208 0.000000
0.125616 2.504747 0.000000
8.137055 4.343113 0.000000
7.752563 6.798808 0.000000
2.055833 0.102550 0.000000
1.313951 1.486296 0.000000
1.468130 1.062026 0.000000
0.837541 0.629196 0.000000
3.178359 14.963295 0.000000
0.896460 1.487147 0.000000
1.448871 0.063343 0.000000
1.405907 0.014649 0.000000
1.336749 2.451126 0.000000
1.395263 2.349741 0.000000
15.480006 9.209172 0.000000
4.318000 1.454556 0.000000
9.513075 7.706508 0.000000
1.011025 0.207966 0.000000
8.371389 13.911572 0.000000
3.967375 3.633159 0.000000
1.482945 1.443684 0.000000
1.472831 1.092798 0.000000
1.478395 1.362082 0.000000
0.250068 2.116872 0.000000
15.874904 1.378671 0.000000
1.487844 0.906425 0.000000
0.607122 1.495321 0.000000
1.857246 3.948544 0.000000
1.542631 0.925415 0.000000
0.450444 2.356598 0.000000
15.922965 18.386779 0.000000
0.315630 1.480520 0.000000
16.653899 17.165881 0.000000
2.627094 0.994740 0.000000
1.278566 3.929688 0.000000
0.948382 0.362766 0.000000
1.009228 1.915580 0.000000
2.172739 0.057339 0.000000
2.484511 0.938887 0.000000
3.879860 3.500759 0.000000
2.520544 8.579201 0.000000
1.789494 1.346998 0.000000
1.987908 1.209057 0.000000
1.944707 1.173645 0.000000
2.803478 13.829155 0.000000
0.592514 6.802156 0.000000
1.693247 0.066969 0.000000
0.366240 1.888162 0.000000
0.221415 1.024436 0.000000
0.012291 1.109471 0.000000
0.110924 1.495210 0.000000
1.284137 1.477201 0.000000
7.387110 5.668016 0.000000
1.481216 1.427008 0.000000
0.099401 2.024429 0.000000
17.539470 11.502038 0.000000
1.464140 0.786550 0.000000
0.507910 0.915301 0.000000
0.902644 0.538108 0.000000
12.900798 18.396459 0.000000
3.695112 1.923044 0.000000
3.835845 2.014921 0.000000
7.691640 2.836378 0.000000
16.685617 15.746625 0.000000
16.828308 13.991602 0.000000
1.219590 0.029929 0.000000
1.951118 0.700183 0.000000
0.014781 1.014640 0.000000
1.013643 0.014507 0.000000
5.371901 9.897908 0.000000
11.081107 5.254006 0.000000
0.080187 1.488248 0.000000
1.478698 0.063545 0.000000
1.792104 3.850659 0.000000
0.431857 0.955357 0.000000
1.281897 2.217702 0.000000
0.411446 1.903945 0.000000
16.443459 9.299313 0.000000
1.482024 1.311012 0.000000
1.495578 1.322749 0.000000
1.506368 1.341839 0.000000
1.434381 0.031541 0.000000
3.781480 0.806741 0.000000
0.732862 19.268418 0.000000
19.268418 0.732862 0.000000
19.267949 19.267949 0.000000
1.820989 16.751215 0.000000
1.594647 0.042366 0.000000
11.258723 0.692898 0.000000
0.663605 0.833944 0.000000
3.715524 18.110792 0.000000
1.493129 1.458471 0.000000
6.071309 0.610733 0.000000
0.563362 2.043500 0.000000
1.437713 1.484257 0.000000
18.400007 6.290221 0.000000
2.083625 0.379749 0.000000
1.556278 0.048440 0.000000
7.008042 14.345070 0.000000
1.519532 0.244597 0.000000
2.979501 0.555037 0.000000
2.767922 0.797596 0.000000
4.034643 0.446036 0.000000
1.494880 0.277758 0.000000
1.464756 0.264773 0.000000
1.028427 0.077147 0.000000
0.337816 4.215885 0.000000
1.871101 1.422918 0.000000
7.770951 7.238428 0.000000
0.252783 1.968857 0.000000
1.481648 0.230802 0.000000
3.717142 2.048863 0.000000
1.238615 1.505274 0.000000
1.517532 0.546530 0.000000
0.105466 2.133040 0.000000
17.402619 9.373393 0.000000
18.381875 9.450874 0.000000
15.723319 0.697267 0.000000
1.051680 1.856531 0.000000
0.867507 1.505017 0.000000
7.504384 2.517277 0.000000
0.466729 1.933157 0.000000
1.493742 0.523832 0.000000
0.952144 0.395770 0.000000
7.327003 1.010927 0.000000
0.704439 12.808746 0.000000
0.896983 0.507117 0.000000
4.260200 0.140601 0.000000
2.866965 5.259842 0.000000
1.490470 0.828376 0.000000
0.302574 0.983272 0.000000
1.089040 2.494967 0.000000
0.979585 1.481642 0.000000
0.568910 0.861147 0.000000
1.705468 0.257827 0.000000
2.225334 0.413012 0.000000
1.459648 0.074433 0.000000
10.004045 2.216468 0.000000
1.022239 0.124192 0.000000
0.238265 5.803875 0.000000
1.029893 4.864686 0.000000
9.955440 0.772249 0.000000
7.232250 6.476270 0.000000
0.050463 1.480479 0.000000
1.239686 0.029562 0.000000
0.076594 1.974757 0.000000
1.495057 0.931327 0.000000
0.988021 2.081194 0.000000
6.748502 10.217221 0.000000
4.848267 0.783747 0.000000
0.219013 3.561649 0.000000
1.048477 1.490225 0.000000
1.484264 0.725312 0.000000
4.803817 8.309029 0.000000
0.115788 1.555017 0.000000
2.127431 3.925640 0.000000
1.482559 0.784461 0.000000
8.013869 1.101696 0.000000
7.766369 2.251362 0.000000
3.248306 4.901337 0.000000
1.955620 3.722438 0.000000
1.488632 0.742325 0.000000
1.481325 0.754132 0.000000
1.498660 0.714641 0.000000
2.298144 0.347273 0.000000
19.288304 4.232694 0.000000
1.688154 1.112335 0.000000
0.521986 1.481378 0.000000
0.196012 1.468862 0.000000
7.000090 1.461092 0.000000
0.465306 9.345901 0.000000
1.586977 4.048028 0.000000
13.693311 18.414111 0.000000
0.094502 1.475632 0.000000
3.822531 1.007610 0.000000
1.448454 3.812410 0.000000
3.663234 1.666362 0.000000
0.754671 0.724092 0.000000
0.014150 1.143932 0.000000
1.816294 0.093518 0.000000
0.148017 1.496063 0.000000
0.151109 1.480513 0.000000
0.166139 1.489506 0.000000
0.185170 1.497721 0.000000
0.846758 0.613660 0.000000
0.334340 1.457515 0.000000
7.244299 15.534902 0.000000
1.817760 2.068503 0.000000
0.367826 0.963422 0.000000
7.639261 1.899586 0.000000
0.943419 0.414212 0.000000
1.284253 1.492088 0.000000
0.903089 0.489901 0.000000
1.966483 0.761937 0.000000
1.465173 1.425146 0.000000
3.866643 2.958986 0.000000
1.467963 1.009785 0.000000
2.883222 0.651842 0.000000
1.026372 0.039337 0.000000
2.563817 4.352271 0.000000
0.028247 1.258841 0.000000
3.781115 2.240925 0.000000
0.702662 0.747994 0.000000
1.966106 1.978732 0.000000
1.484588 0.547376 0.000000
0.513530 4.804684 0.000000
2.001358 0.092599 0.000000
0.209755 1.009744 0.000000
7.371019 6.751952 0.000000
0.011114 1.348220 0.000000
1.893695 1.392306 0.000000
1.522122 1.422907 0.000000
1.013499 0.269728 0.000000
0.363194 4.421747 0.000000
18.531071 10.154656 0.000000
8.386386 1.336721 0.000000
1.475212 1.142676 0.000000
1.951677 1.240434 0.000000
12.042686 3.507135 0.000000
5.257931 6.990292 0.000000
1.309698 1.472482 0.000000
0.922668 0.455438 0.000000
0.993406 1.819060 0.000000
0.793882 0.685847 0.000000
2.271603 11.085005 0.000000
3.712204 3.595217 0.000000
4.187962 3.897179 0.000000
4.081539 4.095659 0.000000
0.310271 1.919555 0.000000
7.903443 1.718004 0.000000
1.985174 0.472370 0.000000
1.258043 0.028036 0.000000
1.889094 1.281666 0.000000
0.027923 1.437817 0.000000
5.579591 0.470380 0.000000
0.084092 1.460101 0.000000
0.935585 0.431508 0.000000
2.403577 0.360115 0.000000
0.929634 0.484830 0.000000
0.924874 1.522812 0.000000
1.586545 2.262212 0.000000
3.865626 2.153018 0.000000
0.077255 1.805235 0.000000
1.726415 1.297688 0.000000
1.474927 1.209347 0.000000
7.101715 2.903158 0.000000
0.498553 1.515285 0.000000
1.914332 1.362196 0.000000
0.138155 1.513700 0.000000
1.930574 8.566361 0.000000
13.201461 1.449448 0.000000
2.056030 1.221890 0.000000
7.477226 19.408035 0.000000
2.156788 0.381850 0.000000
0.857868 0.594253 0.000000
1.486044 0.168554 0.000000
0.029208 1.316324 0.000000
0.030693 1.073043 0.000000
0.884286 2.442117 0.000000
10.505895 2.090843 0.000000
0.736301 1.996368 0.000000
0.463433 2.448768 0.000000
1.908101 1.208160 0.000000
0.671442 0.782216 0.000000
1.822558 1.467335 0.000000
2.254719 0.063976 0.000000

CELLS 13427 53708
3 1169 6455 1171 
3 1741 6766 1743 
3 638 1750 571 
3 846 4076 870 
3 118 751 291 
3 5821 6264 1304 
3 4076 6684 870 
3 1384 6608 4805 
3 337 6221 4067 
3 4805 4876 1384 
3 430 6599 1756 
3 645 1658 1650 
3 162 1688 161 
3 1177 6321 1243 
3 1680 4913 813 
3 1601 6469 6289 
3 5161 6411 320 
3 1678 6548 1635 
3 1384 6611 4806 
3 5868 5869 1182 
3 306 1688 162 
3 703 6156 4206 
3 1010 1018 1012 
3 1650 1658 738 
3 751 4161 752 
3 288 6112 4669 
3 373 5157 440 
3 1068 6374 6107 
3 4913 6399 813 
3 1424 6272 3963 
3 6305 6483 1617 
3 4116 6200 4171 
3 221 1700 220 
3 4905 6455 1316 
3 1065 6689 1729 
3 131 1692 130 
3 1549 5006 3978 
3 4806 6611 3929 
3 1109 6411 5161 
3 220 1700 273 
3 747 6602 4135 
3 274 1692 131 
3 1756 4171 430 
3 1654 4212 283 
3 4007 4063 4008 
3 1050 5242 1023 
3 319 6118 5300 
3 4669 6112 5898 
3 3456 4048 4046 
3 1652 4131 1665 
3 1068 6107 1109 
3 1665 1713 1652 
3 1265 6604 1479 
3 4241 6601 4121 
3 5569 6366 4081 
3 4135 6602 4136 
3 1285 6479 3941 
3 3972 3973 3513 
3 6154 6617 692 
3 3455 4048 3453 
3 6473 6587 6430 
3 900 1648 936 
3 6428 6429 840 
3 813 6483 6305 
3 459 6601 4241 
3 3999 5536 315 
3 747 6622 6602 
3 4071 4073 3750 
3 362 4227 4225 
3 4579 6534 4092 
3 1479 6567 1265 
3 1621 6728 4158 
3 4046 4050 3456 
3 1686 6788 1796 
3 271 6431 3962 
3 4040 4041 299 
3 276 1759 1729 
3 4806 6608 1384 
3 3923 6604 6331 
3 4171 6200 430 
3 3991 4112 764 
3 6169 6769 1757 
3 6154 6262 1691 
3 777 6369 6332 
3 3982 4000 1604 
3 3962 6461 271 
3 1781 6770 1579 
3 340 4063 4007 
3 5378 5379 1139 
3 3963 4032 1424 
3 1800 6141 1418 
3 1559 6662 1800 
3 1652 4132 4131 
3 1604 3996 3982 
3 1621 4158 1577 
3 1139 6394 5378 
3 5264 6432 5265 
3 4157 6291 1111 
3 4042 5434 3460 
3 4025 6541 357 
3 5125 6585 5136 
3 4047 6192 6114 
3 3923 6331 6330 
3 5530 5531 1578 
3 168 6180 167 
3 129 6583 1125 
3 1422 6529 6528 
3 6596 6658 1760 
3 1286 6260 5003 
3 820 4916 1714 
3 4214 4216 640 
3 4026 6541 4025 
3 1649 6176 275 
3 1376 4193 1256 
3 3978 4153 1549 
3 1173 6270 6269 
3 4236 6458 1807 
3 6370 6829 6190 
3 648 1771 647 
3 1683 6691 413 
3 815 6400 1098 
3 820 1714 822 
3 1602 4777 1603 
3 488 489 424 
3 1650 1757 645 
3 346 4205 1614 
3 1075 6559 1078 
3 1692 1694 329 
3 4730 6322 1628 
3 5231 6778 421 
3 1107 6571 234 
3 3933 6534 4579 
3 1720 5208 615 
3 640 4217 4214 
3 900 6606 1648 
3 571 1750 676 
3 303 363 247 
3 4039 4040 299 
3 1270 4018 4006 
3 4136 6602 746 
3 694 1615 693 
3 315 6632 3999 
3 597 6186 1784 
3 5868 6481 5869 
3 522 4237 1732 
3 4093 4112 3991 
3 6394 6406 1155 
3 4067 6221 3884 
3 1173 4738 4735 
3 1660 6234 1400 
3 4103 6534 4023 
3 1665 4131 1664 
3 703 6493 6156 
3 3119 4953 4088 
3 1410 4233 1723 
3 4735 4736 1173 
3 536 6769 6169 
3 4370 5222 643 
3 3453 4048 3456 
3 292 1746 745 
3 1525 5112 1523 
3 6322 6347 1628 
3 6494 6495 708 
3 556 6187 630 
3 6331 6604 1265 
3 3460 4050 4042 
3 1613 6670 222 
3 1579 1640 1466 
3 723 4159 1791 
3 5300 6118 1052 
3 5181 6292 1790 
3 5898 6112 353 
3 3750 6221 4071 
3 6322 6664 6122 
3 344 4103 4023 
3 4081 6478 5569 
3 353 6297 6203 
3 4002 5154 3201 
3 314 6299 1671 
3 23 6618 6341 
3 379 6417 377 
3 690 6262 6154 
3 4097 6449 6238 
3 752 4161 755 
3 5178 6120 311 
3 441 1664 411 
3 326 1107 235 
3 6203 6297 3942 
3 3332 6274 4109 
3 1667 6587 6473 
3 4730 6664 6322 
3 6114 6192 3970 
3 6528 6677 6419 
3 353 6203 5898 
3 5222 6198 643 
3 414 417 415 
3 412 415 411 
3 3965 5627 4388 
3 3965 4388 3993 
3 6391 6699 6161 
3 156 4059 155 
3 4147 6278 604 
3 1485 1798 1653 
3 1115 6689 1065 
3 638 6807 1750 
3 118 291 117 
3 4062 6600 3707 
3 1653 1730 1485 
3 4035 4036 1373 
3 6282 6464 6324 
3 6341 6618 3981 
3 1650 6169 1757 
3 4131 6409 1664 
3 6620 6848 745 
3 1674 6376 1486 
3 1602 4778 4777 
3 168 6835 6180 
3 1098 4913 4912 
3 575 6458 4236 
3 250 6817 5185 
3 4109 6442 3332 
3 1748 1749 1550 
3 5455 6185 1335 
3 1628 6347 1627 
3 6115 6123 3741 
3 248 303 247 
3 550 6291 4157 
3 5531 6491 1578 
3 6351 6352 839 
3 1073 4308 1075 
3 6454 6674 6603 
3 1328 6491 1330 
3 1222 6498 1594 
3 362 6487 4227 
3 1542 6762 1679 
3 283 6374 1654 
3 1400 6805 1660 
3 3707 6354 4062 
3 4132 6496 4131 
3 223 1613 222 
3 1484 6268 4144 
3 365 6257 5184 
3 376 6526 374 
3 129 1125 128 
3 1791 4159 1792 
3 1707 6490 6124 
3 706 1728 426 
3 286 1613 223 
3 3961 6456 278 
3 1672 6391 6161 
3 128 1125 285 
3 278 6522 3961 
3 6189 6190 1148 
3 5003 6259 1286 
3 1760 6658 1673 
3 1645 6197 1644 
3 5029 6121 270 
3 1784 6187 597 
3 1658 6524 738 
3 4158 6728 269 
3 1796 6788 290 
3 4131 6496 6409 
3 6317 6433 114 
3 256 1767 282 
3 1772 6494 708 
3 1139 6406 6394 
3 1733 6782 1018 
3 284 1765 95 
3 4573 6189 4276 
3 1037 6480 1018 
3 6332 6369 1054 
3 6352 6428 839 
3 4276 4574 4573 
3 1790 6292 1791 
3 418 488 424 
3 6360 6416 381 
3 1656 6241 701 
3 4007 4009 340 
3 4185 6624 6333 
3 4002 6462 5154 
3 1172 1734 1175 
3 811 6786 812 
3 1735 1736 778 
3 1283 6465 1284 
3 329 6583 129 
3 6552 6621 1094 
3 1123 6621 6552 
3 235 1107 234 
3 90 6151 1669 
3 250 5185 249 
3 1303 5821 1605 
3 328 1700 221 
3 130 1692 329 
3 257 1767 256 
3 1019 5382 1017 
3 775 6843 1755 
3 1389 5112 1525 
3 1645 6595 6197 
3 103 1796 290 
3 1588 6609 4038 
3 5005 6827 1417 
3 1105 6665 615 
3 1475 4016 1476 
3 95 1765 94 
3 1018 6480 1733 
3 349 4217 1739 
3 3992 4053 305 
3 1525 1539 1389 
3 509 6480 1037 
3 5379 6614 1139 
3 648 1774 1771 
3 1671 6678 314 
3 1373 4037 4035 
3 4041 4044 352 
3 1709 6121 5029 
3 1694 6219 329 
3 130 329 129 
3 222 328 221 
3 1269 6441 1270 
3 1654 6374 1069 
3 751 752 291 
3 1079 5428 1077 
3 604 6536 4147 
3 313 6524 1675 
3 1577 4158 4075 
3 4062 6354 3940 
3 6124 6490 741 
3 6289 6469 1161 
3 311 6387 5178 
3 3973 6410 3513 
3 1418 6142 1417 
3 1430 1748 1550 
3 4042 4050 4044 
3 180 6328 1663 
3 5537 6589 6336 
3 1067 5298 935 
3 6297 6382 3942 
3 4044 4050 4046 
3 741 6490 6463 
3 3940 6563 4062 
3 1736 1755 778 
3 615 5274 1720 
3 1316 6572 4905 
3 1599 6453 1711 
3 4808 4809 1592 
3 1635 6730 1634 
3 326 4133 1107 
3 1620 6524 313 
3 1727 1745 1320 
3 6238 6449 3739 
3 84 4198 83 
3 3942 6382 4012 
3 1332 6405 1334 
3 1710 5242 1050 
3 284 6119 5265 
3 1417 6827 5006 
3 268 4204 267 
3 3457 4050 3460 
3 156 6650 4059 
3 18 4070 19 
3 413 6361 1683 
3 1268 6441 1269 
3 4182 4193 1376 
3 4169 4170 1413 
3 1628 6593 4730 
3 1682 4366 4365 
3 817 4916 820 
3 552 6585 5125 
3 1486 6717 1674 
3 6333 6624 1399 
3 1087 1795 1083 
3 741 6463 1690 
3 1624 6433 6317 
3 622 4116 4114 
3 1679 1804 1542 
3 4011 6781 6231 
3 1256 4193 1254 
3 1738 6762 1542 
3 224 1712 286 
3 4014 4015 1476 
3 375 6371 373 
3 839 6428 840 
3 1663 6748 180 
3 6625 6834 6472 
3 1559 1800 1418 
3 4000 5719 3994 
3 4009 4052 340 
3 1400 6234 6162 
3 1789 6296 1790 
3 197 4049 196 
3 1014 1017 1013 
3 1615 6738 693 
3 4040 5434 4042 
3 6185 6252 1335 
3 601 5216 1713 
3 4114 4115 622 
3 1656 6423 6241 
3 1614 6607 346 
3 1185 3973 3972 
3 5184 6257 5185 
3 1712 6261 1544 
3 1709 6236 6121 
3 413 6691 416 
3 1691 5298 1067 
3 6180 6835 1675 
3 119 6557 118 
3 3715 6431 4096 
3 325 4228 4227 
3 1729 1764 276 
3 1677 6390 324 
3 1732 4237 1731 
3 4915 4916 1098 
3 597 6187 556 
3 1730 6268 1484 
3 1265 6358 6331 
3 92 1670 301 
3 1083 1795 1086 
3 1580 6334 4015 
3 313 6484 1620 
3 1550 1777 1737 
3 233 6620 232 
3 745 6848 292 
3 1682 4367 4366 
3 4213 4217 349 
3 1150 6370 5877 
3 1010 5241 1037 
3 1474 6334 1552 
3 5265 6432 284 
3 292 6848 234 
3 1714 6353 839 
3 1578 5532 5530 
3 6118 6255 1052 
3 4184 6316 1099 
3 1798 6364 1799 
3 1708 6236 1709 
3 1768 1769 282 
3 1552 6334 1580 
3 3362 5072 4738 
3 1125 1126 285 
3 6213 6627 4124 
3 4096 6657 3715 
3 3985 6330 1266 
3 1077 1802 1079 
3 3982 5719 4000 
3 1659 6387 311 
3 1666 6371 375 
3 1768 1771 1769 
3 1723 4233 1722 
3 1696 6287 1698 
3 6381 6425 4129 
3 324 6673 1677 
3 706 6380 1728 
3 1035 6704 1034 
3 774 6843 6131 
3 6395 6692 937 
3 4953 6760 4088 
3 1139 6614 6506 
3 6377 6491 1328 
3 902 6692 6395 
3 1790 6296 6245 
3 4168 4169 1413 
3 374 6368 375 
3 352 6554 4041 
3 3756 4694 4083 
3 3724 4070 4068 
3 369 1105 615 
3 1600 6396 3994 
3 3939 6542 4090 
3 1304 5756 4013 
3 1263 6443 6358 
3 6372 6739 1283 
3 1620 6390 1677 
3 440 6357 373 
3 1750 6807 1656 
3 6336 6589 1479 
3 4809 6774 1592 
3 364 1776 363 
3 3455 6192 4048 
3 5157 5158 440 
3 4206 6315 703 
3 4023 6534 3933 
3 5877 6750 1150 
3 694 6743 1615 
3 1332 6578 4031 
3 1669 6708 90 
3 373 6367 375 
3 375 6367 374 
3 559 6445 561 
3 1298 6243 1301 
3 778 1755 773 
3 4071 6221 337 
3 4890 6478 4079 
3 4068 4069 3724 
3 1422 6528 1223 
3 6644 6824 466 
3 1620 6484 6390 
3 311 6722 1659 
3 286 1777 1613 
3 1752 1753 1084 
3 380 1792 382 
3 4981 6505 1141 
3 234 6571 292 
3 4738 5072 4735 
3 415 1728 605 
3 167 6180 297 
3 1746 1758 745 
3 6269 6270 1171 
3 301 6423 6151 
3 476 6425 6381 
3 822 1714 839 
3 1034 6704 5411 
3 4116 4171 4114 
3 368 6296 370 
3 1099 6815 4184 
3 6383 6800 1099 
3 375 6759 1666 
3 1018 6782 1014 
3 1706 6215 1703 
3 841 6428 6352 
3 3953 6775 4107 
3 4090 6641 3939 
3 774 6131 776 
3 4214 4217 4213 
3 456 6732 5182 
3 3958 6695 4027 
3 1529 5120 4138 
3 1266 6799 3985 
3 1701 6239 1700 
3 1069 6549 1654 
3 6417 6824 6644 
3 693 6610 694 
3 1688 6277 161 
3 4258 5868 1182 
3 4101 6412 6240 
3 4276 4575 4574 
3 1645 6658 6596 
3 773 6475 778 
3 1545 1749 1748 
3 6420 6498 1222 
3 4020 4022 341 
3 1489 6353 1714 
3 1417 6142 5007 
3 4276 6503 4575 
3 4015 6719 1580 
3 4107 6821 3953 
3 4198 6666 83 
3 1726 6232 297 
3 4276 6189 1148 
3 1098 4916 815 
3 1718 6263 1019 
3 268 6667 4204 
3 3992 4054 4053 
3 6134 6269 1171 
3 615 6665 5274 
3 6244 6459 743 
3 6498 6674 1597 
3 297 6232 1803 
3 236 326 235 
3 1744 6514 3983 
3 4063 6790 4008 
3 6517 6518 4876 
3 116 327 115 
3 381 6413 379 
3 6231 6781 359 
3 1550 1737 1433 
3 3751 6366 5569 
3 6429 6551 840 
3 1613 1777 1749 
3 6529 6677 6528 
3 1604 6677 6529 
3 1281 6372 1283 
3 4031 6578 1333 
3 1685 1760 1638 
3 3983 6515 1744 
3 4228 6613 6168 
3 1263 6358 1265 
3 4627 6476 6298 
3 1594 6498 1597 
3 1243 6553 1177 
3 105 1764 330 
3 93 6753 92 
3 1139 6506 1140 
3 1749 6670 1613 
3 1099 6800 6560 
3 4496 6763 6126 
3 1544 6261 1738 
3 600 4230 4223 
3 224 286 223 
3 128 285 127 
3 3994 6396 4000 
3 1777 6629 1737 
3 1727 6737 1745 
3 1559 4299 1711 
3 1682 6635 696 
3 1121 6170 1120 
3 813 6305 1680 
3 4011 6231 4049 
3 94 332 93 
3 258 331 257 
3 4068 4070 18 
3 4028 6303 4301 
3 6168 6613 1118 
3 4075 4195 1577 
3 1690 6463 264 
3 5300 6733 319 
3 1476 6334 1474 
3 1736 6242 1755 
3 630 6187 1750 
3 1681 6725 1682 
3 1080 1752 1084 
3 1675 6524 1658 
3 1417 5007 5005 
3 183 6391 6299 
3 19 4070 280 
3 1387 4170 1394 
3 1476 4016 4014 
3 1717 1794 555 
3 440 6508 6357 
3 6357 6508 371 
3 764 6470 3991 
3 696 6424 1682 
3 1682 6424 1681 
3 1267 1722 1264 
3 289 6817 250 
3 1052 6255 5160 
3 3929 6611 1272 
3 4736 4737 1173 
3 4051 4628 3951 
3 1326 4141 1327 
3 382 1792 448 
3 1587 6550 1288 
3 120 1788 334 
3 685 1731 684 
3 1272 4017 3929 
3 1072 6176 1649 
3 1133 1727 1320 
3 4149 5575 4150 
3 1704 6671 261 
3 4225 6275 362 
3 4124 6355 6213 
3 601 5244 5215 
3 369 6509 1105 
3 1794 6731 646 
3 5215 5216 601 
3 274 1693 1692 
3 261 6356 1704 
3 450 1793 443 
3 5627 5628 1374 
3 1706 6801 6215 
3 4912 4914 1098 
3 3456 4050 3457 
3 290 6459 6244 
3 6393 6416 421 
3 1604 6529 3996 
3 5869 6481 4003 
3 336 4049 197 
3 118 6557 751 
3 232 333 231 
3 369 615 367 
3 5182 6245 456 
3 6108 6403 637 
3 1476 6444 1475 
3 1474 6444 1476 
3 4048 6192 4047 
3 1780 6801 1706 
3 120 334 119 
3 6540 6726 1696 
3 1592 6695 4808 
3 1303 6264 5821 
3 6123 6570 3741 
3 1755 6242 775 
3 1732 6711 522 
3 4168 4256 4164 
3 4027 6306 1184 
3 1118 6277 1688 
3 4387 4388 1587 
3 937 6692 6527 
3 6399 6786 6401 
3 4079 6582 4890 
3 1413 4170 1387 
3 1049 1762 1724 
3 259 6105 258 
3 444 4117 469 
3 286 6629 1777 
3 4128 6308 4129 
3 1723 6749 1410 
3 1075 1077 1076 
3 687 690 689 
3 648 6198 1774 
3 1077 1752 1080 
3 4015 6334 1476 
3 1635 6548 1313 
3 373 6371 5157 
3 555 1793 1717 
3 367 1776 364 
3 4102 6716 4921 
3 693 6263 1718 
3 283 4212 238 
3 6195 6196 923 
3 4013 5821 1304 
3 4276 6507 6503 
3 264 6700 1690 
3 4088 6246 3119 
3 6281 6591 4126 
3 1073 1075 1074 
3 6335 6375 1574 
3 6482 6605 4488 
3 1474 1552 1473 
3 4126 6627 6281 
3 4134 4136 537 
3 4138 6303 4028 
3 4127 6278 4147 
3 1701 6350 1545 
3 953 6304 783 
3 3995 6804 343 
3 615 1776 367 
3 1096 4212 1654 
3 527 6623 6466 
3 1444 1473 1443 
3 6324 6464 4064 
3 343 6819 3995 
3 326 4140 4133 
3 1738 6261 308 
3 1444 1474 1473 
3 3374 6226 6098 
3 222 6670 328 
3 3741 6386 6115 
3 1794 6175 555 
3 6430 6587 333 
3 1766 1801 1079 
3 1485 6364 1798 
3 6240 6412 3757 
3 5124 6445 559 
3 6522 6594 3961 
3 3513 6516 3972 
3 3972 6516 3957 
3 488 490 489 
3 815 4916 817 
3 6107 6374 283 
3 1232 6805 1400 
3 1080 1084 1082 
3 247 6710 246 
3 1320 1745 1742 
3 1320 1742 1741 
3 1755 6843 773 
3 3721 5818 4163 
3 706 6175 1794 
3 536 6681 4241 
3 4138 5120 1355 
3 1127 4144 285 
3 1140 6506 6504 
3 1700 6239 273 
3 4028 6306 4027 
3 234 6848 233 
3 1391 1444 1443 
3 1090 1093 1092 
3 308 6236 1708 
3 3961 6594 4145 
3 92 301 91 
3 696 6337 492 
3 634 1757 1124 
3 765 900 899 
3 450 4232 1793 
3 3934 6600 4055 
3 1121 6652 6170 
3 1675 6835 313 
3 1728 6380 605 
3 1479 6589 6567 
3 6567 6589 4486 
3 6252 6565 1335 
3 260 302 259 
3 306 6755 1688 
3 1075 1078 1077 
3 1769 6464 6282 
3 105 330 104 
3 4129 6308 621 
3 903 6500 901 
3 1431 6376 1397 
3 1701 6680 6350 
3 443 1793 555 
3 751 6697 4161 
3 1750 6187 676 
3 901 6499 903 
3 1775 6663 1711 
3 437 4117 444 
3 4070 6319 280 
3 6399 6401 813 
3 5185 6257 249 
3 6325 6329 1508 
3 1759 5210 1729 
3 6162 6234 4169 
3 552 559 553 
3 1799 6364 1233 
3 4694 6806 4083 
3 1413 4256 4168 
3 1304 6099 5756 
3 4116 6225 6200 
3 4104 6716 4102 
3 4388 5627 1374 
3 377 6644 677 
3 622 4115 471 
3 308 6261 226 
3 1444 6444 1474 
3 4216 6280 640 
3 6465 6746 1284 
3 3868 4807 3866 
3 3866 4807 3869 
3 6151 6423 1103 
3 6492 6686 6491 
3 1086 1795 1090 
3 4117 6225 4116 
3 676 6187 1784 
3 1433 1737 1435 
3 1699 6219 1694 
3 1141 6768 4981 
3 456 6296 368 
3 1333 6492 5782 
3 645 1757 634 
3 1779 6108 1780 
3 1722 4233 1264 
3 552 553 542 
3 4241 6769 536 
3 4577 6502 6326 
3 372 6357 371 
3 1703 6215 635 
3 6397 6418 6396 
3 1529 4138 1591 
3 1671 6299 1672 
3 4040 4042 4041 
3 631 6438 1754 
3 404 6229 406 
3 1767 1768 282 
3 4000 4001 1604 
3 1096 4140 1725 
3 1019 6263 5382 
3 4784 6298 1162 
3 1077 1080 1076 
3 4683 6300 1243 
3 496 552 542 
3 1699 6220 6219 
3 6186 6652 1784 
3 695 4130 1756 
3 1435 1737 1544 
3 4060 6840 335 
3 533 4368 402 
3 1375 6548 1678 
3 1811 4162 1813 
3 3991 6309 4093 
3 3939 6442 4109 
3 1075 1076 1074 
3 4049 6231 196 
3 6574 6661 4004 
3 1079 1801 1773 
3 6299 6391 1672 
3 1066 5298 1691 
3 1286 6372 6260 
3 490 6424 696 
3 1562 1751 1353 
3 677 6526 377 
3 1731 4237 684 
3 4147 6536 6109 
3 280 6319 6293 
3 4144 6268 126 
3 4029 4049 336 
3 870 6684 877 
3 92 6753 1670 
3 496 6585 552 
3 900 901 899 
3 333 1787 231 
3 6352 6427 841 
3 1131 1727 1133 
3 471 4115 473 
3 6298 6476 1162 
3 676 1784 1783 
3 4905 6592 6455 
3 305 6721 3992 
3 1133 1320 1135 
3 1480 6323 1126 
3 1775 6605 6482 
3 1725 4140 326 
3 1327 4141 1674 
3 335 6468 4060 
3 1329 4141 1326 
3 4234 6137 4172 
3 1233 6181 1799 
3 1739 6193 349 
3 1678 6619 1375 
3 4141 6376 1674 
3 1270 4019 4018 
3 4003 6462 4002 
3 1391 1443 1393 
3 1702 1703 635 
3 331 1767 257 
3 1111 6653 4157 
3 4109 6542 3939 
3 4012 6382 278 
3 4124 6627 4126 
3 94 1765 332 
3 6420 6528 6419 
3 1800 6661 6574 
3 4192 6208 4190 
3 1171 6822 1169 
3 674 4236 1807 
3 292 1785 1746 
3 1118 6613 6277 
3 6422 6437 1685 
3 1685 6823 1760 
3 775 6146 6131 
3 336 4163 4029 
3 1756 6599 695 
3 1659 6244 743 
3 746 6339 744 
3 557 6438 631 
3 1334 6405 1335 
3 1558 4299 1559 
3 4223 6646 600 
3 4420 4421 4316 
3 4316 4421 1562 
3 1489 1554 1488 
3 1353 1635 1314 
3 1367 1637 1365 
3 1554 4915 1553 
3 1637 4420 1364 
3 1779 4173 649 
3 6304 6844 783 
3 1393 1748 1430 
3 104 1796 103 
3 1073 1074 1059 
3 4776 4778 1601 
3 549 1792 380 
3 924 1073 1059 
3 753 6258 291 
3 3201 6410 4002 
3 1415 4248 4247 
3 540 4173 1779 
3 278 6456 4012 
3 6116 6541 6540 
3 1079 1802 1766 
3 4006 6251 3867 
3 4084 4086 4085 
3 4055 6573 3934 
3 1545 6350 1749 
3 954 1762 1049 
3 6488 6523 4305 
3 6307 6737 1699 
3 686 687 685 
3 3342 4207 3161 
3 4205 6156 1614 
3 5208 6685 615 
3 325 6613 4228 
3 1583 1758 1746 
3 297 6180 1726 
3 1551 1801 1766 
3 3737 6279 6271 
3 3951 6440 4051 
3 469 4117 622 
3 4738 6216 3362 
3 562 1783 1121 
3 3368 4058 4057 
3 550 4157 4130 
3 490 6586 1681 
3 1808 6157 650 
3 4030 6136 277 
3 116 6584 327 
3 1430 1550 1433 
3 6396 6418 4001 
3 765 6606 900 
3 5536 6389 315 
3 488 6586 490 
3 4009 6226 4052 
3 1744 6764 5436 
3 1542 1804 1436 
3 686 6392 6262 
3 646 6380 1794 
3 6429 6830 4191 
3 4083 6240 3756 
3 4022 6283 341 
3 1331 1747 1329 
3 1292 4249 1309 
3 1617 6483 1781 
3 3994 6777 1600 
3 6336 6604 3923 
3 959 5158 5156 
3 5156 5158 5157 
3 5436 6514 1744 
3 4165 4168 4164 
3 778 6290 1735 
3 4060 4234 3998 
3 1126 6323 1128 
3 426 1728 419 
3 1551 4119 1801 
3 710 6267 6266 
3 4162 6226 3374 
3 1473 1701 1545 
3 238 4212 237 
3 498 1783 562 
3 3663 6302 6224 
3 708 6832 1772 
3 1373 4038 4037 
3 636 6157 1808 
3 341 6771 4020 
3 4056 4162 1811 
3 686 6262 687 
3 303 364 363 
3 1783 1784 1121 
3 1417 6398 1416 
3 4113 4115 4114 
3 357 6379 4025 
3 1416 1418 1417 
3 1320 1741 1135 
3 1368 6145 1367 
3 6144 6145 1368 
3 954 4235 1762 
3 4163 5818 4029 
3 3721 4163 3928 
3 285 4144 127 
3 4084 6547 4086 
3 1449 4165 1176 
3 473 4115 1797 
3 86 6182 345 
3 6616 6621 1123 
3 322 6311 4010 
3 4076 6616 1123 
3 1681 6424 490 
3 4139 6152 665 
3 4072 6403 6108 
3 1484 4144 1127 
3 4725 6253 6247 
3 1813 4162 3374 
3 622 4117 4116 
3 1335 6349 5455 
3 225 1712 224 
3 1135 1741 1137 
3 4191 6551 6429 
3 777 6558 6369 
3 3707 6600 3934 
3 6216 6269 6134 
3 372 6367 373 
3 1069 6374 1068 
3 41 4085 757 
3 1185 3974 3973 
3 1483 4119 1782 
3 1747 4141 1329 
3 1261 4233 1259 
3 1415 4249 4248 
3 298 6699 6391 
3 373 6357 372 
3 236 1725 326 
3 1330 1331 1329 
3 1541 6145 6144 
3 1717 6731 1794 
3 6348 6438 542 
3 4133 4140 1093 
3 233 6848 6620 
3 610 4113 670 
3 1285 6735 5453 
3 1090 1795 1093 
3 6718 6747 1087 
3 479 6152 4139 
3 1782 4120 1483 
3 490 696 492 
3 1552 1701 1473 
3 1773 5428 1079 
3 4170 6199 1394 
3 4247 4250 1415 
3 6372 6543 6260 
3 91 6151 90 
3 489 695 424 
3 1125 1480 1126 
3 4078 4081 760 
3 937 6375 6335 
3 768 6205 771 
3 4366 4368 533 
3 402 4368 404 
3 3368 4234 4058 
3 1473 1545 1443 
3 1670 6241 301 
3 1640 6422 1685 
3 5782 6687 1333 
3 1772 6832 6623 
3 1449 4166 4165 
3 1792 4159 448 
3 374 6367 372 
3 4120 4250 4247 
3 674 1807 1806 
3 3368 6137 4234 
3 1653 1798 1573 
3 1573 1798 1572 
3 6445 6828 561 
3 4110 6461 3962 
3 537 6125 1050 
3 567 4113 610 
3 4037 4207 4035 
3 1667 6473 1524 
3 4094 4149 4148 
3 1791 6292 723 
3 4018 6251 4006 
3 5181 5182 5180 
3 473 1797 475 
3 545 1806 650 
3 1608 6847 4192 
3 841 6429 6428 
3 363 6710 247 
3 4913 6400 6399 
3 1668 6724 1684 
3 117 6258 116 
3 4368 6229 404 
3 4023 6362 344 
3 688 1731 685 
3 1753 6679 1084 
3 1078 6649 1802 
3 1271 1722 1267 
3 6198 6752 1774 
3 5182 5183 5180 
3 40 4085 41 
3 38 4101 761 
3 687 689 688 
3 4120 4247 4244 
3 6199 6234 1660 
3 453 4232 450 
3 4113 4114 670 
3 4485 6779 4019 
3 1806 1807 650 
3 4738 6269 6216 
3 610 669 661 
3 6208 6434 4190 
3 496 542 541 
3 1419 6142 6141 
3 4085 4086 757 
3 1082 6718 1087 
3 165 1803 348 
3 744 5304 5230 
3 4367 4368 4366 
3 4044 4045 352 
3 6211 6265 5325 
3 6515 6766 6765 
3 3161 4207 3328 
3 4035 4207 3342 
3 202 6435 6373 
3 281 6363 5160 
3 1475 6444 1444 
3 1444 6460 1475 
3 4097 6238 762 
3 1435 1544 1542 
3 1804 1805 1436 
3 571 676 500 
3 302 1702 1684 
3 4201 6228 596 
3 1334 1391 1336 
3 1552 6239 1701 
3 567 610 609 
3 610 661 609 
3 4237 5204 726 
3 1657 1665 663 
3 1155 6211 5325 
3 1575 4195 1653 
3 1309 4249 1415 
3 1293 4249 1292 
3 561 6645 559 
3 3368 4057 321 
3 1809 4056 1811 
3 345 6182 4146 
3 6462 6481 5632 
3 4037 4208 4207 
3 4388 6550 1587 
3 5182 5184 5183 
3 1253 6129 1255 
3 1708 6762 308 
3 1805 6329 6325 
3 562 1120 704 
3 1419 4897 4077 
3 4128 4129 705 
3 560 574 553 
3 676 1783 500 
3 12 4053 339 
3 4130 4157 669 
3 490 492 491 
3 1524 6473 1525 
3 3998 4234 4172 
3 1115 6796 6689 
3 74 4063 340 
3 1725 4212 1096 
3 5575 6672 4150 
3 14 4055 294 
3 6457 6517 4804 
3 4096 6431 271 
3 5453 6735 5541 
3 4365 6635 1682 
3 1712 6629 286 
3 498 562 497 
3 1589 4211 4209 
3 1172 6270 4737 
3 485 4173 540 
3 72 4065 293 
3 1698 6654 1696 
3 633 4121 674 
3 1627 6655 1628 
3 736 6228 4201 
3 540 1779 579 
3 6098 6226 4009 
3 16 4061 338 
3 227 308 226 
3 125 309 124 
3 954 1048 953 
3 1482 4119 1483 
3 481 567 483 
3 567 609 483 
3 4170 6234 6199 
3 5230 5231 744 
3 643 6703 4370 
3 1540 1758 1583 
3 1801 4119 1482 
3 1224 6419 6418 
3 1412 4243 1349 
3 573 1806 545 
3 4077 5007 1419 
3 649 6108 1779 
3 562 1121 1120 
3 494 496 495 
3 337 4067 4065 
3 1782 4119 1440 
3 1440 4119 1551 
3 5869 6214 1182 
3 1714 4916 1554 
3 500 1783 498 
3 689 6610 693 
3 776 6131 5469 
3 1259 4233 1410 
3 1264 4233 1261 
3 1803 6232 6172 
3 193 4224 192 
3 1779 1780 579 
3 1807 1808 650 
3 1268 6567 4486 
3 1080 1082 1081 
3 1176 4165 1174 
3 670 1756 669 
3 1315 4250 1390 
3 417 1728 415 
3 348 6172 4155 
3 1749 1777 1550 
3 1090 1092 1091 
3 3859 6779 4485 
3 650 6157 468 
3 599 4128 705 
3 4091 4112 4093 
3 1583 1746 1662 
3 1756 4130 669 
3 1684 6724 302 
3 4095 4096 271 
3 6326 6502 1584 
3 307 4124 4123 
3 463 497 461 
3 4217 6638 1739 
3 704 4232 497 
3 562 704 497 
3 69 4073 4071 
3 21 4074 342 
3 785 953 783 
3 4094 4148 49 
3 32 4089 763 
3 62 4095 271 
3 54 4104 4102 
3 52 4078 760 
3 4108 4151 34 
3 1610 6460 1444 
3 1391 1393 1336 
3 1092 4140 1096 
3 1120 1717 704 
3 1700 6680 1701 
3 1793 4232 704 
3 297 1803 166 
3 1270 4017 1269 
3 1771 6707 1769 
3 167 297 166 
3 6131 6146 5469 
3 838 5163 4280 
3 4065 4066 293 
3 6586 6691 1683 
3 5333 6202 6177 
3 4053 4054 339 
3 475 1797 481 
3 812 6400 815 
3 1798 1799 1572 
3 1283 6739 4453 
3 4042 4044 4041 
3 370 6509 369 
3 1082 1087 1083 
3 89 307 88 
3 1724 6363 1049 
3 1668 6477 6105 
3 881 6096 4235 
3 348 4155 4154 
3 4027 6695 1592 
3 37 4101 38 
3 464 4137 486 
3 1544 1738 1542 
3 1716 6248 4139 
3 4120 4244 4243 
3 307 4123 88 
3 3992 6224 4054 
3 4082 4085 40 
3 3868 6201 4807 
3 579 6124 576 
3 4223 4230 4219 
3 1150 6829 6370 
3 683 686 685 
3 683 5223 686 
3 1797 4113 567 
3 263 310 262 
3 552 5124 559 
3 5160 6363 1724 
3 1591 4028 4027 
3 1577 4195 1575 
3 4121 6601 4236 
3 1255 6129 4260 
3 1472 4176 4175 
3 633 674 618 
3 4030 6343 3967 
3 1558 6129 4299 
3 463 498 497 
3 327 6317 115 
3 490 491 489 
3 1124 4121 633 
3 103 290 102 
3 1745 6737 6307 
3 6119 6344 5265 
3 1696 6726 6287 
3 925 6523 6488 
3 522 5204 4237 
3 684 4237 726 
3 348 4154 164 
3 347 4222 4221 
3 4298 4299 1307 
3 4163 6207 3928 
3 4016 6174 4014 
3 1472 4175 4174 
3 5469 6130 776 
3 570 4137 4128 
3 481 1797 567 
3 771 773 772 
3 486 4137 570 
3 610 670 669 
3 607 6169 1650 
3 406 6229 409 
3 347 4221 4220 
3 1298 1301 1300 
3 1809 1810 321 
3 6271 6279 316 
3 570 4128 599 
3 1414 4143 4142 
3 4058 4234 4060 
3 4057 4058 358 
3 3928 6207 6184 
3 5179 5186 750 
3 122 4158 269 
3 469 622 471 
3 1715 1716 667 
3 4087 4156 757 
3 5186 6817 289 
3 765 899 766 
3 6108 6801 1780 
3 599 705 626 
3 1483 4243 1412 
3 1349 4243 1392 
3 4235 6096 1762 
3 1432 4176 1404 
3 5182 6732 5184 
3 555 6175 438 
3 755 765 756 
3 3962 6771 4110 
3 4215 4216 4214 
3 6258 6584 116 
3 1341 6167 6165 
3 758 4151 4100 
3 779 4148 4080 
3 1093 4140 1092 
3 1693 1696 1695 
3 1525 1540 1539 
3 1716 4139 667 
3 1307 6129 1253 
3 1790 6245 5181 
3 669 4157 661 
3 667 4139 665 
3 1101 6258 753 
3 1415 4250 1315 
3 1390 4250 1782 
3 4121 4236 674 
3 301 6151 91 
3 3974 4002 3973 
3 461 4232 453 
3 959 6183 5158 
3 738 6524 1620 
3 6266 6267 4159 
3 6224 6302 4054 
3 492 494 493 
3 4227 6487 325 
3 192 4224 347 
3 4280 5163 1058 
3 1067 6154 1691 
3 481 483 482 
3 1404 4176 1472 
3 4079 6478 4081 
3 4174 4288 1472 
3 1633 6730 4118 
3 5007 6142 1419 
3 4226 4229 4222 
3 1257 4260 1260 
3 1134 6285 1132 
3 4098 4101 37 
3 4192 6690 1608 
3 4176 4194 4175 
3 165 348 164 
3 593 639 574 
3 1255 4260 1257 
3 4166 4168 4165 
3 1449 4167 4166 
3 4299 6129 1307 
3 618 1806 573 
3 1167 4256 1318 
3 4246 6235 6206 
3 4148 4149 4080 
3 79 1809 321 
3 321 4057 80 
3 1086 1090 1089 
3 78 4056 1809 
3 4069 6563 3940 
3 6247 6253 1603 
3 304 4056 77 
3 81 4057 358 
3 4091 4092 295 
3 4106 4107 296 
3 4199 6538 345 
3 540 579 576 
3 76 4052 304 
3 11 4053 12 
3 340 4052 75 
3 73 4063 74 
3 674 1806 618 
3 1797 4115 4113 
3 4221 4223 4219 
3 752 755 754 
3 13 4055 14 
3 4124 4126 4125 
3 312 4214 4213 
3 664 1657 663 
3 346 6537 4205 
3 832 6596 1760 
3 347 4220 191 
3 71 4065 72 
3 4202 4206 4203 
3 1334 6565 1391 
3 545 650 468 
3 4086 4087 757 
3 15 4061 16 
3 3970 6408 6114 
3 4044 4046 4045 
3 6460 6564 1475 
3 123 4158 122 
3 1784 6652 1121 
3 5325 6210 1155 
3 1131 6323 1727 
3 1419 6140 4897 
3 170 313 169 
3 166 1803 165 
3 617 618 573 
3 4949 4950 1586 
3 4120 4243 1483 
3 36 4098 37 
3 31 4089 32 
3 48 4094 49 
3 61 4095 62 
3 39 4082 40 
3 53 4104 54 
3 51 4078 52 
3 33 4108 34 
3 1782 4250 4120 
3 4231 4288 4174 
3 1299 4257 4253 
3 360 4197 4196 
3 4197 4200 4196 
3 1432 4177 4176 
3 190 4220 4218 
3 4222 4229 4221 
3 368 369 367 
3 6147 6149 1302 
3 881 4235 786 
3 4052 6226 304 
3 4083 6806 4084 
3 312 4215 4214 
3 68 4073 69 
3 20 4074 21 
3 1711 6663 1559 
3 4245 6206 6165 
3 4220 4221 4219 
3 661 4072 609 
3 1541 4317 1464 
3 701 1772 602 
3 87 6182 86 
3 17 4068 18 
3 304 4162 4056 
3 1180 4255 1178 
3 2868 5601 4172 
3 4218 4220 4219 
3 475 481 480 
3 4196 4200 324 
3 619 633 618 
3 1249 4300 1251 
3 8 4051 9 
3 88 4123 87 
3 4202 4203 361 
3 125 6268 309 
3 190 4218 189 
3 1305 4231 1275 
3 275 6217 1649 
3 4151 6274 4100 
3 323 4206 4202 
3 701 6494 1772 
3 249 6257 248 
3 1173 6269 4738 
3 1611 6564 6460 
3 705 4152 626 
3 4124 4125 4123 
3 1803 6172 348 
3 4172 6137 2868 
3 1300 4257 1297 
3 163 4154 306 
3 276 6404 1759 
3 164 4154 163 
3 4221 4229 4223 
3 1168 4256 1167 
3 1318 4256 1413 
3 191 4220 190 
3 4203 4205 4204 
3 1593 6774 6634 
3 607 1650 738 
3 1591 4138 4028 
3 4199 6109 4197 
3 609 649 483 
3 634 1124 633 
3 246 1763 245 
3 497 4232 461 
3 4109 6274 4108 
3 360 4198 4197 
3 1414 6128 4143 
3 609 4072 649 
3 360 4196 174 
3 4225 4226 4222 
3 1586 4950 4211 
3 177 4202 361 
3 1301 1303 1300 
3 185 298 184 
3 439 6159 436 
3 4198 4199 4197 
3 1186 4255 1180 
3 1178 4255 1449 
3 1809 1811 1810 
3 1810 3368 321 
3 687 688 685 
3 4065 4067 4066 
3 4218 4219 4215 
3 1397 6376 1747 
3 1138 6128 1136 
3 1322 4300 1249 
3 1251 4300 1307 
3 499 500 498 
3 237 4212 1725 
3 5133 6704 1035 
3 35 4151 758 
3 343 4106 27 
3 43 4156 4097 
3 296 4105 29 
3 57 4112 4091 
3 295 4103 59 
3 58 4091 295 
3 65 4110 341 
3 272 4111 25 
3 55 4102 764 
3 26 4111 343 
3 60 4103 344 
3 44 4097 762 
3 757 4156 42 
3 764 4112 56 
3 50 4148 779 
3 30 4105 3166 
3 28 4106 296 
3 70 4071 337 
3 4203 4204 361 
3 1307 4300 4298 
3 187 4213 349 
3 1305 4288 4231 
3 485 540 539 
3 768 771 770 
3 182 314 181 
3 3974 4003 4002 
3 4072 6108 649 
3 4010 6688 322 
3 4058 4059 358 
3 4167 6133 6110 
3 347 4224 4222 
3 1297 4257 1299 
3 443 555 438 
3 4815 6758 692 
3 447 6153 455 
3 1275 4231 1273 
3 6135 6143 478 
3 4166 4169 4168 
3 173 324 172 
3 1624 6365 1048 
3 173 4196 324 
3 4149 4150 4080 
3 576 6124 608 
3 4091 4093 4092 
3 4032 6533 1424 
3 179 323 178 
3 4164 4256 1168 
3 323 4202 178 
3 4086 4088 4087 
3 4046 4047 4045 
3 4255 6133 4167 
3 187 349 186 
3 1432 4178 4177 
3 4177 4194 4176 
3 1375 6619 1721 
3 4215 4230 4216 
3 1449 4255 4167 
3 1816 6111 1814 
3 700 1103 638 
3 4227 4228 4226 
3 6177 6202 1302 
3 2868 6111 5601 
3 4207 4208 3328 
3 627 638 571 
3 86 345 85 
3 4203 6156 4205 
3 6172 6294 4155 
3 266 346 265 
3 1769 6282 282 
3 6474 6475 773 
3 1323 4257 1300 
3 4224 4225 4222 
3 569 571 500 
3 4219 4230 4215 
3 312 4213 188 
3 289 6675 5186 
3 4238 4240 881 
3 4246 6206 4245 
3 535 6135 478 
3 175 360 174 
3 177 361 176 
3 794 4238 790 
3 4240 6096 881 
3 1705 1706 1703 
3 188 4213 187 
3 626 4152 642 
3 1815 6104 1817 
3 4169 6234 4170 
3 174 4196 173 
3 794 4239 4238 
3 178 4202 177 
3 6198 6772 643 
3 4242 4251 1609 
3 3974 5869 4003 
3 3203 6582 4150 
3 1494 4251 4242 
3 1811 1812 1810 
3 6165 6167 4245 
3 1560 4251 1494 
3 1493 4231 4174 
3 1486 6376 1431 
3 4269 4312 386 
3 1370 4288 1311 
3 939 6101 6100 
3 331 1770 1767 
3 4046 4048 4047 
3 665 6152 554 
3 790 4238 788 
3 4178 4179 4177 
3 670 4171 1756 
3 1560 4303 4251 
3 4253 4257 4252 
3 4367 6230 6229 
3 1492 4252 1337 
3 1124 4241 4121 
3 709 4312 4269 
3 1448 4268 4266 
3 163 306 162 
3 189 312 188 
3 4268 4303 1560 
3 1472 4288 1370 
3 1311 4288 1305 
3 1492 4253 4252 
3 4243 4244 1392 
3 4266 4895 1448 
3 1448 4303 4268 
3 384 4269 386 
3 4197 6109 4200 
3 1477 4303 1398 
3 4265 4290 1450 
3 1282 4291 1280 
3 4265 4895 4266 
3 4239 4240 4238 
3 1260 4260 1416 
3 462 463 461 
3 4300 6132 4298 
3 1450 4895 4265 
3 4290 6097 1450 
3 1302 6178 6177 
3 4254 4503 2359 
3 1504 4263 4262 
3 1337 4252 1325 
3 794 4274 4239 
3 1762 6096 1033 
3 4178 4180 4179 
3 4317 5390 1462 
3 1398 4303 1448 
3 4251 4303 1477 
3 4291 6097 4290 
3 1287 4291 1282 
3 1280 4291 1504 
3 1504 4290 4263 
3 2359 4503 4271 
3 189 4218 312 
3 795 4275 792 
3 6096 6101 1033 
3 198 336 197 
3 154 335 153 
3 1504 4262 1278 
3 4274 6094 962 
3 675 4201 596 
3 4244 4245 1392 
3 387 746 385 
3 1818 4254 2359 
3 1564 5390 4317 
3 1464 4317 1462 
3 4263 4290 4265 
3 4275 6094 4274 
3 883 4275 795 
3 792 4275 794 
3 1560 4337 4268 
3 408 4261 407 
3 411 4261 408 
3 1278 4262 1276 
3 464 6153 4137 
3 1395 4282 4267 
3 6100 6101 4240 
3 4273 6092 2366 
3 1823 4270 2055 
3 160 325 159 
3 192 347 191 
3 6148 6149 6147 
3 4180 4181 4179 
3 1396 4337 1427 
3 4259 4270 1821 
3 4267 4337 1395 
3 4267 4282 4264 
3 1821 4270 1823 
3 4268 4337 4267 
3 2366 6092 4259 
3 1179 4258 1182 
3 4244 4246 4245 
3 793 4285 797 
3 4262 4263 1401 
3 1819 4259 1821 
3 1427 4337 1560 
3 1395 4337 1396 
3 4264 4282 1401 
3 4270 6090 2055 
3 1291 4262 1401 
3 797 4285 961 
3 2105 4272 1822 
3 4254 6091 4503 
3 791 4285 793 
3 4181 4182 4179 
3 1231 5034 4287 
3 4259 6093 4270 
3 4272 6091 4254 
3 735 6087 732 
3 2105 4286 4272 
3 158 362 157 
3 4287 5034 4143 
3 403 5127 401 
3 4244 4247 4246 
3 4263 4264 1401 
3 1822 4272 1820 
3 4277 5126 735 
3 1317 4895 1310 
3 434 5126 4277 
3 4277 4279 434 
3 5127 6087 735 
3 732 6087 733 
3 6092 6093 4259 
3 1231 4287 1144 
3 420 5127 403 
3 401 5127 5126 
3 391 4312 580 
3 4279 4281 434 
3 794 4275 4274 
3 5126 5127 735 
3 4181 4183 4182 
3 397 4281 395 
3 1448 4895 1317 
3 1310 4895 1450 
3 652 6089 4322 
3 434 4281 397 
3 1312 4282 1395 
3 580 4312 709 
3 1340 4283 1346 
3 4247 4248 4246 
3 4283 4284 1346 
3 4263 4265 4264 
3 388 4312 391 
3 4294 6089 652 
3 2105 4310 4286 
3 4286 4310 3770 
3 1145 4276 1148 
3 1306 4282 1312 
3 4322 6089 4281 
3 502 4294 652 
3 1338 4283 1340 
3 1231 4399 4289 
3 4281 6089 395 
3 4181 4184 4183 
3 4183 4193 4182 
3 4315 4815 1036 
3 389 4294 502 
3 4279 4322 4281 
3 1100 5233 4815 
3 4289 5034 1231 
3 1036 4814 4315 
3 4815 5233 1036 
3 4315 4814 4313 
3 4265 4266 4264 
3 1055 6086 5128 
3 4313 4814 906 
3 1146 4399 1231 
3 4292 4313 906 
3 1504 4291 4290 
3 963 5128 965 
3 887 4302 4295 
3 906 6086 4292 
3 4399 6077 1505 
3 4292 6086 1055 
3 4295 5128 887 
3 845 4302 884 
3 884 4302 887 
3 3770 6088 4286 
3 4184 4185 4183 
3 5034 5358 1538 
3 4322 5100 4327 
3 1442 4308 4307 
3 1442 4307 4306 
3 1055 5128 963 
3 965 5128 4295 
3 1581 4309 1441 
3 4289 4399 1505 
3 845 4390 4302 
3 4297 6077 4399 
3 1442 4306 1426 
3 5128 6086 887 
3 4364 4366 533 
3 4266 4267 4264 
3 1426 4306 1425 
3 533 5092 4364 
3 4143 5034 1538 
3 4289 5358 5034 
3 4279 5100 4322 
3 1441 4309 1442 
3 4297 4399 1146 
3 4322 4327 652 
3 4304 4333 1425 
3 1425 4306 4304 
3 2105 4424 4310 
3 4364 5092 4363 
3 390 4294 389 
3 796 4390 845 
3 4184 4186 4185 
3 4311 4363 423 
3 423 4362 4311 
3 1425 4333 1351 
3 1147 4297 1146 
3 1442 4309 4308 
3 698 4363 655 
3 1187 4301 1190 
3 655 4363 4311 
3 1453 4420 4316 
3 4316 4419 1453 
3 4362 5095 4311 
3 1824 4424 2105 
3 4266 4268 4267 
3 4363 5092 423 
3 698 4364 4363 
3 1364 4420 1362 
3 4418 4419 1563 
3 1362 4420 1453 
3 4318 5095 4362 
3 4417 4418 1563 
3 584 4318 433 
3 1351 4333 1350 
3 1827 4319 2374 
3 4419 5248 1453 
3 1563 5049 4417 
3 4186 4187 4185 
3 4418 5248 4419 
3 1527 4578 4416 
3 1561 4419 4316 
3 4417 5049 4416 
3 1563 4419 1561 
3 4319 6079 2374 
3 584 5095 4318 
3 4416 4578 4320 
3 2055 6084 4319 
3 1825 4319 1827 
3 4416 5049 1527 
3 433 4318 392 
3 5043 6082 3445 
3 698 4365 4364 
3 1850 4445 2037 
3 2037 4445 4444 
3 5856 6077 4434 
3 1846 6083 1848 
3 4320 4578 1210 
3 4336 4796 2048 
3 4796 5295 2048 
3 3774 5295 4796 
3 3774 5296 5295 
3 3774 5735 5296 
3 5296 5735 2044 
3 3775 5999 4330 
3 4323 5375 2719 
3 2044 5735 4347 
3 5108 5729 5109 
3 5109 5729 3700 
3 3702 5375 4323 
3 5016 5408 1946 
3 5015 5408 5016 
3 4329 5408 5015 
3 5668 6033 5669 
3 4330 5999 2631 
3 653 5095 586 
3 1346 4400 1342 
3 506 4327 583 
3 5725 5727 5013 
3 4800 6025 4570 
3 1848 4445 1850 
3 4335 5343 3445 
3 4321 4332 2716 
3 5669 6033 3396 
3 4332 5067 2716 
3 3445 6082 4335 
3 4590 5067 4332 
3 2048 5343 4336 
3 2026 5067 4590 
3 4590 4591 2026 
3 4324 4326 1941 
3 4591 5284 2026 
3 1928 4569 1930 
3 4566 4568 2722 
3 4186 4188 4187 
3 4444 4448 2037 
3 4688 5284 4591 
3 3701 6080 5744 
3 2716 5326 4321 
3 1941 4334 4324 
3 5374 6081 1965 
3 1954 4800 4662 
3 4660 4661 2728 
3 4661 5345 2728 
3 1226 4331 1153 
3 1954 6025 4800 
3 1924 5080 1926 
3 4376 5997 2378 
3 4883 6078 2378 
3 798 4390 796 
3 1848 6083 4445 
3 4336 5343 4335 
3 1506 4333 4304 
3 1920 4334 1922 
3 4570 6025 4569 
3 4826 5085 1966 
3 1935 5065 1937 
3 4825 5085 4826 
3 4434 6077 4331 
3 2744 4825 4822 
3 4374 5997 4376 
3 4327 5100 583 
3 4687 5318 4686 
3 2001 5318 4687 
3 4375 6024 4374 
3 2744 5085 4825 
3 2722 4569 1928 
3 4822 5429 2744 
3 4820 5429 4822 
3 4686 5318 2729 
3 1836 5343 1838 
3 2729 4688 4686 
3 2729 5284 4688 
3 5051 5729 2758 
3 1969 5429 4820 
3 3700 5744 5109 
3 2001 5809 5361 
3 5929 5944 5019 
3 4687 5809 2001 
3 5361 5809 5051 
3 2758 5361 5051 
3 4820 4821 1969 
3 5906 5928 4827 
3 5015 5727 4329 
3 4821 4883 1969 
3 2758 5729 5108 
3 4328 5727 2898 
3 2719 5837 4323 
3 4326 5080 1941 
3 1922 4334 1941 
3 5954 5972 2760 
3 1189 4320 1210 
3 3702 5889 5375 
3 1965 5944 5929 
3 4568 4569 2722 
3 5669 6019 6011 
3 6011 6019 4330 
3 2760 5929 5019 
3 5016 5972 5954 
3 4311 5095 653 
3 586 5095 584 
3 5013 5727 5015 
3 2898 5727 5725 
3 1857 5430 1855 
3 4328 5999 3775 
3 2722 5080 4566 
3 2746 4938 4338 
3 1946 5972 5016 
3 5019 5954 2760 
3 4321 5326 4448 
3 4448 5326 2037 
3 2746 5021 4938 
3 801 4341 832 
3 3642 6041 6033 
3 4938 5021 4342 
3 2898 5999 4328 
3 2378 6078 4376 
3 1505 6077 5856 
3 504 4327 506 
3 3319 6041 3642 
3 4342 5021 1984 
3 3642 6033 5668 
3 2631 6011 4330 
3 4662 5065 1954 
3 4345 4375 4372 
3 5816 6074 4423 
3 3396 6019 5669 
3 2057 4401 2727 
3 4334 6057 4325 
3 2728 5065 4660 
3 4375 5852 1973 
3 3319 6048 5060 
3 2727 4401 4339 
3 1226 4434 4331 
3 2504 4455 2505 
3 3777 4407 4343 
3 2952 4371 2950 
3 4661 5906 5345 
3 4349 4455 2504 
3 3561 5606 3559 
3 4365 4366 4364 
3 2950 4371 2989 
3 5060 6041 3319 
3 4344 4371 2952 
3 4358 4545 1983 
3 2499 4479 2501 
3 1852 5326 1854 
3 1941 5080 1924 
3 1926 5080 2722 
3 1966 5906 4826 
3 4821 6078 4883 
3 3433 4448 3434 
3 2064 4847 4378 
3 4569 6025 1930 
3 3937 6026 3783 
3 4346 4512 3243 
3 3785 6045 5679 
3 1971 4761 1967 
3 4360 4520 2041 
3 4545 5303 1983 
3 1920 6057 4334 
3 2374 6082 5043 
3 2952 4582 4344 
3 4378 4847 4377 
3 4975 5892 3569 
3 4543 5303 4545 
3 1153 4331 1151 
3 2765 4543 4541 
3 4345 5852 4375 
3 3779 5767 4649 
3 4374 6024 5997 
3 4377 4847 2953 
3 4541 5431 2765 
3 2765 5303 4543 
3 4352 5431 4541 
3 1954 5065 1935 
3 1970 5431 4352 
3 1970 4352 4351 
3 2059 4401 2057 
3 4345 4372 4371 
3 3777 5595 4407 
3 2953 4512 4377 
3 1937 5065 2728 
3 3569 5816 4975 
3 4325 6056 6048 
3 3243 4512 2953 
3 3783 4384 3782 
3 4353 5555 4618 
3 6048 6056 5060 
3 4339 4407 2727 
3 4372 4375 4374 
3 3243 4353 4346 
3 4498 5720 2618 
3 4649 5767 2611 
3 4359 4498 2618 
3 3900 6062 3789 
3 4661 5928 5906 
3 4385 4386 3938 
3 2759 4984 4354 
3 3243 5555 4353 
3 4385 4387 4386 
3 3445 5343 1836 
3 4324 4334 4325 
3 3414 4391 2961 
3 1838 5343 2048 
3 3414 4392 4391 
3 4688 6052 4685 
3 5744 6080 5109 
3 4356 4411 3787 
3 2952 5353 4582 
3 4338 5430 2746 
3 1386 4333 1506 
3 2262 4559 2212 
3 1871 4990 1869 
3 4520 4521 2041 
3 4361 4559 2262 
3 1867 4521 1865 
3 4379 4941 2724 
3 3783 6026 4384 
3 396 4362 423 
3 3787 4411 3263 
3 4582 5353 3787 
3 2746 5430 1857 
3 4506 5249 4355 
3 1855 5430 1982 
3 3415 4539 4500 
3 1955 5037 1952 
3 2724 5138 4379 
3 3410 4405 4404 
3 2505 4455 2575 
3 4355 5249 3786 
3 4380 5915 3788 
3 3787 5353 4356 
3 4826 5906 4827 
3 1826 4424 1824 
3 2702 5249 4506 
3 1984 5606 4342 
3 6079 6082 2374 
3 5465 6029 6015 
3 4343 4761 3777 
3 3410 4404 3408 
3 1965 6081 5944 
3 4752 5784 3648 
3 4379 5138 4528 
3 2690 5462 2688 
3 2214 6053 2216 
3 3246 6031 4618 
3 5606 5981 3778 
3 2838 5559 3202 
3 3778 5981 4521 
3 3434 4448 4444 
3 2203 5915 4380 
3 1950 5497 1947 
3 4937 6045 3785 
3 2618 4499 4359 
3 2605 4499 2606 
3 5430 5892 1982 
3 1982 5892 4975 
3 4528 5138 1978 
3 1978 4644 4528 
3 3415 5992 5441 
3 1983 4761 4358 
3 4325 6057 6056 
3 3791 5664 5131 
3 2504 4479 4349 
3 799 4341 801 
3 4644 5834 3792 
3 4186 4191 4188 
3 5131 5132 3791 
3 4188 4189 4187 
3 5664 6018 2703 
3 1918 6057 1920 
3 1626 5139 4369 
3 4340 6066 6029 
3 4407 5595 2727 
3 4524 4650 2239 
3 4500 5992 3415 
3 4618 6031 4353 
3 2501 4479 2504 
3 4342 5606 3561 
3 1978 5834 4644 
3 2041 4521 1867 
3 4321 4448 3433 
3 3263 4411 2984 
3 4384 5559 3782 
3 2611 5884 4649 
3 3559 5606 3778 
3 4389 4865 2720 
3 4351 5037 1970 
3 5131 5664 2703 
3 3793 5441 4395 
3 2720 5053 4389 
3 1973 6024 4375 
3 3793 4395 4394 
3 2239 5305 4524 
3 5369 5605 1979 
3 2044 6083 1846 
3 1154 1588 1158 
3 2037 5326 1852 
3 5369 5482 3794 
3 1854 5326 2716 
3 1949 5497 4383 
3 4371 4372 2989 
3 3794 5605 5369 
3 4591 6052 4688 
3 4354 5497 2759 
3 2499 5767 4479 
3 4382 4406 3425 
3 1979 5605 4514 
3 3276 5621 3250 
3 3785 5621 4937 
3 4500 4539 4499 
3 1967 4761 1983 
3 2041 4990 4360 
3 2196 4651 2198 
3 4389 5053 4514 
3 5916 5977 3682 
3 3777 4761 1971 
3 3225 4396 3223 
3 3900 5720 4498 
3 2759 5037 4984 
3 4506 5683 2702 
3 4650 4651 2239 
3 3786 5621 4355 
3 4514 5053 1979 
3 2985 6063 6058 
3 3408 4404 3425 
3 2606 4499 2618 
3 2896 4613 4611 
3 798 5610 4390 
3 1881 4866 1879 
3 2186 4425 2188 
3 2184 5803 2186 
3 5441 5992 4395 
3 4479 5767 3779 
3 629 5139 1626 
3 5414 5871 2739 
3 2683 4615 2685 
3 3533 5328 3531 
3 1378 4400 1508 
3 4566 5080 4326 
3 4357 6054 6046 
3 2087 4701 4700 
3 4483 4523 3845 
3 4611 4749 2896 
3 3425 4404 4382 
3 2212 4559 2214 
3 2186 5803 4425 
3 3569 6074 5816 
3 3410 4752 4405 
3 5132 5683 3791 
3 5103 5327 2043 
3 3845 4523 4426 
3 4406 5101 2739 
3 6046 6054 4350 
3 2739 5871 4406 
3 4941 4990 2724 
3 4391 4392 3615 
3 3615 4392 3262 
3 2605 4500 4499 
3 4609 4749 4611 
3 4792 5071 3426 
3 1869 4990 2041 
3 4426 5433 3845 
3 2724 4990 1871 
3 4394 4396 3793 
3 4381 5775 5583 
3 2053 4699 2051 
3 3788 5915 4651 
3 2703 6018 5462 
3 2899 4749 4609 
3 4381 5811 5775 
3 3260 6022 4394 
3 4397 4426 2267 
3 2239 4651 2196 
3 3064 4654 4653 
3 4697 5461 3798 
3 3421 4886 3797 
3 4568 4570 4569 
3 3801 5327 5103 
3 1952 5037 2759 
3 1970 5037 1955 
3 2896 4615 4613 
3 4378 6029 2064 
3 2583 4408 4403 
3 5103 5533 3801 
3 4865 4866 2720 
3 3502 5683 3486 
3 4886 4888 3797 
3 4652 5895 3064 
3 4790 5071 4792 
3 2569 4409 2571 
3 4524 5305 4523 
3 2301 4430 2178 
3 3793 4396 3225 
3 5775 5811 2262 
3 4381 5583 4380 
3 3064 4653 4652 
3 2688 5462 5461 
3 2262 5811 4361 
3 4498 6062 3900 
3 2899 4609 4607 
3 4487 5139 629 
3 2703 5462 2690 
3 3429 4408 2583 
3 3427 5071 4790 
3 394 4362 396 
3 3487 4752 3648 
3 3489 5559 2838 
3 5753 5933 4887 
3 2178 4430 2180 
3 3482 4886 3421 
3 1947 5497 1949 
3 2685 4615 2896 
3 4660 5065 4662 
3 5345 5906 1966 
3 3801 5533 5501 
3 3792 5834 4866 
3 4382 5101 4406 
3 4920 5884 2611 
3 2759 5497 1950 
3 4790 4791 3427 
3 3202 5559 4384 
3 2517 5966 2519 
3 3410 5784 4752 
3 2702 5683 5132 
3 4449 5907 3496 
3 2711 5461 4697 
3 2087 4700 4699 
3 4402 4430 2301 
3 3482 4887 4885 
3 4885 4886 3482 
3 2507 5693 2509 
3 4615 5895 4652 
3 4385 6026 3937 
3 2986 6006 4424 
3 2188 4425 2267 
3 5619 5693 2575 
3 2720 4866 1881 
3 4397 5433 4426 
3 2575 6054 5619 
3 4471 5457 4469 
3 4607 5385 2899 
3 4393 6065 6035 
3 3906 6039 4391 
3 5700 5802 4791 
3 1964 6024 1973 
3 2051 4699 4432 
3 2267 4425 4397 
3 3294 4833 4787 
3 1991 4797 4446 
3 4380 5583 2203 
3 4791 5802 3427 
3 5679 6045 3906 
3 2301 4431 4402 
3 3794 5482 5328 
3 1381 4563 4562 
3 4403 4409 2583 
3 4415 4417 4416 
3 4559 6053 2214 
3 3906 6045 6039 
3 4398 5803 2283 
3 4410 5832 3005 
3 5501 5533 1977 
3 3406 4407 4339 
3 3569 5892 3567 
3 2996 5638 2994 
3 4343 4407 3406 
3 4471 4473 2270 
3 4424 6006 4310 
3 4937 5621 3786 
3 3778 4521 4520 
3 2270 5457 4471 
3 4355 5621 3276 
3 4787 4833 4786 
3 4605 5385 4607 
3 4446 4797 4413 
3 2521 4571 2573 
3 3005 5625 4410 
3 2583 4409 2569 
3 2187 4594 2185 
3 3250 5621 3785 
3 3804 5802 5700 
3 4956 5501 1977 
3 3429 4410 4408 
3 1152 1588 1154 
3 4834 5498 4440 
3 3794 5328 3533 
3 4834 5572 5498 
3 1197 4415 1193 
3 3952 5907 4449 
3 4429 4993 2233 
3 3531 5328 5327 
3 4340 6029 5465 
3 4521 5981 1865 
3 2040 5370 4412 
3 4483 4524 4523 
3 2897 5385 4605 
3 4465 4467 2260 
3 4439 5785 3838 
3 4956 5863 3811 
3 2573 4571 4555 
3 4451 5467 4450 
3 6005 6014 3980 
3 5599 5919 5598 
3 4412 5370 3479 
3 2181 4474 2179 
3 4401 6066 4340 
3 2897 4605 4602 
3 3260 5838 4893 
3 4396 5902 3223 
3 4649 5884 3487 
3 2283 5803 2184 
3 4888 5693 3797 
3 2087 4699 2053 
3 4893 5838 4409 
3 585 4487 629 
3 4383 5497 4354 
3 4473 4474 2270 
3 4602 4966 2897 
3 3414 4393 4392 
3 4413 4797 4482 
3 5327 5328 2043 
3 2191 5672 2189 
3 2989 6060 2948 
3 4792 5871 5414 
3 4398 5977 5916 
3 3487 5884 4752 
3 4450 5467 3443 
3 2456 5785 4439 
3 4866 5834 1879 
3 5712 5986 2831 
3 1977 5863 4956 
3 4440 5498 2010 
3 4455 6054 2575 
3 3436 5758 4933 
3 6015 6029 4378 
3 2087 5439 4701 
3 3834 5899 5885 
3 3442 5558 3443 
3 1344 4400 1378 
3 4392 5984 3262 
3 2169 5776 2167 
3 4555 4643 2573 
3 4513 5672 2191 
3 3262 5984 2813 
3 4410 5625 4408 
3 1197 4417 4415 
3 3872 5990 3871 
3 2174 4436 2176 
3 5700 5839 3804 
3 2010 5330 4440 
3 4427 4993 4429 
3 4620 4767 2990 
3 4651 5915 2198 
3 3443 5558 4450 
3 2193 4513 2191 
3 3439 4443 4348 
3 5815 5880 5816 
3 2509 5693 4888 
3 4484 5422 2742 
3 3938 6026 4385 
3 3682 5977 3799 
3 3837 5939 4875 
3 4499 4539 4359 
3 3791 5683 3502 
3 3486 5683 4506 
3 4984 5037 4351 
3 3092 5897 5801 
3 2051 4432 1830 
3 2519 4571 2521 
3 4409 5838 2571 
3 4600 4966 4602 
3 2457 4993 4427 
3 3426 5871 4792 
3 2519 5966 4571 
3 1381 4562 4561 
3 5069 5330 2010 
3 3803 4767 4620 
3 2683 5895 4615 
3 2270 4474 2181 
3 2355 5841 4428 
3 2039 5040 4456 
3 3516 4772 4765 
3 4731 5704 4456 
3 4189 4190 4187 
3 2260 4594 2187 
3 3788 4651 4650 
3 1841 5413 1839 
3 3013 4676 4435 
3 3685 5952 3356 
3 4441 5422 4484 
3 3434 4444 4443 
3 2171 4476 2169 
3 1241 4434 1226 
3 4454 4901 4766 
3 4413 4482 4412 
3 4476 5776 2169 
3 4668 5897 3092 
3 6043 6050 3696 
3 4358 4761 4343 
3 1372 4434 1241 
3 3825 5330 5069 
3 3799 5973 4430 
3 3570 5919 5599 
3 2575 5693 2507 
3 4701 5439 5250 
3 4887 5056 3261 
3 2417 5886 2422 
3 4467 4594 2260 
3 3804 5839 3805 
3 4458 4460 2250 
3 4469 5457 4594 
3 4435 4677 3013 
3 3627 5993 3431 
3 4825 4826 4824 
3 4475 5787 4474 
3 3880 4519 3286 
3 3834 5885 4428 
3 800 5610 798 
3 3980 6014 3979 
3 5102 5423 4714 
3 3477 5968 3283 
3 4443 4444 4348 
3 4892 5659 4745 
3 3782 6031 3246 
3 4712 5637 4710 
3 3880 4739 4519 
3 581 4487 585 
3 4787 5712 3294 
3 4587 4972 3846 
3 4372 4373 2989 
3 5164 6044 6009 
3 4383 6030 1949 
3 4887 5933 4885 
3 4685 6052 3405 
3 4412 4482 2040 
3 4533 5925 3826 
3 3837 5704 4731 
3 2994 5638 4620 
3 3522 5054 3519 
3 3090 4668 3092 
3 3439 4501 4443 
3 3479 5370 3477 
3 4893 6022 3260 
3 4475 5951 5890 
3 2277 5562 4934 
3 1348 4561 1515 
3 3240 5001 4544 
3 4892 5758 3436 
3 3871 5329 4505 
3 3005 5638 2996 
3 5680 5742 4894 
3 4405 5884 4920 
3 2016 5422 4441 
3 2271 4477 4442 
3 3499 5572 4834 
3 3005 5832 5638 
3 4439 5348 2456 
3 4641 5484 4643 
3 3797 5693 5619 
3 2271 4476 2171 
3 3507 5352 3509 
3 3482 5056 4887 
3 4510 5286 3286 
3 1991 5943 1988 
3 4505 5329 2737 
3 4666 4667 3372 
3 4329 5727 4328 
3 2027 4855 4481 
3 2434 5348 4722 
3 1901 5857 4585 
3 3436 5659 4892 
3 4722 5348 4439 
3 2176 4436 2301 
3 2283 5977 4398 
3 4489 5647 4490 
3 4664 4666 3372 
3 4446 5943 1991 
3 3799 5977 5973 
3 4643 5484 2573 
3 3446 5665 5516 
3 5923 5951 4475 
3 4442 4476 2271 
3 4427 5352 2457 
3 3256 5769 3603 
3 2250 4513 2193 
3 2197 5798 2195 
3 4823 4825 4824 
3 4557 5933 5753 
3 4490 5738 4492 
3 3234 5730 4827 
3 2461 4901 4454 
3 4822 4823 4818 
3 5816 5880 4975 
3 4636 5140 4642 
3 1193 4415 1191 
3 4833 5266 4786 
3 3734 5896 5681 
3 2260 5672 4465 
3 4863 5584 4480 
3 4636 4637 2572 
3 3360 4488 3935 
3 3219 6048 3319 
3 4391 6039 2961 
3 4548 4549 2254 
3 4616 4966 4600 
3 3261 5753 4887 
3 4593 4748 3828 
3 4478 4530 2880 
3 4596 5955 4597 
3 2427 5560 2800 
3 4406 4963 3425 
3 3754 5804 5756 
3 3286 4519 4510 
3 4967 4968 3280 
3 4544 4982 3240 
3 5647 5738 4490 
3 4863 4864 3213 
3 5756 5804 3627 
3 4864 5346 3213 
3 4556 5709 4640 
3 3213 5584 4863 
3 4550 5980 5912 
3 2342 4972 4587 
3 4502 4755 2645 
3 4594 5457 2185 
3 2674 6016 4654 
3 4460 4513 2250 
3 3812 4899 4481 
3 5266 5841 2355 
3 4546 4548 2254 
3 2174 5598 4436 
3 2674 4654 2676 
3 3812 5040 4899 
3 5074 5763 4691 
3 4456 5040 3812 
3 4438 4590 4589 
3 4538 4871 2855 
3 4475 5890 5787 
3 4456 5704 2039 
3 4497 5435 3888 
3 3274 4963 3272 
3 3562 4504 3704 
3 2886 4616 4598 
3 4435 4676 3827 
3 4544 5001 4542 
3 2761 5779 5737 
3 4637 4638 2572 
3 3567 5892 4338 
3 4454 4766 3815 
3 4968 5680 3280 
3 4708 5409 4705 
3 2886 4598 4595 
3 4454 4670 2461 
3 5388 5896 3734 
3 4822 4825 4823 
3 4731 5939 3837 
3 5796 5823 3908 
3 5302 5946 4838 
3 3792 4866 4865 
3 4428 5841 4728 
3 3452 5935 5250 
3 3829 4530 4478 
3 4592 4593 3828 
3 3069 5514 4717 
3 3455 4870 4532 
3 4357 6046 4411 
3 4561 4562 1515 
3 4827 5730 4824 
3 2754 5647 4489 
3 1345 4561 1348 
3 4358 4982 4545 
3 3190 4760 4759 
3 4745 5659 4960 
3 2779 5484 4641 
3 2676 4654 3064 
3 3789 6062 4437 
3 4394 6022 4396 
3 2189 5672 2260 
3 4511 5990 3872 
3 4615 4652 4613 
3 3580 5845 3714 
3 4641 4642 2779 
3 4426 4522 2267 
3 4346 5023 4512 
3 4438 4591 4590 
3 2645 4879 4502 
3 5692 5901 5846 
3 4624 4627 4626 
3 4967 5477 3623 
3 4359 4539 3402 
3 4587 5558 3442 
3 3438 4501 3439 
3 3286 5286 2957 
3 4480 5584 2829 
3 3132 5680 3130 
3 4574 4575 3192 
3 2342 4587 4586 
3 3220 5609 4567 
3 5461 5462 3798 
3 4572 4574 3192 
3 4757 5173 3190 
3 2572 5140 4636 
3 5598 5919 4436 
3 3555 4520 4360 
3 4584 4772 3516 
3 3497 4932 3492 
3 2533 5676 2535 
3 4360 4990 4941 
3 3253 4583 3255 
3 4518 5076 1543 
3 4344 4582 3613 
3 5562 5665 4934 
3 2326 5104 2324 
3 4484 5880 5815 
3 4428 5885 2355 
3 2594 5965 2605 
3 4968 5742 5680 
3 4489 5024 2754 
3 3811 5863 4585 
3 2883 5925 4533 
3 2699 4616 2701 
3 2301 4436 4431 
3 5554 5643 3663 
3 4457 5665 2804 
3 3372 4668 3090 
3 4441 4766 2016 
3 3889 5927 5684 
3 4766 4901 2016 
3 2461 5413 1841 
3 4481 4899 2027 
3 3295 5688 5649 
3 2257 4977 2199 
3 5865 5867 5866 
3 3190 4759 4757 
3 3414 6065 4393 
3 4765 4772 2715 
3 4438 4589 3790 
3 3519 5054 3521 
3 1839 5413 5069 
3 2995 5255 2997 
3 4833 5841 5266 
3 2990 4767 4478 
3 5580 5851 3841 
3 4542 5001 3241 
3 4532 4870 4538 
3 3538 4619 3690 
3 2605 5965 4500 
3 3811 4584 3520 
3 4642 5140 2779 
3 4691 5763 4690 
3 3013 4677 2398 
3 2531 4638 2533 
3 5107 5458 2669 
3 4933 5758 4934 
3 4996 5549 3591 
3 4747 5883 5564 
3 4518 5367 5076 
3 3496 5907 5684 
3 2509 4888 2511 
3 4638 5676 2533 
3 2399 4720 2401 
3 5890 5951 5742 
3 4745 4960 4743 
3 2167 5776 2804 
3 2662 5966 2517 
3 3417 4524 4483 
3 5927 6002 3839 
3 5076 5367 1455 
3 2641 5454 5420 
3 3220 4567 4565 
3 3172 4576 3197 
3 4402 5054 3522 
3 3509 5352 4427 
3 2254 4965 4546 
3 3838 5785 4435 
3 4852 5372 4798 
3 4585 5857 4772 
3 2924 4663 2985 
3 3647 5808 5607 
3 2190 4522 2192 
3 3573 5401 4645 
3 2926 4663 2924 
3 4474 5787 2179 
3 3898 5173 4757 
3 3223 5902 3003 
3 4719 5637 4712 
3 2548 5004 2551 
3 5069 5413 3825 
3 3379 4488 3360 
3 2590 4647 2592 
3 2887 5703 2792 
3 4639 5847 5633 
3 3438 4502 4501 
3 1830 4432 1828 
3 4573 4574 4572 
3 1235 4578 1527 
3 4540 4542 3241 
3 2032 5040 2035 
3 3628 4690 3111 
3 4934 5665 3446 
3 2398 4677 2396 
3 3112 4579 3122 
3 2228 4549 2226 
3 4748 5352 3828 
3 3015 5283 4987 
3 2284 5372 4852 
3 4714 5423 5409 
3 2379 4745 4743 
3 4442 4967 3623 
3 4473 4475 4474 
3 2808 5645 5075 
3 3831 4970 4721 
3 2232 4593 4592 
3 3425 4963 3274 
3 3815 4766 3813 
3 3825 4670 3819 
3 2732 4535 2730 
3 2777 5666 4739 
3 3429 5677 4410 
3 4787 5986 5712 
3 4855 4900 4481 
3 3667 5788 3904 
3 2610 5720 5534 
3 4813 5952 3685 
3 4718 5746 4717 
3 4958 5393 1909 
3 4835 5550 2462 
3 5994 6008 3691 
3 1455 5367 4646 
3 4586 4721 2342 
3 3088 4664 3372 
3 3613 4582 3411 
3 5568 5711 3314 
3 4702 4720 2399 
3 2701 4616 2886 
3 4710 5637 4714 
3 4517 5456 2856 
3 4620 5638 3803 
3 4545 4982 4544 
3 3828 5352 3507 
3 5091 5312 3302 
3 4525 4573 4572 
3 2113 5654 2111 
3 2401 4720 2409 
3 4598 4616 4600 
3 3714 5845 4698 
3 3536 4619 3538 
3 3827 4676 4515 
3 3609 5613 4595 
3 4655 6049 4653 
3 4525 4572 3175 
3 3241 4812 4540 
3 4595 5613 2886 
3 2914 5287 3216 
3 2122 5557 2123 
3 3603 5769 5137 
3 2229 5706 2231 
3 3255 4583 3418 
3 4558 5639 5137 
3 2857 5566 5540 
3 3811 4585 4584 
3 3013 4971 4676 
3 4635 4640 3277 
3 4478 4767 3829 
3 4485 4486 3932 
3 4870 4871 4538 
3 2856 5554 4517 
3 3831 4721 4586 
3 3874 5393 4958 
3 4556 4643 4555 
3 3138 4723 3139 
3 4781 4992 4869 
3 2938 4817 3235 
3 5599 5600 3570 
3 2511 4888 2574 
3 4558 4727 2696 
3 4431 5054 4402 
3 4881 5499 5463 
3 4515 4516 2420 
3 4592 4877 2232 
3 2422 5886 5560 
3 2856 5643 5554 
3 4646 5331 1455 
3 2422 5560 2427 
3 4624 4626 4621 
3 4818 4823 4817 
3 3281 4632 2933 
3 4576 4577 3197 
3 3560 4504 3562 
3 2645 4978 4879 
3 5781 5840 2528 
3 2800 5560 3069 
3 4735 5072 4734 
3 4909 5603 5122 
3 4515 4932 3497 
3 3591 5549 3018 
3 5286 5843 5141 
3 2279 4744 4742 
3 4423 6074 4422 
3 2754 4919 2753 
3 2572 4638 2531 
3 4813 5636 3586 
3 4403 4893 4409 
3 2267 4522 2190 
3 4911 5931 5911 
3 3795 5803 4398 
3 5600 5961 4580 
3 3402 4539 3248 
3 2254 4549 2228 
3 1197 4418 4417 
3 4558 5137 3474 
3 4621 4626 3151 
3 4211 4950 4210 
3 4530 4645 2880 
3 2333 5221 2335 
3 5447 5813 5607 
3 4656 4663 2926 
3 3951 4628 3373 
3 3483 5402 4675 
3 2275 4970 4762 
3 5910 5913 4534 
3 3520 4584 3517 
3 5250 5935 4701 
3 2324 5104 2376 
3 2890 4831 2888 
3 4637 5847 4639 
3 4512 5023 3780 
3 3888 5436 4497 
3 2216 6053 2233 
3 3177 4525 3175 
3 4662 4800 4659 
3 4739 5666 3643 
3 4531 4942 4939 
3 2236 4733 2240 
3 4492 5738 4497 
3 3860 4485 3932 
3 4714 5409 4708 
3 2829 5596 4480 
3 2963 4507 3643 
3 2069 4793 2079 
3 3594 4977 2257 
3 1989 5576 5096 
3 2039 5704 4756 
3 4705 5409 4704 
3 2376 4693 4692 
3 3628 4691 4690 
3 4982 5528 3240 
3 5732 5777 3852 
3 2599 4647 2590 
3 4523 5305 4522 
3 3173 4572 3192 
3 3111 4690 2844 
3 4361 5811 5701 
3 3267 4924 3651 
3 3557 4520 3555 
3 3807 4731 4456 
3 3541 4865 4389 
3 1917 6038 6016 
3 4676 4971 4516 
3 4829 4831 2890 
3 4977 5798 2197 
3 4580 4581 3595 
3 4781 5220 4992 
3 3819 4670 3817 
3 4985 5487 3399 
3 2845 5865 5544 
3 2302 4844 2158 
3 2551 5004 2554 
3 4671 5504 5464 
3 3492 4932 3490 
3 3012 4998 3438 
3 3392 4868 2983 
3 4546 4965 4535 
3 3935 5611 3358 
3 3543 4865 3541 
3 4717 5514 4715 
3 5885 5899 2351 
3 4565 5529 3220 
3 2240 4733 4675 
3 4929 5458 5107 
3 4859 5567 3044 
3 4536 4537 3680 
3 3484 4506 4355 
3 3871 5990 5329 
3 2349 4918 2350 
3 3140 5477 3136 
3 3272 4963 3426 
3 2941 4841 3006 
3 4741 4746 4740 
3 3490 5734 2663 
3 3984 5505 5324 
3 4743 4744 2379 
3 4145 4729 3677 
3 4189 4192 4190 
3 2645 4755 2638 
3 2957 5286 2361 
3 3904 5788 5399 
3 4535 4965 2730 
3 4636 4642 4633 
3 5791 5831 3042 
3 2940 4817 2938 
3 2408 4516 2406 
3 2489 5101 2492 
3 4928 4929 4926 
3 2742 5880 4484 
3 5737 5779 4958 
3 3805 5839 3873 
3 2754 5024 4919 
3 3671 5946 5302 
3 3233 5255 2995 
3 5544 5865 5473 
3 2876 4478 2880 
3 5684 5907 3889 
3 3281 4633 4632 
3 4841 5709 4556 
3 3846 5558 4587 
3 4657 4662 4659 
3 3530 4580 3595 
3 2441 4898 2848 
3 3086 4664 3088 
3 2939 4841 2941 
3 2278 4970 2273 
3 2955 4924 3267 
3 4770 5630 2653 
3 3469 4503 3468 
3 4986 5487 4985 
3 3420 4984 3419 
3 2822 5718 2832 
3 4678 5331 4646 
3 5543 5639 2696 
3 5810 5819 5010 
3 4798 5372 2377 
3 2437 5637 4719 
3 4509 5887 5849 
3 1557 4915 4914 
3 5573 5614 3885 
3 2804 5776 4457 
3 2199 4977 2197 
3 4516 4971 2406 
3 3633 5596 3631 
3 3744 4631 3987 
3 4548 4550 4549 
3 2615 5689 2620 
3 5073 5087 3043 
3 3228 5050 3699 
3 5464 5504 3672 
3 5407 5419 4917 
3 5093 5440 5306 
3 4675 5402 2240 
3 3188 4760 3190 
3 2848 4898 4684 
3 2231 4733 2236 
3 5148 5728 4951 
3 5641 5728 5148 
3 4507 4519 3643 
3 3261 5056 2947 
3 3226 5050 3228 
3 5681 5786 3734 
3 4835 5641 5550 
3 4444 4445 4348 
3 1557 4914 4780 
3 4560 5801 5760 
3 2832 4857 3491 
3 4597 5917 5875 
3 4692 5563 4785 
3 5025 5760 3313 
3 5306 5579 2084 
3 3908 5823 5589 
3 2991 4620 2990 
3 3843 5062 4848 
3 2279 5696 2151 
3 2696 5639 4558 
3 3076 4536 3680 
3 5677 5832 4410 
3 4764 5493 2275 
3 2534 5778 5399 
3 3571 4988 2826 
3 2039 4756 2038 
3 4721 4970 2278 
3 5875 5917 2745 
3 2012 5116 2011 
3 4654 4655 4653 
3 2875 5402 3483 
3 3589 4579 3112 
3 3563 4938 4342 
3 4740 4746 4742 
3 4372 4374 4373 
3 3447 4788 2468 
3 4779 5350 4780 
3 2826 4988 2827 
3 2350 4918 2353 
3 2322 4785 2319 
3 5607 5808 3664 
3 5018 5256 5255 
3 4879 4978 4564 
3 4648 5062 3289 
3 2954 4900 2721 
3 2997 5255 3232 
3 4329 5535 5408 
3 3734 5786 3733 
3 3516 4765 3514 
3 3419 4984 4351 
3 3124 4734 3127 
3 3539 4514 3537 
3 3565 4938 3563 
3 4850 4851 2598 
3 2682 4962 2704 
3 3139 4723 3142 
3 4780 5350 1557 
3 4564 4979 3014 
3 4899 5040 2032 
3 2816 5104 2326 
3 2054 4793 2069 
3 3138 4724 4723 
3 4640 5709 3277 
3 2702 5132 2698 
3 2545 4936 2578 
3 2928 4656 2926 
3 3438 4998 4502 
3 3042 5592 5542 
3 4477 4967 4442 
3 2438 5511 2439 
3 2420 4932 4515 
3 2233 4993 2218 
3 2205 4732 2202 
3 3403 4685 3405 
3 4861 5004 2548 
3 6012 6023 3765 
3 2753 4919 2756 
3 5526 5596 2829 
3 4902 4906 4724 
3 3545 4644 3792 
3 5512 5705 3051 
3 4588 5596 5526 
3 5370 5968 3477 
3 3935 5612 5611 
3 3650 4794 3273 
3 3091 4560 3687 
3 2202 4732 2201 
3 2158 4844 2160 
3 2543 4936 2545 
3 4695 4696 3694 
3 4637 4639 4638 
3 3728 5024 3743 
3 2035 5040 2039 
3 4210 4950 4948 
3 1997 4482 1995 
3 2195 5798 2250 
3 2737 5777 4505 
3 4586 4587 3442 
3 4849 4851 4850 
3 2983 4868 2968 
3 1521 5492 1534 
3 2735 4535 2732 
3 3092 5801 4560 
3 2362 6000 5989 
3 2397 4702 2399 
3 4077 4897 3764 
3 3688 6004 5996 
3 1446 5350 4779 
3 4502 4879 4501 
3 4742 4744 4743 
3 4869 4991 2049 
3 3600 5521 5418 
3 4762 4970 3831 
3 2153 4744 2279 
3 4826 4827 4824 
3 2638 4755 2640 
3 2376 5104 4693 
3 2863 5671 5435 
3 3047 4618 3882 
3 3607 4940 4874 
3 2231 5706 4733 
3 5306 5440 3607 
3 2874 4768 2799 
3 4515 4676 4516 
3 3280 5680 3132 
3 2855 5421 4538 
3 5447 5507 5446 
3 3192 4576 3172 
3 4497 5738 5435 
3 2915 5287 2914 
3 2466 4753 2416 
3 3175 4572 3173 
3 3554 4695 3694 
3 4854 5454 2641 
3 2437 5886 2417 
3 2457 5352 4748 
3 4528 4644 3547 
3 5771 5883 4747 
3 4671 4672 3067 
3 3108 5713 3448 
3 3373 4628 3369 
3 4817 4823 3235 
3 5075 5645 4795 
3 4560 5760 5025 
3 5293 5499 4881 
3 2218 4993 2220 
3 4846 5715 5368 
3 2933 4632 2935 
3 4734 5072 3127 
3 4891 5571 4892 
3 4675 4733 3835 
3 4925 4928 4926 
3 5516 5665 4457 
3 4803 4805 4802 
3 2456 5348 2429 
3 4632 4635 3277 
3 2250 5798 4458 
3 4769 5688 3295 
3 5547 5604 3049 
3 4667 4668 3372 
3 2563 5119 2560 
3 4717 5746 3069 
3 3835 4877 3501 
3 5221 5726 5646 
3 4763 5567 4859 
3 3015 4987 4939 
3 2155 4744 2153 
3 5540 5566 5371 
3 3491 4857 3495 
3 4617 6148 3833 
3 3300 5221 2333 
3 4405 4920 2658 
3 1456 5331 4678 
3 2684 4962 2682 
3 2477 5617 5115 
3 3620 5507 5447 
3 3740 5449 3976 
3 3764 4897 3761 
3 2413 5423 5102 
3 2858 5010 2860 
3 4788 4875 2878 
3 3352 4689 3732 
3 3024 4832 3294 
3 3743 5024 4489 
3 2017 5116 2012 
3 4762 4764 2275 
3 3596 4760 3188 
3 2644 4911 2498 
3 5650 5707 4945 
3 2721 4900 4855 
3 3148 4621 3151 
3 3441 4586 3442 
3 1372 5856 4434 
3 2462 5499 5293 
3 3162 5653 3159 
3 5537 5985 3872 
3 3295 5570 4769 
3 2894 4671 3067 
3 4726 4727 3840 
3 4801 4803 4802 
3 3130 5680 4894 
3 1886 5929 2760 
3 4742 4746 2279 
3 5534 5720 3900 
3 5090 5312 5091 
3 5290 5509 1898 
3 5115 5617 3879 
3 2348 5268 2347 
3 2272 4961 2127 
3 4871 4999 4872 
3 3485 4675 3835 
3 4871 4872 2855 
3 3412 4649 3487 
3 3128 4894 3137 
3 4848 5062 4648 
3 2913 4986 3215 
3 4882 5506 3584 
3 2960 5714 5386 
3 3377 5505 3984 
3 2376 4785 2322 
3 2293 5707 5650 
3 3294 5712 2903 
3 5399 5778 3904 
3 1219 4578 1235 
3 2175 5009 2173 
3 3330 4630 3674 
3 1844 5296 2044 
3 2604 5401 3573 
3 2733 5602 2734 
3 4935 4936 2543 
3 2379 4891 4745 
3 3303 4925 2921 
3 4645 5401 2880 
3 2945 4551 3261 
3 3068 5703 2887 
3 4836 4839 3597 
3 4678 5048 1456 
3 1939 5345 1943 
3 2820 5046 2818 
3 3216 5287 3435 
3 3549 4528 3547 
3 3547 4644 3545 
3 5408 5535 5011 
3 2712 5009 2175 
3 2439 5511 2905 
3 3318 5578 2918 
3 2541 4935 2543 
3 5649 5688 4629 
3 3447 4875 4788 
3 4741 4747 4746 
3 2023 4855 2027 
3 5301 5302 4838 
3 2374 5043 1829 
3 3699 5809 5799 
3 3784 5475 3966 
3 3136 5477 3134 
3 3301 5538 2959 
3 2917 5529 2916 
3 2667 4944 2852 
3 4768 5639 5543 
3 4502 4998 4755 
3 5079 5573 3885 
3 5022 5023 3488 
3 3200 4902 3135 
3 4640 4643 4556 
3 3753 4617 3833 
3 4560 5025 3687 
3 4908 5603 4909 
3 4785 5563 2318 
3 4929 5552 2565 
3 2215 4843 2221 
3 3837 4875 3476 
3 2571 5838 2582 
3 3847 5087 5073 
3 3476 4875 3447 
3 2114 4989 2330 
3 2554 5708 2555 
3 4704 5409 2460 
3 3270 5071 3268 
3 3247 5475 3784 
3 2079 4793 2883 
3 1883 5053 2720 
3 4853 5791 2386 
3 3144 5736 3146 
3 907 4814 1036 
3 3873 5839 5697 
3 2360 5301 4838 
3 2728 5345 1939 
3 3293 5594 2925 
3 3025 5407 4917 
3 2658 4920 2493 
3 4430 5973 2180 
3 5848 5859 3964 
3 3021 5651 3910 
3 2535 5676 2669 
3 2888 4831 3066 
3 3677 4729 3657 
3 3035 5038 3287 
3 3280 5477 4967 
3 2172 5598 2174 
3 3103 4931 3332 
3 2879 5046 2820 
3 2498 4911 2496 
3 5855 5941 3820 
3 804 5213 5121 
3 2806 5081 2356 
3 2356 5081 2901 
3 4942 5004 4939 
3 2060 4782 2062 
3 4008 4868 3392 
3 3123 4734 3124 
3 2699 4966 4616 
3 3654 5033 3102 
3 3577 5563 4692 
3 2094 4860 2096 
3 4692 4785 2376 
3 3273 4794 3275 
3 2508 4840 2661 
3 3436 4933 3147 
3 3553 4941 3551 
3 4978 4979 4564 
3 3892 5538 3301 
3 4852 5506 4882 
3 5050 5729 5051 
3 4534 5913 4533 
3 2696 4727 2677 
3 4549 5660 2226 
3 3375 5597 3376 
3 2235 4965 2230 
3 2046 5614 5573 
3 3583 5528 4982 
3 4830 5788 3667 
3 3840 4727 4558 
3 1842 5296 1844 
3 2762 5698 5444 
3 3121 5010 2858 
3 4927 5739 5633 
3 5415 5500 2074 
3 2665 4944 2667 
3 4575 4576 3192 
3 2964 4898 2441 
3 3532 5105 3534 
3 2123 5557 2126 
3 1911 5068 1908 
3 4951 5702 5148 
3 3417 5769 3256 
3 2002 5091 3302 
3 1894 5011 2717 
3 3187 5045 3185 
3 2127 4961 2125 
3 4864 5782 5346 
3 2669 5458 2537 
3 3747 5819 5810 
3 3746 5002 3193 
3 3185 5045 3327 
3 4723 4725 3333 
3 5646 5726 2956 
3 2063 4847 2064 
3 3501 4877 3503 
3 2614 4854 2641 
3 3053 5557 2122 
3 4934 5758 2277 
3 4669 5898 5897 
3 2598 5424 4850 
3 4588 5526 2345 
3 3135 4902 3138 
3 1966 5085 1945 
3 3897 5675 5513 
3 5453 5518 3713 
3 5663 5747 2266 
3 4522 5305 2192 
3 2112 4989 2114 
3 2492 5101 4382 
3 2468 4788 2470 
3 5221 5646 2335 
3 2832 5718 4857 
3 1885 5053 1883 
3 4848 4849 3843 
3 3358 5611 3357 
3 3595 5105 3532 
3 2084 5579 5097 
3 3823 5330 3821 
3 3102 5033 3100 
3 4872 4999 4873 
3 2730 4965 2235 
3 2857 4811 2789 
3 3217 4564 3014 
3 5801 5897 3731 
3 2500 5635 2644 
3 2021 4855 2023 
3 1945 5085 1948 
3 4948 5045 4210 
3 2657 4955 2919 
3 4428 4728 3430 
3 4789 4790 2485 
3 3597 5117 2100 
3 2038 4756 2047 
3 4922 5711 5568 
3 5093 5306 2084 
3 4746 5696 2279 
3 3229 5441 3227 
3 2700 5249 2702 
3 3488 5023 4346 
3 1880 5374 1882 
3 5340 5604 5547 
3 1984 5981 5606 
3 2698 5132 2694 
3 2075 5078 2104 
3 2619 4854 2614 
3 2988 5527 2870 
3 3159 5653 3158 
3 2045 4869 2049 
3 2421 5061 2466 
3 2921 4925 2923 
3 2947 5056 2949 
3 4431 5908 5054 
3 2152 4907 2154 
3 2396 5743 2394 
3 1915 5392 2042 
3 4846 5008 2258 
3 3852 5777 3850 
3 4754 4998 3009 
3 2104 5078 2316 
3 1987 5332 2741 
3 2400 4971 3013 
3 4597 5955 5442 
3 3514 5077 3032 
3 4773 5549 4996 
3 2303 6059 6051 
3 2078 5097 2743 
3 3413 5642 4350 
3 3418 4381 4380 
3 2487 5101 2489 
3 2102 4836 3597 
3 5420 5454 3610 
3 2792 5703 2790 
3 4832 4833 3294 
3 2591 4908 2585 
3 4936 5561 2578 
3 3969 5421 3711 
3 3009 4998 3012 
3 3745 4631 3744 
3 2310 5755 5655 
3 2106 4943 2665 
3 3169 4832 3024 
3 3426 5071 3270 
3 4526 6190 6189 
3 1197 5247 4418 
3 3147 4933 3145 
3 5050 5051 3699 
3 4360 4941 3553 
3 3073 5001 3240 
3 2426 5061 2421 
3 4768 5543 2799 
3 4852 4882 2284 
3 2225 4593 2227 
3 4714 5637 5102 
3 5064 5522 3877 
3 2857 5540 5449 
3 1892 5011 1894 
3 5012 5017 3233 
3 2641 5420 5419 
3 3840 5038 4726 
3 2705 5249 2700 
3 2271 5009 4477 
3 826 5610 800 
3 3674 4799 3208 
3 2258 5008 2252 
3 5500 5555 2076 
3 3265 4900 2954 
3 2849 5713 3108 
3 5096 5576 3638 
3 5435 5671 3887 
3 4550 5660 4549 
3 5959 5961 2313 
3 2433 5412 2443 
3 2347 5268 2853 
3 2480 4789 2485 
3 3101 4931 3103 
3 1872 5108 1874 
3 4769 5570 5386 
3 4440 5330 3823 
3 4551 5753 3261 
3 2567 5307 2566 
3 2389 4732 2205 
3 4811 5449 3740 
3 1874 5108 1974 
3 4426 4523 4522 
3 2042 5392 5059 
3 3085 6042 6035 
3 4881 5463 4882 
3 3303 4928 4925 
3 3289 5545 4648 
3 3628 5751 4691 
3 4765 5077 3514 
3 2677 4727 2675 
3 4828 5452 3339 
3 1534 5492 4779 
3 3287 5038 3840 
3 3254 4768 2874 
3 2546 4861 2548 
3 3071 5001 3073 
3 3032 5077 3030 
3 4792 5414 2485 
3 4771 5509 5290 
3 1983 5303 1963 
3 1908 5068 1907 
3 5017 5018 3233 
3 4872 4873 3299 
3 2100 5117 2097 
3 5878 5971 5797 
3 4952 4986 2913 
3 3806 4900 3265 
3 2080 5097 2078 
3 3288 5433 3037 
3 4677 5743 2396 
3 4943 4944 2665 
3 3182 4880 3584 
3 3423 5433 4397 
3 5989 6000 4447 
3 2897 4966 2695 
3 4932 5734 3490 
3 3193 5002 3209 
3 5000 5525 3878 
3 2273 4970 2275 
3 4674 5840 5781 
3 3027 4917 3588 
3 4024 5851 5580 
3 2281 4721 2278 
3 4891 4892 4745 
3 2804 5665 5562 
3 4540 4812 3585 
3 4875 5939 2878 
3 2642 4867 2639 
3 1958 4883 2378 
3 2415 5102 2437 
3 2434 5412 2433 
3 3006 4552 4551 
3 2217 4843 2215 
3 4538 5421 3969 
3 2580 5119 2563 
3 3006 4841 4553 
3 4927 5594 3293 
3 4585 4772 4584 
3 3725 5434 4040 
3 2757 4872 3299 
3 2958 5613 3609 
3 3242 5022 2371 
3 6058 6063 4570 
3 2386 5791 2383 
3 2892 4829 2890 
3 2719 5374 1880 
3 4678 5055 5048 
3 3339 5452 2837 
3 4482 4797 1995 
3 2910 5618 3315 
3 5564 5696 4747 
3 4889 5488 3673 
3 5766 5770 4759 
3 2225 4748 4593 
3 4858 5118 5048 
3 3138 4902 4724 
3 2775 5486 2872 
3 3878 4839 4837 
3 2049 4991 2070 
3 5086 5438 1229 
3 2462 5550 2131 
3 3023 4951 3174 
3 2856 5456 2339 
3 5294 6008 5994 
3 4837 5000 3878 
3 5048 5055 4858 
3 4849 5307 4851 
3 2319 4785 2318 
3 5836 5894 2295 
3 2978 4770 2653 
3 2993 5012 3233 
3 3004 4786 2357 
3 2416 4753 2414 
3 5026 5299 4995 
3 3592 4732 4629 
3 3417 4650 4524 
3 5447 5607 3620 
3 2538 5396 2562 
3 2113 5655 5654 
3 3115 5808 3647 
3 2047 4756 4750 
3 2561 4856 2564 
3 4773 4996 2310 
3 4431 5919 5908 
3 3645 5008 4846 
3 2361 5141 2321 
3 2608 5720 2610 
3 3576 5340 2865 
3 4828 5453 3713 
3 4622 4774 4625 
3 3623 5477 3140 
3 4373 6060 2989 
3 4874 4940 3299 
3 3010 5349 2929 
3 4943 5650 4945 
3 2272 5148 4961 
3 3845 5433 3288 
3 2307 5446 2796 
3 3757 5690 3095 
3 2242 5515 2238 
3 3210 4694 2980 
3 4880 4881 3584 
3 4928 5552 4929 
3 3063 4812 3241 
3 2016 4901 1845 
3 2808 5075 2022 
3 3882 5500 5415 
3 4519 4739 3643 
3 2117 4773 2310 
3 2157 4891 2379 
3 3200 4903 4902 
3 2550 4922 2547 
3 2066 4847 2063 
3 5701 5811 4583 
3 2841 4801 2843 
3 4942 5708 2554 
3 2341 5813 5447 
3 1957 5431 1970 
3 3598 5529 4565 
3 3713 5452 4828 
3 2669 5739 5107 
3 4679 4682 3123 
3 4995 5299 1229 
3 2365 5490 2467 
3 5424 5485 3842 
3 2479 5617 2477 
3 4795 5116 2017 
3 3910 5651 4980 
3 1959 5431 1957 
3 2294 5113 5041 
3 5137 5639 3603 
3 2560 5119 5039 
3 5418 5521 2556 
3 5121 5213 1057 
3 3327 5045 4948 
3 2540 5396 2538 
3 2745 5762 4529 
3 2574 4886 4885 
3 4801 4802 2843 
3 4763 4859 4764 
3 5396 5488 4889 
3 5583 5775 2207 
3 2585 4908 2584 
3 3361 5391 3381 
3 4501 4879 3444 
3 2780 5521 3600 
3 4589 5287 3790 
3 5368 5715 4859 
3 2162 5294 2164 
3 4782 5591 2062 
3 4377 4512 3780 
3 826 5585 5271 
3 3976 5449 3989 
3 3382 5365 3380 
3 4648 5545 3847 
3 3505 4592 3828 
3 2143 4957 2377 
3 3043 5087 2795 
3 2636 4955 2657 
3 1989 5096 1990 
3 3418 4583 4381 
3 1453 5248 1360 
3 3051 5705 4703 
3 3376 5597 3432 
3 4845 4846 2258 
3 3616 5437 2576 
3 2773 5486 2775 
3 3077 5528 3080 
3 4987 5283 3573 
3 4447 5943 4446 
3 4862 5490 2956 
3 3359 5391 3361 
3 3242 5023 5022 
3 2919 4955 3303 
3 3579 5340 3576 
3 2467 5490 3475 
3 4004 4005 3379 
3 3143 5516 3141 
3 5419 5420 4917 
3 582 4487 581 
3 2670 5068 1911 
3 1963 5303 1961 
3 3527 5501 3525 
3 3014 4979 2646 
3 4336 4985 4796 
3 3041 4771 3641 
3 5061 6023 6012 
3 3624 5616 3626 
3 1832 5572 2052 
3 2870 5527 2774 
3 5019 5944 5018 
3 2255 5404 5383 
3 513 4954 516 
3 5074 5757 2101 
3 4786 5266 2357 
3 5681 5896 4770 
3 2743 5097 3582 
3 3006 4551 2943 
3 4943 4945 4944 
3 2691 5385 2693 
3 2076 5555 3243 
3 2866 4679 3123 
3 3186 5506 3596 
3 4477 4968 4967 
3 2662 5933 4557 
3 5058 5745 5691 
3 3919 4684 3917 
3 3251 5670 5648 
3 4005 4488 3379 
3 3038 5307 4849 
3 2661 5057 2506 
3 5849 5887 4918 
3 2639 4867 2906 
3 1893 5103 2043 
3 2351 5268 2348 
3 3875 5587 5077 
3 3315 5618 3879 
3 5427 5428 1773 
3 4633 4642 4635 
3 2824 5545 2970 
3 4747 5696 4746 
3 4930 4955 3574 
3 2750 5671 2863 
3 2646 4979 2625 
3 4354 4984 3420 
3 904 4814 907 
3 5604 5662 3049 
3 5640 5793 3816 
3 2462 5293 4835 
3 4907 5403 2154 
3 3117 5505 3377 
3 2520 5807 2597 
3 3062 4812 3063 
3 3895 4977 3594 
3 2030 5079 2031 
3 2336 5444 2334 
3 804 5121 802 
3 2713 5294 2162 
3 5324 5505 3306 
3 2291 4972 2342 
3 1377 4561 1345 
3 3281 4634 4633 
3 3160 5590 3599 
3 3915 5978 5975 
3 2668 5031 2748 
3 2465 5063 3575 
3 2576 5437 2559 
3 2916 5529 3218 
3 3208 4799 3206 
3 2026 5284 1860 
3 2469 5508 2370 
3 4775 4776 4774 
3 4853 5831 5791 
3 3354 4689 3352 
3 3430 4728 3346 
3 4351 4352 3585 
3 3329 5496 3953 
3 2373 5342 2329 
3 3746 5003 5002 
3 2243 5052 2242 
3 2120 5480 2375 
3 3881 5578 3318 
3 2232 5706 2229 
3 4374 4376 4373 
3 2296 5063 2465 
3 3061 5416 3059 
3 3586 5636 4630 
3 3637 5608 3717 
3 3450 4999 4871 
3 4823 4824 3235 
3 4691 5757 5074 
3 2314 4959 2166 
3 4957 5770 5766 
3 2929 5349 2931 
3 3042 5542 2261 
3 5979 5991 1940 
3 3631 5596 4588 
3 4779 5492 1446 
3 3449 4535 2735 
3 2689 4749 2899 
3 2896 4749 2687 
3 4618 5555 3882 
3 2899 5385 2691 
3 2047 4869 2045 
3 3415 5441 3229 
3 2640 4755 4754 
3 2259 4845 2258 
3 4626 4627 3336 
3 1500 5358 1497 
3 3215 4986 3773 
3 5489 5707 5586 
3 4633 4635 4632 
3 3007 5342 2373 
3 3626 5616 5387 
3 3551 4379 3549 
3 4489 4490 3745 
3 5121 5585 826 
3 3113 4867 2642 
3 2640 4754 2643 
3 2852 4944 3304 
3 3116 5421 2854 
3 4394 4395 2599 
3 3269 5376 3271 
3 3107 5721 2861 
3 5148 5702 4961 
3 5049 5236 1527 
3 2375 5480 3056 
3 4816 4954 511 
3 3703 4504 3560 
3 2749 4940 3607 
3 4740 4742 3572 
3 3926 4354 3420 
3 5527 5589 2776 
3 1165 5047 1163 
3 3451 4870 3455 
3 5220 5221 3300 
3 3925 3926 3420 
3 3667 4831 4830 
3 2042 6057 1918 
3 3851 3852 3850 
3 3792 4865 3543 
3 3285 5250 2770 
3 4665 4666 4664 
3 4389 4514 3539 
3 2089 4896 2288 
3 2734 5602 2737 
3 2825 4854 2619 
3 2570 5307 2567 
3 3423 4397 3795 
3 5443 5976 5962 
3 5059 5392 3874 
3 2839 5507 3087 
3 4858 5055 1240 
3 3366 4809 4808 
3 4480 5596 3633 
3 4271 4503 3469 
3 3220 5529 2917 
3 3012 3438 3395 
3 4635 4641 4640 
3 2309 5301 2360 
3 2549 4861 2546 
3 1470 5027 1547 
3 1913 5392 1915 
3 3567 4338 3565 
3 5048 5118 5047 
3 4033 4783 4036 
3 3893 3894 3594 
3 3191 4525 3177 
3 2304 5134 2134 
3 3847 5545 5087 
3 2145 4957 2143 
3 3251 5648 2253 
3 4531 4645 4530 
3 5108 5109 1974 
3 511 4954 513 
3 3728 3743 3742 
3 3873 4731 3807 
3 3289 5062 3290 
3 2024 5539 3644 
3 3240 5528 3077 
3 4790 4792 2485 
3 2908 5718 2822 
3 2447 5205 2960 
3 3338 4921 3751 
3 5057 5854 5764 
3 4874 5306 3607 
3 4936 5686 5561 
3 4759 5770 4758 
3 1481 5427 1773 
3 1229 5438 4995 
3 5058 5691 2367 
3 3153 4626 3336 
3 5386 5714 3893 
3 3860 3932 3862 
3 4796 4985 3399 
3 3031 5038 3035 
3 3729 3730 3121 
3 3559 3778 3557 
3 4510 5843 5286 
3 3142 4723 3333 
3 3238 5800 4819 
3 2275 5493 2268 
3 2460 4720 4704 
3 2116 4997 2118 
3 3296 3843 3842 
3 4983 5492 1521 
3 4514 5605 3537 
3 3598 4326 4324 
3 2849 3108 3107 
3 4903 4906 4902 
3 4904 6134 4905 
3 5865 5866 5473 
3 2050 5614 2046 
3 1530 5099 5098 
3 2256 5474 2263 
3 2360 4838 4837 
3 2033 5079 2030 
3 3601 4867 3113 
3 2707 4937 3786 
3 3634 5064 3877 
3 4671 5464 4672 
3 2005 4878 2723 
3 1209 5448 5344 
3 2027 4899 2028 
3 4553 4556 4555 
3 2134 5134 2136 
3 1956 4883 1958 
3 2574 4888 4886 
3 3247 3784 3783 
3 3303 4955 4930 
3 2584 4908 3320 
3 3710 3711 3116 
3 2173 5009 2271 
3 5453 5541 5518 
3 3156 4740 3572 
3 4839 5522 3597 
3 3418 4380 3788 
3 3834 4428 3430 
3 3536 3538 3537 
3 2459 5443 2387 
3 3882 5555 5500 
3 3079 4536 3076 
3 5018 5255 3233 
3 2796 5507 2839 
3 2566 5307 3038 
3 2851 5031 2668 
3 4953 4988 3571 
3 5446 5507 2796 
3 3707 3934 3662 
3 2249 5404 2255 
3 1532 5384 5066 
3 3401 5465 3082 
3 2544 5568 2542 
3 2082 5093 2084 
3 3651 5376 3269 
3 3560 3562 3561 
3 3180 4880 3182 
3 2514 5020 2613 
3 5130 5355 4954 
3 1420 5111 1217 
3 2913 3215 3214 
3 729 5355 5130 
3 3598 4565 4326 
3 4432 4433 2986 
3 3411 4582 3787 
3 4881 4882 3584 
3 3283 3286 2957 
3 3381 5391 3911 
3 3771 5164 3462 
3 2875 3276 3250 
3 2310 5655 2115 
3 3604 3606 3605 
3 4693 5853 5845 
3 3530 3532 3531 
3 5082 5120 5110 
3 1873 5138 2724 
3 3035 3287 3037 
3 3444 4564 3217 
3 3596 5506 4852 
3 3735 3947 3736 
3 3789 3790 2915 
3 3760 5365 3382 
3 3505 3828 3507 
3 4667 4669 4668 
3 3896 4459 4458 
3 3583 4982 4358 
3 4912 4913 1680 
3 1530 5106 5099 
3 4641 4643 4640 
3 4658 4660 4657 
3 4682 4734 3123 
3 3042 5831 5592 
3 5903 6049 4655 
3 2518 5162 2516 
3 4830 4831 4829 
3 3114 3883 3371 
3 3788 4650 3416 
3 4345 4371 4344 
3 1875 5138 1873 
3 3326 4507 2963 
3 1227 5047 1165 
3 3327 4947 4946 
3 3413 4350 4349 
3 3610 3611 3589 
3 3678 5682 5622 
3 4395 4647 2599 
3 2402 4971 2400 
3 2877 5725 2992 
3 3609 3891 3890 
3 3380 4004 3379 
3 3774 4796 3399 
3 3933 4579 3589 
3 2515 4884 2662 
3 2955 3267 3266 
3 1851 4974 2742 
3 3209 5002 4804 
3 1470 5030 5027 
3 3495 4857 3944 
3 4777 4778 4776 
3 5513 5675 2091 
3 2782 5315 2784 
3 3495 3943 3496 
3 4771 5319 3641 
3 3550 3551 3549 
3 3952 4809 3366 
3 5110 5120 1528 
3 3826 5925 4834 
3 3894 3895 3594 
3 4634 4636 4633 
3 2321 5141 2323 
3 5070 5445 5316 
3 4361 5701 3407 
3 3723 3733 3722 
3 3817 4670 4454 
3 1156 4858 1240 
3 3955 6451 3954 
3 3619 5602 2733 
3 4461 4463 4462 
3 3518 3519 3517 
3 3778 4520 3557 
3 3423 3795 3424 
3 3631 4588 3629 
3 5122 5603 2621 
3 5083 5316 1420 
3 3840 4558 3474 
3 3697 6050 6043 
3 3248 4539 3415 
3 3562 3704 3564 
3 3617 3789 2915 
3 4611 4612 4610 
3 2286 4836 2102 
3 2255 5474 2256 
3 4338 4938 3565 
3 5589 5823 2776 
3 3499 4793 2054 
3 1369 5026 1403 
3 3434 3444 3217 
3 1829 5043 1831 
3 3883 5478 5398 
3 3275 4794 3907 
3 3538 3540 3539 
3 1998 5091 2002 
3 3860 3862 3861 
3 3110 3111 2844 
3 4465 5672 4462 
3 3645 5483 2382 
3 3321 3639 3338 
3 2085 5093 2082 
3 508 4816 511 
3 1980 5595 1975 
3 2762 5444 2336 
3 3462 5164 3459 
3 3821 3825 3819 
3 2564 4856 2568 
3 3352 3353 2978 
3 2219 5581 2798 
3 3822 3823 3821 
3 1709 5029 5028 
3 5100 5523 583 
3 4842 5707 2293 
3 3470 3471 3469 
3 5552 5686 4935 
3 4834 5925 3499 
3 3364 4808 3956 
3 3611 3933 3589 
3 2943 4551 2945 
3 1217 5111 1230 
3 3640 5728 5641 
3 1407 5076 1455 
3 5861 5893 3896 
3 3762 3763 3761 
3 3609 4595 3891 
3 4602 4603 4601 
3 2496 4911 3914 
3 2562 5396 4889 
3 4820 4822 4818 
3 4339 4340 3401 
3 3006 4553 4552 
3 2935 3277 2937 
3 3824 4534 4533 
3 2859 5760 3655 
3 3009 3012 3011 
3 1511 5028 1512 
3 5336 5338 5337 
3 2807 2957 2361 
3 3629 5751 3628 
3 1860 5284 1862 
3 3474 5137 3844 
3 3238 4817 2940 
3 3583 4358 4343 
3 583 5523 4816 
3 5254 5438 5086 
3 2650 4754 3009 
3 2798 4843 2217 
3 3218 3598 3398 
3 4443 4501 3444 
3 5133 5405 1612 
3 4603 5988 4604 
3 3849 3850 3619 
3 4673 4830 4829 
3 2901 5081 3075 
3 4352 4541 4540 
3 2910 3315 3212 
3 3519 3520 3517 
3 3224 3700 3226 
3 3624 3626 3625 
3 4954 5355 516 
3 2854 5421 2855 
3 4750 4781 2047 
3 1497 5358 1496 
3 2554 5004 4942 
3 3866 3867 3864 
3 2542 5568 3314 
3 1516 5055 4678 
3 3343 4664 3086 
3 2516 5162 5020 
3 3389 5045 3187 
3 1556 4912 1680 
3 3807 4456 3812 
3 3813 4441 3814 
3 2843 5443 2459 
3 3435 4332 4321 
3 3485 3486 3484 
3 3773 4336 4335 
3 2623 5481 2622 
3 5247 5248 4418 
3 4837 4839 4836 
3 2990 4478 2876 
3 1512 5028 1546 
3 2481 4969 2647 
3 2974 3363 2973 
3 2719 5375 5374 
3 3586 4630 3330 
3 1216 5086 1229 
3 3612 3613 3411 
3 3475 3476 3447 
3 3541 4389 3539 
3 4983 5438 1522 
3 5289 5585 1057 
3 3544 4973 3684 
3 3607 5440 2747 
3 3600 5315 2782 
3 4681 4683 4680 
3 1518 5030 1406 
3 2470 4788 2473 
3 5032 5888 5761 
3 2790 5750 2788 
3 3231 4656 2928 
3 3070 5416 3061 
3 3051 4702 2397 
3 2918 5578 2656 
3 3512 3831 3441 
3 3341 5624 5623 
3 3268 5071 3427 
3 3818 3819 3817 
3 2363 5301 2309 
3 2973 3513 2971 
3 5333 5334 3579 
3 4577 4980 3197 
3 3295 5649 2428 
3 3848 3849 3619 
3 3114 5478 3883 
3 2955 3264 2954 
3 3314 5396 2540 
3 4352 4540 3585 
3 3290 5062 3296 
3 4962 5395 2704 
3 3545 3792 3543 
3 4703 4706 4705 
3 1510 5112 1380 
3 2733 2734 2732 
3 4715 5514 4719 
3 2869 4952 2651 
3 3380 5365 4004 
3 3324 4898 2964 
3 2345 5757 5751 
3 1369 5299 5026 
3 2353 4918 2806 
3 4629 5688 3592 
3 3303 4930 4928 
3 5315 5678 3043 
3 2956 5490 2344 
3 1859 5021 2746 
3 3369 4628 3959 
3 2859 3655 3121 
3 3883 3884 3371 
3 3357 3621 2834 
3 3464 3725 3466 
3 4481 4900 3806 
3 1520 5026 4995 
3 3413 3779 3412 
3 3178 3179 3177 
3 4209 4210 3389 
3 3640 4835 4810 
3 3804 3805 3265 
3 1992 4797 1991 
3 3012 3395 3394 
3 2901 3074 3004 
3 2074 5500 2067 
3 3160 3599 3342 
3 1360 5248 1358 
3 3021 3909 3591 
3 2627 4979 4978 
3 3384 3760 3382 
3 1502 5094 4122 
3 3093 4694 3756 
3 2031 5079 3050 
3 2654 4952 2913 
3 1898 5509 1900 
3 2370 5508 2369 
3 5047 5118 1163 
3 2052 5572 3499 
3 2935 4632 3277 
3 4860 5113 2096 
3 1421 5285 1528 
3 5633 5847 3010 
3 2992 2993 2991 
3 3540 3541 3539 
3 3753 3833 3832 
3 2734 2735 2732 
3 3457 3460 3459 
3 2945 2947 2946 
3 3478 3479 3477 
3 3366 4808 3364 
3 1406 5030 1371 
3 3534 3691 3536 
3 5066 5384 1409 
3 3702 4323 3701 
3 3688 5042 3081 
3 3902 4344 3613 
3 3754 4617 3753 
3 2457 4748 2223 
3 2805 2978 2653 
3 3626 3722 3625 
3 3058 3060 3059 
3 2111 5654 2293 
3 2775 2872 2871 
3 3720 3737 3115 
3 2796 2839 2797 
3 2160 4844 2713 
3 3224 3225 3223 
3 3638 5486 2773 
3 1321 5055 1516 
3 3831 4586 3441 
3 3035 3037 3036 
3 3670 4786 3004 
3 3241 5001 3071 
3 2953 4847 2066 
3 2968 4868 3337 
3 2392 5512 2395 
3 2993 2994 2991 
3 4414 4446 4413 
3 3359 3361 3360 
3 3530 3595 3532 
3 3054 3055 3053 
3 4951 5728 3174 
3 3748 3962 3716 
3 3257 3428 3407 
3 2875 3483 3276 
3 3835 5706 4877 
3 3055 3886 3053 
3 2900 3325 2963 
3 2011 5116 2900 
3 3841 5851 5454 
3 3084 3688 3081 
3 3256 3603 3254 
3 3369 3959 3370 
3 2740 5522 5064 
3 2970 5545 3289 
3 1837 5069 2010 
3 3513 5084 2971 
3 4543 4544 4542 
3 3948 4864 4863 
3 3705 3706 3568 
3 4491 4631 3745 
3 2949 2951 2950 
3 3655 3729 3121 
3 2449 5205 2447 
3 3471 4271 3469 
3 3776 4328 3775 
3 4869 4992 4991 
3 2741 5577 5576 
3 3246 4618 3047 
3 4819 4820 4818 
3 3091 3687 3658 
3 2321 2322 2319 
3 3446 5516 3143 
3 1831 5043 1834 
3 3059 5416 3905 
3 2565 5458 4929 
3 2980 2981 2894 
3 1595 5316 5083 
3 2673 4726 2697 
3 2976 4801 2841 
3 3397 3675 3214 
3 3877 4839 3878 
3 3921 3985 3922 
3 3691 4619 3536 
3 3308 5586 3310 
3 2959 2962 2961 
3 3345 3346 3169 
3 1530 5098 1564 
3 3334 3964 3388 
3 5035 5036 1498 
3 3441 3442 3196 
3 2527 5140 2529 
3 3189 3389 3187 
3 3275 3409 3408 
3 3095 5690 3096 
3 3528 3530 3529 
3 2343 2856 2339 
3 2342 4721 2281 
3 3071 3073 3072 
3 3523 3811 3520 
3 3008 3283 2957 
3 5077 5587 3030 
3 2707 3786 2705 
3 2595 5407 3025 
3 2791 3171 2826 
3 3666 3669 3068 
3 1240 5055 1321 
3 3078 3670 3004 
3 5752 5765 2013 
3 3151 4626 3153 
3 2935 2937 2936 
3 3749 4020 3748 
3 2701 2706 2705 
3 1527 5236 1237 
3 4718 5912 5746 
3 4670 5413 2461 
3 2945 3261 2947 
3 3149 4623 4622 
3 2800 2964 2441 
3 3179 3191 3177 
3 4346 4353 3489 
3 2345 5751 4588 
3 3763 3764 3761 
3 2833 4969 2483 
3 3165 3205 3167 
3 2764 5698 2762 
3 3329 3330 3208 
3 2568 4856 3429 
3 3865 3866 3864 
3 1225 5086 1216 
3 4553 4555 4554 
3 1468 5076 1407 
3 1363 5106 1366 
3 1201 5088 1199 
3 3577 4692 3580 
3 3209 4801 2976 
3 2110 2714 2112 
3 1523 5112 1510 
3 5027 5030 1518 
3 3245 3925 3420 
3 4577 4981 4980 
3 2332 5446 2307 
3 4490 4491 3745 
3 4969 5387 2647 
3 2617 5401 2604 
3 3259 5353 2951 
3 1452 5035 1498 
3 1454 5236 5049 
3 3577 3580 3578 
3 3428 3796 3407 
3 3299 4940 2755 
3 3275 3907 3409 
3 3456 3457 3454 
3 3827 4515 3497 
3 3924 5645 2808 
3 3083 3406 3401 
3 3249 3402 3248 
3 4007 4008 3392 
3 4910 5485 5424 
3 4672 4673 3067 
3 3349 3630 3629 
3 1514 5028 1511 
3 1196 5082 1200 
3 2809 3449 2735 
3 3431 3834 3430 
3 4468 4470 4469 
3 3418 3788 3416 
3 1538 5358 1500 
3 1532 5066 1536 
3 3485 3835 3501 
3 4603 4604 4601 
3 3439 4347 3395 
3 2942 3238 2940 
3 2998 3005 2996 
3 2574 4885 4884 
3 3578 5333 3579 
3 2721 4855 2021 
3 3552 3553 3551 
3 4630 5764 3674 
3 2420 4516 2408 
3 3199 4681 4680 
3 3422 4356 3259 
3 4356 5353 3259 
3 4357 4411 4356 
3 3799 4402 3522 
3 4728 4832 3169 
3 3968 3969 3711 
3 3500 4648 3847 
3 2741 5576 1989 
3 2982 2983 2968 
3 1528 5285 5110 
3 3495 3944 3943 
3 3355 3356 3354 
3 3562 3564 3563 
3 3987 4025 3986 
3 3603 4768 3254 
3 3558 3559 3557 
3 2419 2420 2408 
3 3066 3665 3068 
3 1834 5043 3445 
3 3881 5668 5667 
3 3149 4621 3148 
3 5344 5448 5083 
3 5088 5196 5089 
3 3020 5702 4951 
3 3056 3279 3278 
3 2414 4753 2436 
3 2977 5524 3195 
3 3548 3549 3547 
3 2367 2966 2844 
3 3657 4729 3936 
3 3253 3254 2874 
3 3693 3781 3780 
3 2993 3233 2995 
3 400 5092 533 
3 3807 3812 3806 
3 4686 4688 4685 
3 4629 4732 2389 
3 2907 5346 3168 
3 4846 5368 3645 
3 3077 3079 3076 
3 2775 2870 2774 
3 2930 3231 2928 
3 4397 4425 3795 
3 2815 5041 3313 
3 2819 2820 2818 
3 2941 2942 2940 
3 3135 3136 3134 
3 3693 3780 3242 
3 2164 2314 2166 
3 3709 3710 3116 
3 3142 3144 3143 
3 2689 2899 2691 
3 2311 5041 2815 
3 3331 3586 3330 
3 5129 5417 5089 
3 2817 2818 2455 
3 3346 4728 3169 
3 3728 3741 3727 
3 3199 4679 2866 
3 2579 5283 3015 
3 3227 5441 3793 
3 5804 5993 3627 
3 2125 4961 2464 
3 3153 3155 3154 
3 2827 2888 2887 
3 3226 3228 3227 
3 4693 5845 3580 
3 3821 5330 3825 
3 3325 3326 2963 
3 2756 2757 2755 
3 3918 3920 3919 
3 2007 5364 2009 
3 4553 4841 4556 
3 2292 4957 2145 
3 3247 3783 3782 
3 2473 4788 2878 
3 2958 3301 2959 
3 3503 4592 3505 
3 3145 4933 3446 
3 3148 3151 3150 
3 5335 5340 3579 
3 3260 4394 2599 
3 3510 4697 3798 
3 2418 2419 2408 
3 2799 5543 2681 
3 2832 3490 2663 
3 5311 5312 5090 
3 4039 4043 3752 
3 3566 3567 3565 
3 3221 3702 3701 
3 3171 3738 3571 
3 3381 3383 3382 
3 5565 5958 5957 
3 2763 2849 2764 
3 2681 5543 2679 
3 3349 3628 3111 
3 3002 3802 3800 
3 3043 5678 5073 
3 3311 5377 3309 
3 2170 2313 2172 
3 2756 3106 2854 
3 3728 3742 3741 
3 3218 3398 3219 
3 2910 3212 3211 
3 4437 4438 3790 
3 4492 4493 4491 
3 3273 3274 3272 
3 3574 4955 2636 
3 4466 4468 4467 
3 3142 3333 3144 
3 3967 3968 3711 
3 2480 2482 2481 
3 3096 3098 3097 
3 3593 3594 2257 
3 4340 5465 3401 
3 2360 4836 2286 
3 5089 5196 5129 
3 2756 2854 2757 
3 3632 3633 3631 
3 3435 4589 4332 
3 4789 5114 4791 
3 3433 3434 3217 
3 2040 4482 1997 
3 3481 4414 4413 
3 3769 3978 3768 
3 3503 4877 4592 
3 3494 3498 3497 
3 3568 3569 3567 
3 3326 4509 4508 
3 2487 2489 2488 
3 4992 5220 3300 
3 3712 3728 3727 
3 5340 5547 2865 
3 3412 3487 2988 
3 3088 3372 3090 
3 4673 4829 3067 
3 3052 5078 2075 
3 2415 2416 2414 
3 2344 2365 2364 
3 2421 2466 2416 
3 3824 4533 3826 
3 3096 3099 3098 
3 3369 3370 3107 
3 3269 3270 3268 
3 3264 3265 2954 
3 2442 5061 2426 
3 3060 3085 3062 
3 2493 2495 2494 
3 3896 4458 3895 
3 2693 2695 2694 
3 2853 3198 2904 
3 2365 2370 2369 
3 3282 3830 3829 
3 3662 3663 3105 
3 3209 4803 4801 
3 3321 3678 3639 
3 3327 4948 4947 
3 3145 3446 3143 
3 5417 5479 5089 
3 3287 3288 3037 
3 3989 3990 3988 
3 1403 5026 1459 
3 2627 4978 2629 
3 2660 2877 2876 
3 4739 5860 2777 
3 2386 5872 4853 
3 3805 3806 3265 
3 3457 3458 3454 
3 4660 4662 4657 
3 3544 3545 3543 
3 4496 6126 4495 
3 2853 3653 3198 
3 2098 2099 2097 
3 3146 3147 3145 
3 2353 2806 2356 
3 2489 2491 2490 
3 3130 4894 3128 
3 3076 3680 3072 
3 3965 3993 3937 
3 1366 5106 1530 
3 2067 2076 2066 
3 3378 4931 3101 
3 2657 2919 2917 
3 3829 4767 3437 
3 2108 2110 2109 
3 3809 4451 4450 
3 2975 3708 3007 
3 4468 4469 4467 
3 1994 5090 1996 
3 5082 5110 1200 
3 2711 4962 2684 
3 2317 2320 2319 
3 3635 3636 2825 
3 1371 5030 1382 
3 4622 4625 4624 
3 2371 2372 2329 
3 2857 5449 4811 
3 3100 5033 5032 
3 3682 3799 3522 
3 2160 2713 2162 
3 3357 3622 3621 
3 2158 2159 2157 
3 3596 4798 4760 
3 4379 4528 3549 
3 4713 4716 4715 
3 2813 3058 3057 
3 3207 3208 3206 
3 4703 4705 4704 
3 2995 2997 2996 
3 2818 5046 2885 
3 2838 3202 2837 
3 3206 3659 3167 
3 2362 4782 2060 
3 2779 5140 2527 
3 5450 5578 3881 
3 2923 2925 2924 
3 3109 3720 3115 
3 2750 2751 2749 
3 2654 2911 2655 
3 3599 5652 4034 
3 2981 4671 2894 
3 2686 2711 2684 
3 3034 3514 3032 
3 3451 3455 3453 
3 4742 4743 3572 
3 2836 2838 2837 
3 5472 5473 4681 
3 5028 5029 1546 
3 1461 5389 1460 
3 4567 4568 4566 
3 2288 4896 2331 
3 1380 5112 1379 
3 3027 3588 3112 
3 2939 5709 4841 
3 2616 2617 2604 
3 2654 2913 2911 
3 3048 3246 3047 
3 2470 2472 2471 
3 3665 3666 3068 
3 3838 4435 3827 
3 2743 3284 2770 
3 2489 2492 2491 
3 1948 5085 2744 
3 4494 4495 4493 
3 2789 2790 2788 
3 3312 3334 3311 
3 2329 5342 2305 
3 3190 5173 3189 
3 3711 5421 3116 
3 2564 2567 2566 
3 4565 4566 4326 
3 2736 2809 2735 
3 2133 2462 2131 
3 3287 3840 3474 
3 4532 4538 3969 
3 2818 2885 2455 
3 2674 2675 2673 
3 3141 5516 3440 
3 3640 5641 4835 
3 4657 4659 4656 
3 3630 3631 3629 
3 3790 5287 2915 
3 2312 5058 2367 
3 2877 2990 2876 
3 2638 2640 2639 
3 3236 3237 3040 
3 3088 3090 3089 
3 5098 5390 1564 
3 3817 4454 3815 
3 2901 3075 3074 
3 3486 4506 3484 
3 1322 5445 5070 
3 3551 4941 4379 
3 2126 2127 2125 
3 4427 4429 3697 
3 5052 5593 2242 
3 2749 3607 2747 
3 3087 3343 3086 
3 2966 3110 2844 
3 2901 3004 2357 
3 3494 3497 3492 
3 4709 4710 4708 
3 3386 4014 3350 
3 4816 5130 4954 
3 4684 4898 3917 
3 2949 3258 2951 
3 5104 5853 4693 
3 3127 3128 3126 
3 4789 4791 4790 
3 2780 3600 2782 
3 5534 5689 2615 
3 3416 3417 3256 
3 5073 5620 3590 
3 2385 2386 2383 
3 3158 4741 4740 
3 4716 4717 4715 
3 3979 4153 3978 
3 3041 3641 3400 
3 3729 3942 3730 
3 2943 2945 2944 
3 2994 4620 2991 
3 1199 5088 1203 
3 5751 5757 4691 
3 3252 3253 2874 
3 2101 2285 2102 
3 2625 4979 2627 
3 2099 2100 2097 
3 3168 5346 3385 
3 3556 3557 3555 
3 2493 4920 2495 
3 3021 3910 3909 
3 3406 4339 3401 
3 3997 3998 3473 
3 3082 5465 3084 
3 3810 4442 3623 
3 4724 4725 4723 
3 1526 5448 1207 
3 3761 4897 3760 
3 3090 3092 3091 
3 2440 2442 2426 
3 3151 3153 3152 
3 2960 5142 2445 
3 3399 5487 3011 
3 3590 5620 5119 
3 3862 3872 3871 
3 1201 5196 5088 
3 3250 3785 3251 
3 2480 2485 2482 
3 2028 2032 2030 
3 3158 4740 3156 
3 1164 1602 1166 
3 3656 3676 3657 
3 2143 2377 2141 
3 3641 3776 3775 
3 6051 6059 4696 
3 2090 2091 2071 
3 3017 3018 3016 
3 2280 2281 2278 
3 3171 4811 3740 
3 3822 3824 3823 
3 3987 4026 4025 
3 1355 5120 5082 
3 2822 2832 2663 
3 4709 4711 4710 
3 3921 3922 3919 
3 3039 3040 2761 
3 3841 4854 2825 
3 3523 4956 3811 
3 2439 2663 2425 
3 2923 4925 3293 
3 2595 3025 2621 
3 5475 5662 3966 
3 3976 3988 3977 
3 5336 5337 5335 
3 1385 5254 1356 
3 2743 3582 3284 
3 2574 4884 2513 
3 2237 2731 2730 
3 2035 2039 2038 
3 2353 2356 2354 
3 2529 5140 2572 
3 4607 4609 4608 
3 2708 2709 2707 
3 2157 2379 2155 
3 3507 3509 3508 
3 3199 4680 4679 
3 3744 3987 3986 
3 3493 3494 3492 
3 3157 3158 3156 
3 5371 5566 2794 
3 3512 5524 4763 
3 2849 3107 2861 
3 3534 3536 3535 
3 2473 2878 2475 
3 3475 5490 4862 
3 3031 3032 3030 
3 3503 3505 3504 
3 2331 4896 3300 
3 3781 4377 3780 
3 2893 2894 2892 
3 2331 2333 2332 
3 1234 5384 1357 
3 1356 5254 5086 
3 3124 3126 3125 
3 2305 4972 2291 
3 2365 2467 2370 
3 4595 4598 4596 
3 2320 2321 2319 
3 2622 2825 2619 
3 2866 2867 2847 
3 4713 4715 4712 
3 3588 3589 3112 
3 3525 4956 3523 
3 3938 3941 3759 
3 3744 3986 3742 
3 1244 5384 1234 
3 2836 5022 3488 
3 3352 3732 3353 
3 2811 3242 2371 
3 3554 3556 3555 
3 2429 2431 2430 
3 3747 3961 3677 
3 3916 3917 3324 
3 3101 3102 3100 
3 3160 3342 3161 
3 2060 2062 2061 
3 2839 3087 3086 
3 3127 3129 3128 
3 2219 2798 2217 
3 2629 2638 2637 
3 2471 5618 2910 
3 2147 2292 2145 
3 3730 5010 3121 
3 2220 4993 2457 
3 3459 5164 3458 
3 3993 4385 3937 
3 3375 3376 3346 
3 3464 3465 3463 
3 3202 3339 2837 
3 2815 3313 2859 
3 3640 4810 3178 
3 3047 3882 3045 
3 3023 3173 3172 
3 3698 4685 3403 
3 2650 3009 2869 
3 2758 5108 1872 
3 2241 2242 2238 
3 3575 3576 2865 
3 2409 2460 2411 
3 3015 4861 2549 
3 2608 2609 2607 
3 3606 5059 3874 
3 2114 2330 2116 
3 4459 4464 4461 
3 2397 2399 2398 
3 2054 2069 2068 
3 3224 3226 3225 
3 3944 4032 3963 
3 2463 2842 2841 
3 3950 3992 3949 
3 2019 4878 2003 
3 3330 3674 3208 
3 3416 4650 3417 
3 1209 5344 1212 
3 2510 4840 2508 
3 2620 5689 2624 
3 4929 5107 4926 
3 2723 5733 5699 
3 2128 2767 2130 
3 5125 5136 5135 
3 3174 3175 3173 
3 5035 5133 5036 
3 4674 5817 4673 
3 3581 3652 3312 
3 2624 2646 2625 
3 2831 5986 5302 
3 1388 5331 1319 
3 3421 3422 3259 
3 2136 2137 2135 
3 3618 5593 3848 
3 2625 2627 2626 
3 2675 4727 4726 
3 3216 3217 3014 
3 3308 3310 3309 
3 1612 5405 1471 
3 2594 2596 2595 
3 3796 4361 3407 
3 3334 3388 3311 
3 3948 4863 3736 
3 2132 2133 2131 
3 3825 5413 4670 
3 1499 5094 1502 
3 2753 2755 2751 
3 2603 2604 2602 
3 2082 2084 2080 
3 3676 3677 3657 
3 3765 3767 3766 
3 2126 5366 2128 
3 3081 5042 3079 
3 2172 2174 2173 
3 3080 3081 3079 
3 2309 2360 2286 
3 2612 4922 2550 
3 3779 4649 3412 
3 2622 5481 3635 
3 2889 2890 2888 
3 3067 4829 2892 
3 3193 3209 2976 
3 2780 2782 2781 
3 3597 5522 5117 
3 2937 2939 2938 
3 3041 3236 3040 
3 4803 4876 4805 
3 2273 2275 2268 
3 4034 4783 4033 
3 2718 4907 2152 
3 3481 4413 4412 
3 3153 3336 3155 
3 1832 2051 1830 
3 1063 5310 5156 
3 2451 2884 2449 
3 2636 2657 2656 
3 2264 2265 2259 
3 2454 2455 2453 
3 3850 5602 3619 
3 3186 3188 3187 
3 1194 5082 1196 
3 3092 4560 3091 
3 2604 3573 2602 
3 5119 5620 5039 
3 2372 2836 2835 
3 2106 2664 2085 
3 2850 3357 2834 
3 4033 4035 3342 
3 1242 5129 1211 
3 2156 2157 2155 
3 1516 4678 4646 
3 2470 2473 2472 
3 2220 2223 2222 
3 2912 2967 2655 
3 3636 3841 2825 
3 4779 4780 1556 
3 2136 2726 2138 
3 3648 5784 5589 
3 3956 3957 3363 
3 3317 3612 3411 
3 2478 2479 2477 
3 3340 3341 2908 
3 3498 3827 3497 
3 3511 4751 4750 
3 2076 2953 2066 
3 2872 5486 3317 
3 3356 5952 3995 
3 3622 3955 3954 
3 3786 5249 2705 
3 654 5135 1113 
3 2894 3067 2892 
3 2701 2886 2706 
3 3813 3814 3278 
3 4142 4143 1538 
3 2795 5087 2824 
3 2142 2143 2141 
3 2812 3262 2813 
3 3040 5779 2761 
3 2294 5041 2311 
3 2405 2406 2402 
3 2975 3713 3708 
3 628 5135 654 
3 2184 2186 2185 
3 2827 2889 2888 
3 4452 4453 4451 
3 2159 4891 2157 
3 1882 5374 1965 
3 2775 2871 2870 
3 3470 5536 3472 
3 2072 2074 2067 
3 398 5092 400 
3 2438 2439 2425 
3 2905 5510 3335 
3 2750 2863 2752 
3 3063 3241 3071 
3 3356 3946 3354 
3 2330 4997 2116 
3 3038 3500 2580 
3 2028 4899 2032 
3 2443 2444 2435 
3 4527 6190 4526 
3 3639 3931 3930 
3 3725 3752 3466 
3 3920 3921 3919 
3 5013 5015 5014 
3 3230 3249 3248 
3 2136 5134 2726 
3 3023 3174 3173 
3 2787 2788 2785 
3 2384 2385 2383 
3 1956 1958 1957 
3 1975 3777 1971 
3 1629 1721 1630 
3 2919 3303 2921 
3 3027 3112 3028 
3 2392 2395 2394 
3 3758 3887 3170 
3 3906 4391 3615 
3 3093 3756 3095 
3 5648 5670 5404 
3 2338 2763 2762 
3 3618 3848 3619 
3 2255 2256 2252 
3 2263 2264 2259 
3 1858 5067 2026 
3 4873 4874 3299 
3 2852 3117 2851 
3 2975 3007 2373 
3 2395 2396 2394 
3 4613 4652 4614 
3 2265 4845 2259 
3 3509 3697 3510 
3 2979 3352 2978 
3 3656 3657 3387 
3 2166 2168 2167 
3 2206 2210 2205 
3 2192 2194 2193 
3 3364 3956 3363 
3 3322 3324 2964 
3 2079 2081 2080 
3 2960 5386 5142 
3 3530 3531 3529 
3 2340 2343 2339 
3 2834 5511 2438 
3 2031 2881 2801 
3 3526 3527 3525 
3 3393 4007 3392 
3 3165 3939 3205 
3 2372 5022 2836 
3 2907 3168 3024 
3 3367 3952 3366 
3 2582 2585 2584 
3 3403 3404 3402 
3 2695 2698 2694 
3 3505 3507 3506 
3 2508 2661 2506 
3 3599 4033 3342 
3 3186 3596 3188 
3 1520 4995 4983 
3 2116 2118 2117 
3 3449 4547 4546 
3 2631 2632 2617 
3 3255 3256 3254 
3 2077 5439 2068 
3 2210 2389 2205 
3 2509 2510 2508 
3 3185 3327 3183 
3 2537 2538 2536 
3 2828 2830 2363 
3 3946 4689 3354 
3 2951 5353 2952 
3 2119 4773 2117 
3 2855 4872 2757 
3 3335 3340 2908 
3 2566 3038 2580 
3 5035 5405 5133 
3 2687 2689 2688 
3 1420 5316 5111 
3 1969 4883 1956 
3 2507 2508 2506 
3 2403 2429 2428 
3 1984 5021 1861 
3 2220 2457 2223 
3 2587 2600 2588 
3 3853 4923 3855 
3 2526 2586 2524 
3 3180 3182 3181 
3 4034 4784 4783 
3 2495 2497 2496 
3 3221 3222 3003 
3 2774 2776 2772 
3 3182 3184 3183 
3 3184 3185 3183 
3 3710 3967 3711 
3 3096 3097 3094 
3 2312 2367 2346 
3 2084 5097 2080 
3 2482 2484 2483 
3 3348 3349 3111 
3 3289 3290 3204 
3 5383 5474 2255 
3 3156 3572 3154 
3 2478 4789 2480 
3 2579 3015 2549 
3 2999 3001 3000 
3 3100 5032 3098 
3 3216 3433 3217 
3 2092 2093 2091 
3 2240 2241 2238 
3 2207 2209 2208 
3 1221 5285 1421 
3 3816 3817 3815 
3 3309 5377 3719 
3 4604 5991 5979 
3 2295 4860 2094 
3 1834 3445 1836 
3 2049 2070 2050 
3 2561 2563 2560 
3 5156 5310 959 
3 2795 2824 2823 
3 2709 4937 2707 
3 4856 5677 3429 
3 1861 5021 1859 
3 2452 2453 2451 
3 3501 3503 3502 
3 4517 5554 3950 
3 3114 3347 3113 
3 2830 2831 2363 
3 2218 2219 2217 
3 3201 5154 2448 
3 2933 2935 2934 
3 3050 3885 3634 
3 2120 2121 2119 
3 2788 4994 2785 
3 2891 2892 2890 
3 2176 2177 2175 
3 3290 3291 3204 
3 2778 2850 2834 
3 2288 2331 2307 
3 2902 2903 2830 
3 3463 3770 3462 
3 3738 3739 3571 
3 2997 2998 2996 
3 2513 2515 2514 
3 3961 4145 3677 
3 2144 2145 2143 
3 2980 4694 3093 
3 3271 3273 3272 
3 2931 2933 2932 
3 2640 2642 2639 
3 3353 4770 2978 
3 1847 2016 1845 
3 3018 5549 3016 
3 3376 3430 3346 
3 2331 3300 2333 
3 2227 4593 2232 
3 1912 1917 1911 
3 2929 2930 2928 
3 2506 5057 2503 
3 2110 2112 2111 
3 2486 2833 2483 
3 1917 2670 1911 
3 2443 2971 2444 
3 3050 3634 3065 
3 3491 3492 3490 
3 2069 2079 2078 
3 1958 1960 1959 
3 2748 2749 2747 
3 1481 1773 1482 
3 1456 5047 1227 
3 5277 5317 868 
3 2674 2676 2675 
3 1565 6474 1566 
3 2201 4732 3592 
3 2866 3123 2867 
3 3560 3561 3559 
3 2907 3024 2903 
3 4459 4460 4458 
3 3253 3255 3254 
3 2680 2682 2681 
3 2107 4943 2106 
3 3351 3386 3350 
3 1946 5011 1892 
3 3206 4799 3659 
3 2842 2976 2841 
3 1998 2002 2000 
3 2977 3195 3194 
3 3381 3911 3383 
3 2833 5896 5388 
3 2581 4851 2570 
3 1357 5384 1532 
3 2196 2198 2197 
3 2852 3118 3117 
3 1230 1245 1244 
3 2094 2096 2095 
3 5295 5296 1842 
3 1630 1632 1631 
3 2256 2258 2252 
3 2521 2522 2520 
3 2360 4837 4836 
3 1892 1894 1893 
3 2564 2568 2567 
3 2881 2882 2801 
3 2689 2690 2688 
3 2118 2119 2117 
3 2075 2104 2103 
3 3681 3692 3480 
3 2136 2138 2137 
3 2448 2450 2449 
3 2527 2528 2526 
3 2678 2680 2679 
3 2795 2823 2794 
3 2021 2022 2018 
3 1679 1708 1514 
3 3315 3316 3212 
3 2288 2306 2287 
3 2525 2526 2524 
3 4908 4909 3320 
3 1948 2744 1951 
3 2535 2536 2534 
3 5602 5777 2737 
3 1057 5585 5121 
3 3700 5050 3226 
3 3472 3997 3473 
3 1459 5026 1520 
3 2615 2619 2614 
3 2164 5294 2314 
3 3016 5359 2124 
3 2565 4935 2541 
3 2560 5039 2557 
3 2209 2262 2212 
3 3046 3047 3045 
3 5123 5135 628 
3 1838 2048 1840 
3 3554 3555 3553 
3 2789 2791 2790 
3 2349 2350 2348 
3 2520 2597 2518 
3 2601 2602 2588 
3 1454 5049 1563 
3 3898 4757 3899 
3 4472 4473 4471 
3 2170 2172 2171 
3 2058 2362 2060 
3 3484 4355 3276 
3 3581 3876 3652 
3 5312 5823 5796 
3 3017 3020 3019 
3 3106 3709 3116 
3 2627 2629 2628 
3 1987 1989 1988 
3 2106 2665 2664 
3 2531 2533 2532 
3 2919 2920 2917 
3 3117 3377 3170 
3 1834 1835 1833 
3 1846 1847 1845 
3 2038 2047 2045 
3 3012 3394 3011 
3 1421 1528 1423 
3 2088 2090 2071 
3 2112 2114 2113 
3 3880 5860 4739 
3 2923 3293 2925 
3 2433 2435 2432 
3 1454 1563 1561 
3 2114 2116 2115 
3 1020 5218 5146 
3 2079 2883 2081 
3 2327 2349 2348 
3 1862 2729 1864 
3 4658 4661 4660 
3 4369 5139 713 
3 2297 5063 2296 
3 5290 5319 4771 
3 1985 2015 1980 
3 3855 3863 3858 
3 3949 3951 3373 
3 2311 2814 2312 
3 1547 1548 1471 
3 3327 4946 3183 
3 3521 3523 3520 
3 3528 4580 3530 
3 1548 1612 1471 
3 1882 1884 1883 
3 5574 5577 2741 
3 3267 3269 3268 
3 5250 5439 2770 
3 3524 3525 3523 
3 3347 3601 3113 
3 3839 4439 3838 
3 2417 2421 2416 
3 2164 2166 2165 
3 2558 3282 2576 
3 516 5355 518 
3 1494 4242 1581 
3 2148 2150 2149 
3 2323 2324 2322 
3 3195 3441 3196 
3 3592 3593 2257 
3 5548 5628 5627 
3 1972 1975 1971 
3 3512 4763 4762 
3 2146 2147 2145 
3 2422 2427 2426 
3 2186 2188 2187 
3 2680 2683 2682 
3 3134 3280 3132 
3 3315 3879 3624 
3 2470 2471 2469 
3 2608 2610 2609 
3 1900 1902 1901 
3 1516 1517 1406 
3 1907 2715 1905 
3 5135 5136 1113 
3 2316 2317 2297 
3 2699 2701 2700 
3 2537 2539 2538 
3 1438 1439 1385 
3 4780 4912 1556 
3 2296 2465 2368 
3 2372 2373 2329 
3 2063 2064 2061 
3 5347 5357 1027 
3 2313 5598 2172 
3 1061 5197 5152 
3 2499 2501 2500 
3 1496 4289 1505 
3 5243 5260 890 
3 1842 1844 1843 
3 1934 1940 1932 
3 1495 1543 1468 
3 2227 2232 2229 
3 4946 5877 5789 
3 2009 2013 2012 
3 2541 2542 2540 
3 1853 4974 1851 
3 2473 2475 2474 
3 1237 5236 1239 
3 3959 4010 3960 
3 1943 1944 1942 
3 917 5198 5145 
3 3903 3906 3615 
3 5152 5194 1061 
3 5147 5149 913 
3 2784 2786 2785 
3 2288 2307 2306 
3 2382 2384 2383 
3 1568 1569 1507 
3 1998 1999 1997 
3 3432 4013 3627 
3 1532 1536 1535 
3 1543 5076 1468 
3 2152 2154 2153 
3 1536 5066 1608 
3 2687 2688 2686 
3 1203 5088 1467 
3 2582 2589 2585 
3 4757 4759 4758 
3 880 5314 5245 
3 2643 2650 2649 
3 1943 5345 1966 
3 5146 5218 1047 
3 1982 4975 4974 
3 2921 2923 2922 
3 2249 2252 2251 
3 3133 3134 3132 
3 5151 5194 5152 
3 2750 2752 2751 
3 2123 2124 2121 
3 1157 5118 4858 
3 2391 4629 2389 
3 2555 2557 2556 
3 2588 5283 2579 
3 2328 2329 2305 
3 1979 5053 1885 
3 3488 3489 2838 
3 5316 5445 5111 
3 890 5260 5144 
3 3063 3071 3070 
3 2640 2643 2642 
3 1356 5086 1225 
3 2245 2246 2243 
3 1947 1949 1944 
3 5846 5901 2276 
3 2939 2941 2940 
3 2620 2622 2619 
3 3413 4349 3779 
3 2126 2128 2127 
3 2294 2298 2289 
3 1508 1509 1380 
3 2227 2229 2228 
3 2021 2023 2022 
3 3902 4345 4344 
3 2600 2601 2588 
3 2005 2723 2007 
3 2624 2625 2623 
3 2592 2594 2593 
3 1999 2040 1997 
3 2296 2368 2103 
3 2223 4748 2225 
3 2515 2662 2517 
3 4033 4036 4035 
3 2972 2973 2971 
3 1536 1608 1607 
3 1452 1497 1496 
3 5144 5198 890 
3 1933 1934 1932 
3 1870 1871 1869 
3 1429 1451 1383 
3 2251 2380 2261 
3 3608 3689 3683 
3 3544 3684 3546 
3 2468 2470 2469 
3 1838 1840 1839 
3 4904 4905 4903 
3 1403 1458 1457 
3 1531 5479 5417 
3 1509 1510 1380 
3 3186 3187 3185 
3 1411 1412 1349 
3 2629 2645 2638 
3 5224 5237 971 
3 2399 2401 2400 
3 2003 2005 2004 
3 1502 4122 1570 
3 1421 1423 1422 
3 1882 1965 1884 
3 3480 5044 3481 
3 3708 3809 3808 
3 2028 2030 2029 
3 3218 3219 2918 
3 2381 3042 2261 
3 1530 1564 1368 
3 1519 4518 1736 
3 3178 4810 3180 
3 2551 2554 2553 
3 5098 5099 1531 
3 2606 2607 2596 
3 2176 2301 2178 
3 3383 3384 3382 
3 1862 1863 1861 
3 1062 5245 5168 
3 1709 5028 1514 
3 2815 2859 2858 
3 2377 5372 2141 
3 2092 2295 2094 
3 2584 3320 2598 
3 3284 4999 3450 
3 2551 2552 2550 
3 3171 3740 3738 
3 2269 2273 2268 
3 2614 2641 2609 
3 827 5199 5163 
3 2543 2545 2544 
3 2177 2712 2175 
3 5145 5198 5144 
3 1246 1409 1244 
3 2499 2500 2498 
3 2005 2007 2006 
3 2912 2968 2967 
3 2919 2921 2920 
3 2323 2769 2325 
3 1502 1503 1501 
3 2290 2291 2281 
3 1407 1455 1388 
3 2290 2299 2291 
3 2427 2440 2426 
3 2444 2446 2445 
3 2484 2739 2487 
3 1987 2741 1989 
3 2130 2132 2131 
3 2501 2504 2503 
3 1943 1945 1944 
3 2392 2394 2393 
3 827 5163 833 
3 1318 1319 1227 
3 1594 1596 1595 
3 1516 4646 1517 
3 3222 3223 3003 
3 1520 4983 1521 
3 3174 3176 3175 
3 3918 3919 3917 
3 1382 5030 1470 
3 3129 3362 3131 
3 1958 2378 1960 
3 1459 1461 1460 
3 3139 3142 3141 
3 2150 2151 2149 
3 2308 2309 2286 
3 2009 5364 2013 
3 3060 3062 3061 
3 1855 1982 1853 
3 5351 5354 5192 
3 2777 5551 2004 
3 2523 2524 2522 
3 3296 3842 3297 
3 3859 4485 3860 
3 2555 2558 2557 
3 2497 2498 2496 
3 1982 4974 1853 
3 971 5237 5175 
3 3776 4329 4328 
3 2657 2916 2656 
3 3361 3379 3360 
3 2236 2238 2237 
3 1854 2716 1856 
3 2317 2319 2318 
3 1936 5442 1934 
3 2350 2351 2348 
3 868 5194 5151 
3 3451 3453 3452 
3 2164 2165 2163 
3 1015 5354 5351 
3 2673 2697 2672 
3 3836 3837 3476 
3 2782 2784 2783 
3 2017 5075 4795 
3 5177 5197 1061 
3 3680 5901 5692 
3 2465 3575 2865 
3 1358 5247 1198 
3 2189 2260 2187 
3 5169 5251 5212 
3 1043 5161 1070 
3 2903 5712 2830 
3 5212 5251 976 
3 3618 3619 2733 
3 2429 2430 2428 
3 3386 4015 4014 
3 2407 2418 2408 
3 2638 2639 2637 
3 1926 1928 1927 
3 3581 4842 3876 
3 2358 2828 2363 
3 3419 3585 3244 
3 2194 2196 2195 
3 2266 2268 2265 
3 2476 2477 2474 
3 1845 4901 1843 
3 2446 3201 2448 
3 2678 2679 2677 
3 2683 2685 2684 
3 1906 1907 1905 
3 5168 5260 1062 
3 2249 2251 2248 
3 2035 2038 2036 
3 1463 1464 1462 
3 2685 2686 2684 
3 3739 4953 3571 
3 2997 3232 2999 
3 917 5237 5224 
3 1319 1456 1227 
3 2409 2411 2410 
3 1922 1941 1924 
3 2231 2235 2230 
3 4600 4602 4601 
3 2968 3337 2967 
3 2323 2325 2324 
3 3485 3501 3486 
3 868 5151 844 
3 1953 1955 1952 
3 2558 2559 2557 
3 3205 3206 3167 
3 1459 1520 1461 
3 5175 5193 971 
3 1357 1437 1385 
3 1594 1597 1596 
3 3475 4862 3511 
3 2797 5471 2306 
3 2003 4878 2005 
3 1872 1874 1873 
3 1904 1905 1902 
3 2552 2612 2550 
3 1247 1248 1246 
3 1964 1968 1967 
3 1858 1860 1859 
3 2009 2012 2011 
3 2180 2182 2181 
3 857 5172 860 
3 3101 3103 3102 
3 2554 2555 2553 
3 2150 2152 2151 
3 2178 2180 2179 
3 1309 1415 1315 
3 2568 2583 2569 
3 4382 4404 2658 
3 2812 3614 3262 
3 2020 2021 2018 
3 893 5257 933 
3 1044 5161 1043 
3 1922 1923 1921 
3 2194 2239 2196 
3 2643 4754 2650 
3 5263 5279 5153 
3 2032 2035 2033 
3 2200 2203 2202 
3 2180 2181 2179 
3 3668 5705 5512 
3 2568 3429 2583 
3 3317 3411 3263 
3 2223 2225 2224 
3 2290 2300 2299 
3 5269 5276 973 
3 1221 1222 1207 
3 2045 2049 2046 
3 2183 2270 2181 
3 2358 2363 2309 
3 2693 2694 2692 
3 1509 1513 1511 
3 2513 2514 2512 
3 713 5139 711 
3 808 5174 941 
3 2160 2162 2161 
3 2086 2106 2085 
3 2933 2934 2932 
3 4526 4573 4525 
3 3082 3084 3081 
3 2204 2205 2202 
3 3390 3391 2983 
3 1886 1887 1885 
3 1996 1998 1997 
3 869 5206 843 
3 2160 2161 2159 
3 1238 1375 1236 
3 2546 2548 2547 
3 1887 1979 1885 
3 842 5262 878 
3 3027 3028 3026 
3 1876 1877 1875 
3 913 5149 910 
3 1878 1879 1877 
3 1403 1459 1458 
3 2214 2215 2213 
3 1948 1950 1947 
3 3773 4985 4336 
3 3976 3989 3988 
3 5172 5357 5347 
3 612 5123 628 
3 1609 4251 1477 
3 2371 5022 2372 
3 1408 1468 1407 
3 1408 1469 1468 
3 1866 1867 1865 
3 2793 2795 2794 
3 5070 5316 1595 
3 1838 1839 1837 
3 1445 1446 1439 
3 1469 1495 1468 
3 3258 3421 3259 
3 4682 4736 4735 
3 3525 5501 4956 
3 2676 2677 2675 
3 3740 3975 3738 
3 399 5126 434 
3 1447 1489 1488 
3 3404 4359 3402 
3 2207 2208 2206 
3 3448 3949 3373 
3 1981 1985 1980 
3 1834 1836 1835 
3 2654 2655 2652 
3 3129 3130 3128 
3 1890 1946 1892 
3 2925 2926 2924 
3 824 5199 823 
3 1315 1390 1317 
3 1854 1855 1853 
3 3813 4766 4441 
3 3863 3865 3864 
3 2203 2204 2202 
3 809 5174 808 
3 946 5177 1061 
3 1230 1244 1234 
3 1622 1623 1621 
3 2252 5008 2251 
3 1856 1858 1857 
3 3403 3405 3404 
3 5174 5193 5175 
3 1898 1900 1899 
3 1212 1215 1214 
3 3833 4698 3832 
3 1964 1973 1968 
3 977 5317 5277 
3 1894 2717 1896 
3 2675 4726 2673 
3 1230 5111 1245 
3 2225 2227 2226 
3 1565 1566 1548 
3 2075 2103 2074 
3 2624 2768 2646 
3 5150 5235 819 
3 895 5177 946 
3 1953 1969 1956 
3 2849 2861 2764 
3 1976 1981 1980 
3 3517 4584 3516 
3 2186 2187 2185 
3 2704 2873 2799 
3 4605 4607 4606 
3 1062 5260 5243 
3 1556 1680 1555 
3 2559 2560 2557 
3 1852 1853 1851 
3 888 5207 5206 
3 2125 2464 2124 
3 1951 1953 1952 
3 1222 1526 1207 
3 3282 3829 3437 
3 2515 2517 2516 
3 1203 1359 1358 
3 915 5147 913 
3 5166 5258 1045 
3 1026 5176 987 
3 860 5191 859 
3 1309 1315 1310 
3 2515 2516 2514 
3 1536 1607 1606 
3 1878 2719 1880 
3 956 5143 1104 
3 1990 1991 1988 
3 3453 3456 3454 
3 1447 5503 1489 
3 1858 2026 1860 
3 2824 2970 2969 
3 856 5172 857 
3 3321 3338 3298 
3 1490 1660 1629 
3 3080 3082 3081 
3 1041 5273 1039 
3 2083 2085 2082 
3 2501 2502 2500 
3 1864 1866 1865 
3 1239 1352 1314 
3 1928 1929 1927 
3 1166 1602 1169 
3 3139 3141 3140 
3 909 5233 911 
3 2905 3335 2908 
3 1575 1653 1573 
3 2541 2543 2542 
3 5491 5685 3602 
3 1363 1366 1365 
3 844 5151 836 
3 2784 2785 2783 
3 3228 3699 3230 
3 1371 1382 1372 
3 2590 2591 2585 
3 4927 5633 5594 
3 1913 1915 1914 
3 2056 2058 2057 
3 1924 1926 1925 
3 5174 5175 941 
3 2120 2375 2122 
3 843 5206 848 
3 2594 2605 2596 
3 1363 1365 1364 
3 821 5150 819 
3 2786 2787 2785 
3 2464 3017 3016 
3 866 5169 880 
3 987 5176 985 
3 1460 1463 1462 
3 2582 2584 2581 
3 5150 5279 5263 
3 1534 1555 1533 
3 2484 2486 2483 
3 2200 2202 2201 
3 1567 1568 1507 
3 823 5199 827 
3 1212 1214 1213 
3 859 5191 862 
3 2446 2448 2447 
3 1862 1864 1863 
3 2138 2140 2139 
3 2152 2153 2151 
3 3639 3930 3338 
3 1937 2728 1939 
3 1045 5258 1069 
3 1255 1257 1256 
3 1457 5098 1531 
3 3608 4795 3689 
3 3109 3115 2862 
3 911 5233 934 
3 1318 1413 1387 
3 1230 1234 1225 
3 1387 1394 1388 
3 4609 4611 4610 
3 1428 1429 1383 
3 3087 3620 3344 
3 1249 1250 1248 
3 810 5213 806 
3 1361 1363 1362 
3 1499 1501 1500 
3 1907 3875 2715 
3 2411 2413 2412 
3 1509 1511 1510 
3 2009 2011 2008 
3 3853 3855 3854 
3 2635 5450 2600 
3 2706 2707 2705 
3 3914 5790 5644 
3 1319 5331 1456 
3 1877 1978 1875 
3 999 5217 996 
3 1251 1253 1252 
3 2246 5052 2243 
3 2660 2876 2659 
3 3074 3078 3004 
3 816 5193 814 
3 1217 1225 1216 
3 2967 5398 2655 
3 5145 5237 917 
3 1900 1903 1902 
3 1294 1374 1296 
3 2683 2684 2682 
3 2154 5403 2156 
3 3002 3800 3000 
3 849 5198 917 
3 2571 2581 2570 
3 2977 3193 2976 
3 5356 5373 5246 
3 2505 2506 2503 
3 1896 1898 1897 
3 1382 1428 1383 
3 5152 5197 5153 
3 1848 1850 1849 
3 2413 2415 2414 
3 2546 2547 2544 
3 5169 5212 880 
3 1455 5331 1388 
3 5245 5314 5168 
3 2128 2130 2129 
3 2198 2199 2197 
3 5489 5586 3308 
3 1027 5217 999 
3 2539 2541 2540 
3 3103 3332 3163 
3 1948 1951 1950 
3 3148 3150 3147 
3 1499 1502 1501 
3 2120 2122 2121 
3 3189 3718 3389 
3 1047 5218 998 
3 2209 2212 2211 
3 2527 2529 2528 
3 851 5198 849 
3 1922 1924 1923 
3 2771 2772 2073 
3 1245 1246 1244 
3 2931 3281 2933 
3 3768 5005 3766 
3 994 5229 997 
3 2606 2608 2607 
3 1920 1921 1919 
3 2073 5090 1994 
3 1046 5273 1041 
3 1237 1238 1236 
3 2327 2347 2326 
3 4583 5811 4381 
3 1239 1314 1313 
3 1429 5035 1452 
3 1071 5208 1720 
3 1918 1919 1916 
3 2403 2456 2429 
3 1574 1575 1573 
3 3308 3309 3307 
3 1447 1488 1487 
3 3736 4863 4480 
3 3355 3685 3356 
3 943 5213 810 
3 1381 4561 1377 
3 1913 1914 1912 
3 874 5169 866 
3 2443 2972 2971 
3 1167 1227 1165 
3 858 5243 855 
3 2023 2024 2022 
3 1529 1590 1423 
3 876 5257 893 
3 1617 1781 1579 
3 1863 1984 1861 
3 918 5177 889 
3 1447 1487 1445 
3 2958 3609 3301 
3 1214 5299 1213 
3 1576 1577 1575 
3 910 5149 908 
3 1850 1851 1849 
3 2852 3304 3118 
3 1160 1161 1159 
3 916 5276 5269 
3 5170 5171 856 
3 877 5259 875 
3 1164 1165 1163 
3 2266 2269 2268 
3 861 5245 1062 
3 5146 5282 1020 
3 1920 1922 1921 
3 2058 2060 2059 
3 2971 5084 2444 
3 888 5206 869 
3 806 5213 804 
3 854 5170 856 
3 922 5199 824 
3 1499 1500 1497 
3 878 5262 918 
3 814 5193 5174 
3 1021 5282 1024 
3 1203 1467 1359 
3 1437 1438 1385 
3 1571 1573 1572 
3 1890 1891 1889 
3 528 5203 5201 
3 721 5179 750 
3 1209 1212 1211 
3 931 5280 894 
3 964 1055 963 
3 1199 1203 1198 
3 1209 1211 1208 
3 1212 1213 1211 
3 3659 4976 3167 
3 1761 5146 1047 
3 933 5257 1040 
3 2916 2918 2656 
3 1229 5299 1214 
3 2244 2245 2243 
3 1943 1966 1945 
3 4600 4601 4599 
3 1571 1574 1573 
3 875 5259 892 
3 2083 2086 2085 
3 659 5178 678 
3 5163 5199 1058 
3 1666 5281 5240 
3 2023 2025 2024 
3 3844 4483 3845 
3 2215 2221 2213 
3 917 5224 847 
3 1216 1229 1214 
3 1440 1551 1477 
3 2651 4952 2654 
3 1836 1838 1837 
3 2531 2532 2530 
3 2545 2546 2544 
3 1068 1109 1044 
3 1161 1163 1159 
3 1040 5166 1042 
3 3080 5528 3083 
3 1008 5252 1015 
3 1713 5216 1651 
3 2665 2667 2666 
3 855 5243 853 
3 2650 2869 2651 
3 2993 2995 2994 
3 944 5167 945 
3 1109 5161 1044 
3 927 5269 973 
3 2214 2216 2215 
3 2241 2244 2243 
3 1446 1522 1439 
3 2587 2588 2579 
3 2165 5562 2163 
3 2347 2816 2326 
3 528 5204 514 
3 1945 1947 1944 
3 2247 2249 2248 
3 1200 5110 1202 
3 1890 1892 1891 
3 1651 5216 5211 
3 1919 2725 1916 
3 2422 2426 2421 
3 2190 2191 2189 
3 1294 1296 1295 
3 2693 2897 2695 
3 1440 1477 1398 
3 1985 2056 2015 
3 2245 2247 2246 
3 2846 2866 2847 
3 1894 1896 1895 
3 1260 1416 1262 
3 1017 1030 1029 
3 5237 5267 5175 
3 1357 1532 1437 
3 4543 4545 4544 
3 657 5202 656 
3 1296 1298 1297 
3 1001 5187 1028 
3 1040 1041 1039 
3 927 950 949 
3 1251 1307 1253 
3 724 5234 5222 
3 2335 2337 2336 
3 3885 3897 3634 
3 914 915 913 
3 2052 2053 2051 
3 2492 2658 2493 
3 2285 2308 2286 
3 2784 2793 2786 
3 1060 5159 948 
3 3365 3366 3364 
3 5201 5203 5202 
3 1255 1256 1254 
3 5166 5257 892 
3 892 5258 5166 
3 1063 5156 1064 
3 1200 1201 1199 
3 718 5179 721 
3 889 5177 895 
3 895 946 930 
3 1257 1260 1259 
3 1858 1859 1857 
3 514 5204 522 
3 956 980 974 
3 2888 3066 2887 
3 2622 3635 2825 
3 876 893 891 
3 1032 1033 940 
3 1007 5239 1010 
3 895 930 929 
3 1470 1547 1471 
3 3918 4511 3920 
3 1070 1071 1046 
3 2643 2649 2648 
3 5171 5172 856 
3 1851 2742 1849 
3 4304 4306 4305 
3 681 5223 683 
3 1651 5211 731 
3 2587 2634 2600 
3 1720 5274 5273 
3 1923 1931 1921 
3 5152 5153 947 
3 5201 5204 528 
3 1166 1167 1165 
3 1394 1407 1388 
3 2803 2954 2721 
3 2667 2852 2851 
3 5209 5225 5219 
3 5202 5203 656 
3 4302 4390 4296 
3 948 5159 1063 
3 960 1122 1110 
3 4293 4313 4292 
3 1042 1044 1043 
3 939 5147 915 
3 927 973 950 
3 2311 2815 2814 
3 833 5163 838 
3 836 5151 947 
3 955 5143 956 
3 888 5292 5207 
3 965 4295 970 
3 1015 5187 1005 
3 1298 1300 1297 
3 956 1104 980 
3 1166 1169 1168 
3 1257 1259 1258 
3 1481 1482 1412 
3 1689 1761 1047 
3 3503 3504 3502 
3 958 1032 940 
3 985 5176 1025 
3 1040 1042 1041 
3 948 1063 957 
3 893 932 919 
3 1071 1720 1046 
3 833 837 836 
3 986 987 985 
3 997 5229 1689 
3 1239 1313 1238 
3 834 5262 842 
3 528 5219 5203 
3 926 928 915 
3 932 959 919 
3 5219 5225 5203 
3 994 997 996 
3 897 898 874 
3 1926 2722 1928 
3 5189 5231 5230 
3 818 829 816 
3 1053 1615 1108 
3 1359 1360 1358 
3 2965 3322 2964 
3 2657 2917 2916 
3 817 818 816 
3 825 5150 821 
3 3888 5435 3887 
3 941 942 810 
3 870 875 871 
3 2212 2214 2213 
3 963 965 921 
3 1439 5254 1385 
3 5842 5858 3654 
3 2023 2027 2025 
3 820 822 821 
3 934 935 916 
3 1052 5160 1032 
3 1868 1870 1869 
3 870 877 875 
3 660 5202 657 
3 1533 5389 1461 
3 823 825 821 
3 853 890 851 
3 679 5200 660 
3 1369 1403 1402 
3 4339 4401 4340 
3 1039 1106 1038 
3 1196 1199 1198 
3 892 5257 876 
3 5240 5281 955 
3 990 5195 1026 
3 1918 1920 1919 
3 1020 1021 1006 
3 3329 3331 3330 
3 1045 1068 1044 
3 2227 2228 2226 
3 2668 2748 2747 
3 879 888 869 
3 965 970 966 
3 731 5211 728 
3 924 1058 922 
3 982 983 981 
3 839 840 824 
3 857 859 858 
3 967 968 944 
3 1930 1932 1929 
3 942 943 810 
3 846 867 844 
3 889 894 879 
3 928 939 915 
3 981 5313 5292 
3 1051 5188 991 
3 1024 1050 1023 
3 1649 5208 1071 
3 1961 2765 1959 
3 2941 3006 2943 
3 897 5275 920 
3 1004 5239 1007 
3 1043 1070 1046 
3 1553 4915 1557 
3 811 812 809 
3 1003 1020 1006 
3 1357 1385 1356 
3 1363 1364 1362 
3 1429 1452 1451 
3 814 5174 809 
3 2134 2135 2133 
3 968 5167 944 
3 2458 3044 2463 
3 830 972 834 
3 865 873 872 
3 896 897 874 
3 927 949 926 
3 998 999 996 
3 1260 1262 1261 
3 1007 1010 1009 
3 1263 1265 1264 
3 890 5198 851 
3 1007 1008 1005 
3 3639 5622 3931 
3 1001 1028 1027 
3 861 1062 858 
3 994 996 995 
3 862 5191 5190 
3 808 941 810 
3 1202 1204 1201 
3 2216 2217 2215 
3 2495 2611 2497 
3 1618 5178 659 
3 1032 1724 1033 
3 598 5232 590 
3 862 863 861 
3 1666 5240 957 
3 975 976 966 
3 1042 1045 1044 
3 812 814 809 
3 830 831 829 
3 1007 1009 1008 
3 3451 3452 3285 
3 5657 5658 3755 
3 714 5234 724 
3 729 730 728 
3 854 855 853 
3 5228 6414 6413 
3 827 828 825 
3 911 934 916 
3 3461 3463 3462 
3 592 598 590 
3 684 726 682 
3 862 865 863 
3 1020 5282 1021 
3 865 872 866 
3 889 895 894 
3 1012 1013 1011 
3 1935 1936 1934 
3 5228 6413 5227 
3 6466 6467 525 
3 718 721 719 
3 852 853 851 
3 859 861 858 
3 659 678 660 
3 1203 1358 1198 
3 1903 1904 1902 
3 658 1618 659 
3 721 750 748 
3 857 860 859 
3 898 5169 874 
3 897 920 898 
3 655 4311 653 
3 808 810 806 
3 1221 1223 1222 
3 587 5209 523 
3 524 6466 525 
3 588 589 587 
3 733 1652 1651 
3 815 817 816 
3 960 1759 1122 
3 4278 4279 4277 
3 730 732 731 
3 833 838 837 
3 658 659 657 
3 948 957 930 
3 5124 5125 5123 
3 827 833 828 
3 834 842 835 
3 726 5204 5201 
3 911 916 912 
3 997 998 996 
3 1072 1649 1071 
3 519 5209 517 
3 715 723 717 
3 1519 1736 1735 
3 5125 5135 5123 
3 525 6467 588 
3 682 5200 679 
3 952 1053 951 
3 1008 1015 1005 
3 518 519 517 
3 530 727 520 
3 5211 5216 5215 
3 822 823 821 
3 867 868 844 
3 955 956 931 
3 1057 5213 943 
3 985 1025 983 
3 998 1000 999 
3 5209 5219 517 
3 820 821 819 
3 842 878 869 
3 848 849 847 
3 859 862 861 
3 2230 2254 2228 
3 588 590 589 
3 588 592 590 
3 654 1113 697 
3 402 403 401 
3 405 420 403 
3 406 407 405 
3 406 409 408 
3 410 413 412 
3 530 728 727 
3 5200 5202 660 
3 721 748 722 
3 730 731 728 
3 732 733 731 
3 748 4064 749 
3 4278 5100 4279 
3 659 660 657 
3 680 681 679 
3 734 4277 735 
3 989 991 990 
3 991 993 992 
3 1106 1740 1038 
3 1652 1713 1651 
3 697 698 655 
3 1113 1114 697 
3 724 5222 4370 
3 907 1036 909 
3 2477 5115 2474 
3 2569 2571 2570 
3 514 522 512 
3 523 5209 519 
3 590 591 589 
3 982 984 983 
3 984 986 985 
3 994 995 992 
3 1000 1001 999 
3 524 525 523 
3 726 5200 682 
3 717 720 718 
3 830 834 831 
3 848 850 849 
3 875 892 876 
3 1000 1002 1001 
3 413 414 412 
3 525 587 523 
3 831 971 829 
3 837 844 836 
3 848 969 850 
3 878 879 869 
3 518 530 520 
3 712 715 714 
3 989 1051 991 
3 1361 5106 1363 
3 410 411 408 
3 530 729 728 
3 678 679 660 
3 680 743 681 
3 681 683 682 
3 683 684 682 
3 718 719 716 
3 720 5179 718 
3 724 4370 4369 
3 728 5211 727 
3 812 815 814 
3 818 830 829 
3 842 869 843 
3 864 5170 854 
3 991 992 990 
3 993 994 992 
3 1568 6196 6195 
3 1994 1995 1992 
3 525 588 587 
3 656 5225 589 
3 410 412 411 
3 1878 1880 1879 
3 516 517 515 
3 521 524 523 
3 654 697 655 
3 715 717 716 
3 726 5201 5200 
3 980 982 981 
3 1004 1005 1002 
3 1882 1883 1881 
3 521 526 524 
3 714 724 713 
3 734 4278 4277 
3 843 847 835 
3 849 917 847 
3 908 5149 962 
3 1371 1372 1241 
3 521 523 519 
3 923 924 922 
3 1001 1027 999 
3 402 404 403 
3 404 405 403 
3 404 406 405 
3 406 408 407 
3 409 410 408 
3 416 417 414 
3 513 516 515 
3 520 521 519 
3 730 734 732 
3 733 1651 731 
3 1850 1852 1851 
3 681 682 679 
3 680 1659 743 
3 737 5124 5123 
3 515 528 514 
3 518 520 519 
3 683 685 684 
3 872 874 866 
3 1003 1006 1004 
3 1013 1016 1011 
3 912 913 910 
3 980 981 974 
3 1021 1024 1023 
3 1053 1616 1615 
3 4314 4315 4313 
3 734 735 732 
3 591 656 589 
3 5203 5225 656 
3 678 680 679 
3 715 716 714 
3 721 722 719 
3 516 518 517 
3 815 816 814 
3 929 955 931 
3 942 967 944 
3 1009 1011 1008 
3 807 809 808 
3 909 911 910 
3 912 914 913 
3 591 658 657 
3 876 891 871 
3 400 533 402 
3 513 515 514 
3 515 5219 528 
3 743 5223 681 
3 720 5180 5179 
3 992 5195 990 
3 822 839 824 
3 924 1059 1058 
3 942 944 943 
3 748 749 722 
3 834 835 831 
3 865 866 863 
3 920 921 898 
3 968 5168 5167 
3 1206 1209 1208 
3 984 985 983 
3 1003 1004 1002 
3 1262 1263 1261 
3 1321 1406 1371 
3 654 655 653 
3 840 922 824 
3 872 896 874 
3 720 5181 5180 
3 893 933 932 
3 989 990 987 
3 1519 1735 1518 
3 717 718 716 
3 807 811 809 
3 862 5190 865 
3 1061 5194 1060 
3 413 416 414 
3 724 4369 713 
3 817 820 819 
3 973 979 978 
3 1512 1546 1524 
3 1053 1108 951 
3 5222 5234 725 
3 850 851 849 
3 960 1110 949 
3 628 654 653 
3 5211 5215 727 
3 823 827 825 
3 990 1026 987 
3 1000 1003 1002 
3 1004 1007 1005 
3 1876 1878 1877 
3 722 725 719 
3 846 870 867 
3 866 880 863 
3 960 5210 1759 
3 807 808 806 
3 817 819 818 
3 1021 1022 1006 
3 843 848 847 
3 852 854 853 
3 1036 5233 909 
3 989 5226 1051 
3 967 5145 5144 
3 401 5126 399 
3 587 5225 5209 
3 588 6467 592 
3 842 843 835 
3 1063 1064 957 
3 591 657 656 
3 658 1619 1618 
3 854 856 855 
3 896 951 897 
3 967 5144 968 
3 712 714 713 
3 986 989 987 
3 1211 5129 1208 
3 944 945 943 
3 513 514 512 
3 950 960 949 
3 1017 1029 1016 
3 1260 1261 1259 
3 934 1067 935 
3 946 1060 948 
3 911 912 910 
3 933 1038 932 
3 805 807 806 
3 5188 5189 993 
3 1221 1421 1223 
3 517 5219 515 
3 727 5215 5214 
3 850 852 851 
3 918 5197 5177 
3 737 5123 612 
3 997 1047 998 
3 1202 1205 1204 
3 1840 1842 1841 
3 1013 1017 1016 
3 1259 1410 1258 
3 833 836 828 
3 837 846 844 
3 946 948 930 
3 1021 1023 1022 
3 1070 1072 1071 
3 3050 5079 3885 
3 400 402 401 
3 945 1057 943 
3 2568 2569 2567 
3 857 858 855 
3 988 5228 5227 
3 819 5235 818 
3 856 857 855 
3 934 1100 1067 
3 982 5238 984 
3 2404 2405 2402 
3 521 5214 526 
3 896 952 951 
3 1206 1208 1204 
3 3221 3701 3222 
3 852 864 854 
3 958 1052 1032 
3 996 5217 995 
3 1006 5239 1004 
3 2387 2388 2385 
3 2458 2459 2387 
3 5150 5263 5235 
3 1056 4293 4292 
3 716 5234 714 
3 727 5214 520 
3 991 5188 993 
3 629 1626 737 
3 5197 5261 5153 
3 2465 2865 2864 
3 1452 1498 1497 
3 973 978 950 
3 2708 2958 2710 
3 3532 3534 3533 
3 870 871 867 
3 919 5310 977 
3 1964 1967 1963 
3 875 876 871 
3 984 988 986 
3 1062 5243 858 
3 1253 1254 1252 
3 956 974 931 
3 1009 1012 1011 
3 2708 2710 2709 
3 1724 1762 1033 
3 2249 2255 2252 
3 836 947 828 
3 968 5260 5168 
3 1735 5027 1518 
3 933 1039 1038 
3 2951 2952 2950 
3 822 824 823 
3 995 5195 992 
3 2920 3220 2917 
3 5201 5202 5200 
3 878 889 879 
3 5145 5267 5237 
3 1205 1221 1207 
3 3439 4348 4347 
3 589 5225 587 
3 920 963 921 
3 928 940 939 
3 928 958 940 
3 914 926 915 
3 1561 4316 1562 
3 520 5214 521 
3 2014 2018 2017 
3 4135 4136 4134 
3 2415 2417 2416 
3 2773 2774 2772 
3 3085 3244 3062 
3 1056 4292 1055 
3 2024 2808 2022 
3 865 5190 873 
3 878 918 889 
3 934 5233 1100 
3 946 1061 1060 
3 818 5235 830 
3 2184 2185 2183 
3 933 1040 1039 
3 978 5210 950 
3 1866 2001 1868 
3 895 929 894 
3 2054 2068 2053 
3 2667 2851 2668 
3 1253 1255 1254 
3 2395 3051 2397 
3 2002 2019 2003 
3 2174 2176 2175 
3 848 5206 969 
3 893 919 891 
3 970 975 966 
3 1205 1207 1206 
3 993 5229 994 
3 2780 2781 2612 
3 1045 1069 1068 
3 2144 2146 2145 
3 1024 4134 1050 
3 3440 3623 3140 
3 997 1689 1047 
3 2636 2656 2635 
3 2334 2341 2332 
3 658 5232 1619 
3 5151 5152 947 
3 2333 2335 2334 
3 914 927 926 
3 3784 3937 3783 
3 719 5234 716 
3 1158 1159 1157 
3 5156 5157 1064 
3 909 910 908 
3 3717 3748 3716 
3 919 977 891 
3 1888 1890 1889 
3 1058 5199 922 
3 2028 2029 2025 
3 511 513 512 
3 1205 1206 1204 
3 1352 1353 1314 
3 2333 2334 2332 
3 711 5139 4487 
3 1200 1202 1201 
3 950 5210 960 
3 1265 1267 1264 
3 2912 2982 2968 
3 1064 1666 957 
3 1042 5166 1045 
3 590 5232 591 
3 964 1056 1055 
3 829 5193 816 
3 1467 5479 5397 
3 3450 3451 3285 
3 629 737 612 
3 920 964 963 
3 1632 1634 1633 
3 3155 3156 3154 
3 5191 5192 5190 
3 1251 1252 1250 
3 2850 5722 3359 
3 5189 5230 5229 
3 3056 3278 3054 
3 712 713 711 
3 725 5234 719 
3 1352 1354 1353 
3 628 653 586 
3 2122 2123 2121 
3 976 5251 966 
3 1032 5160 1724 
3 1994 1996 1995 
3 3457 3459 3458 
3 400 401 399 
3 1042 1043 1041 
3 1029 1031 1016 
3 1962 1964 1963 
3 2431 2433 2432 
3 1993 1994 1992 
3 965 966 921 
3 1844 1845 1843 
3 1898 1899 1897 
3 2671 2673 2672 
3 2664 5093 2085 
3 2168 2169 2167 
3 2542 3314 2540 
3 847 5224 835 
3 830 5235 972 
3 868 5317 5194 
3 5229 5230 1689 
3 3475 3511 3476 
3 1011 5252 1008 
3 2065 2066 2063 
3 1196 1200 1199 
3 1993 2073 1994 
3 929 931 894 
3 3718 4209 3389 
3 1517 1518 1406 
3 1257 1258 1256 
3 2395 5512 3051 
3 5292 5313 5207 
3 1960 1962 1961 
3 1022 5239 1006 
3 1989 1990 1988 
3 2558 2576 2559 
3 894 5280 879 
3 1213 1242 1211 
3 4780 4914 4912 
3 1972 3602 1976 
3 2380 3645 2382 
3 975 5289 976 
3 591 5232 658 
3 1321 1371 1241 
3 1398 1448 1317 
3 5937 5945 2280 
3 2476 2478 2477 
3 1960 1961 1959 
3 1962 1963 1961 
3 1880 1881 1879 
3 2592 2593 2591 
3 1939 1943 1942 
3 1043 1046 1041 
3 1158 1160 1159 
3 986 5226 989 
3 4295 4302 4296 
3 873 5246 872 
3 1166 1168 1167 
3 988 5227 5226 
3 1003 5218 1020 
3 1389 4563 1381 
3 1161 1164 1163 
3 4295 4296 970 
3 2864 3046 3045 
3 1258 1376 1256 
3 974 5280 931 
3 1215 1217 1216 
3 1502 1570 1503 
3 1968 1971 1967 
3 3381 3382 3380 
3 998 5218 1000 
3 1501 1537 1500 
3 1942 2745 1938 
3 828 5279 825 
3 2236 2240 2238 
3 3198 3754 3753 
3 2081 2082 2080 
3 3001 3002 3000 
3 2723 5364 2007 
3 2158 2160 2159 
3 2294 2311 2298 
3 5175 5267 941 
3 1596 5070 1595 
3 3450 4870 3451 
3 907 909 908 
3 2146 2303 2148 
3 853 5243 890 
3 920 5275 964 
3 1040 5257 5166 
3 1263 1264 1261 
3 1390 1440 1398 
3 4293 4314 4313 
3 2150 2718 2152 
3 2201 3592 2257 
3 5159 5310 1063 
3 976 5288 5212 
3 1987 1988 1986 
3 805 806 804 
3 863 5245 861 
3 1005 5187 1002 
3 1016 5252 1011 
3 1408 1490 1469 
3 1427 1560 1494 
3 2024 3644 2808 
3 1886 2760 1888 
3 2529 2530 2528 
3 5261 5263 5153 
3 3099 3100 3098 
3 2900 2963 2034 
3 5520 5523 4278 
3 5214 5244 526 
3 3851 3853 3852 
3 2789 4811 2791 
3 3114 3371 3347 
3 1352 1454 1354 
3 2538 2562 2536 
3 1935 1937 1936 
3 988 5226 986 
3 831 5224 971 
3 5215 5244 5214 
3 1247 1249 1248 
3 1002 5187 1001 
3 2446 2447 2445 
3 2987 3412 2988 
3 1217 1230 1225 
3 1528 1529 1423 
3 5264 5265 1619 
3 2853 2904 2816 
3 1390 1782 1440 
3 1452 1496 1451 
3 977 5310 5159 
3 3033 3034 3032 
3 3966 5662 5548 
3 3637 3715 3636 
3 1860 1861 1859 
3 5159 5317 977 
3 1848 1849 1847 
3 1708 1709 1514 
3 1290 1294 1293 
3 2401 2402 2400 
3 2914 3014 2646 
3 3726 3938 3759 
3 5088 5089 1467 
3 1169 1170 1168 
3 1296 1297 1295 
3 2229 2231 2230 
3 969 5253 850 
3 1234 1356 1225 
3 1318 1387 1319 
3 1886 1888 1887 
3 1024 4135 4134 
3 1720 5273 1046 
3 967 5267 5145 
3 1294 1295 1293 
3 2634 3574 2636 
3 1309 1310 1308 
3 2784 5315 2793 
3 1607 6352 6351 
3 5153 5279 947 
3 1215 1216 1214 
3 5212 5314 880 
3 1463 1465 1464 
3 921 5251 898 
3 5144 5260 968 
3 1039 5273 1106 
3 1934 5442 1940 
3 2397 2398 2396 
3 935 5276 916 
3 973 5276 979 
3 1512 1523 1510 
3 918 5262 5261 
3 5206 5207 969 
3 5189 5229 993 
3 4304 4305 1567 
3 898 5251 5169 
3 1894 1895 1893 
3 2463 2841 2459 
3 2069 2078 2077 
3 3377 3984 3983 
3 1213 1369 1242 
3 2516 5020 2514 
3 1379 5112 1389 
3 598 5264 5232 
3 1903 3039 2761 
3 918 5261 5197 
3 2335 2336 2334 
3 2548 2551 2550 
3 6351 6353 1606 
3 892 5259 5258 
3 1895 5103 1893 
3 1915 1916 1914 
3 2188 2189 2187 
3 1896 1897 1895 
3 2439 2822 2663 
3 2274 2278 2273 
3 2551 2553 2552 
3 835 5224 831 
3 1031 5252 1016 
3 1110 5278 949 
3 3820 3821 3819 
3 941 5267 942 
3 971 5193 829 
3 1420 5344 5083 
3 1494 1581 1441 
3 1888 1889 1887 
3 1513 1514 1511 
3 1000 5218 1003 
3 2860 5058 2814 
3 2176 2178 2177 
3 908 962 905 
3 945 5289 1057 
3 3708 3808 3007 
3 1382 1470 1428 
3 1235 1236 1228 
3 1366 1368 1367 
3 1403 1457 1402 
3 896 5246 952 
3 1512 1524 1523 
3 1928 1930 1929 
3 951 5275 897 
3 955 5281 5143 
3 1854 1856 1855 
3 2450 2451 2449 
3 2090 2092 2091 
3 966 5251 921 
3 1574 1576 1575 
3 1378 1508 1380 
3 1874 1875 1873 
3 1297 1299 1295 
3 1551 1609 1477 
3 2325 2327 2326 
3 957 5240 930 
3 5232 5264 1619 
3 1024 5282 4135 
3 1164 1166 1165 
3 2005 2006 2004 
3 3387 5432 3386 
3 5239 5241 1010 
3 872 5246 896 
3 1993 2771 2073 
3 3635 3637 3636 
3 2578 2579 2549 
3 1361 1362 1360 
3 1937 1938 1936 
3 2003 2004 2000 
3 1910 1912 1911 
3 2168 2170 2169 
3 1521 1534 1533 
3 825 5279 5150 
3 2687 4749 2689 
3 3943 4449 3496 
3 1215 1420 1217 
3 2327 2348 2347 
3 1915 2042 1918 
3 2392 2393 2391 
3 3290 3292 3291 
3 2007 2009 2008 
3 3587 4813 3586 
3 1252 1399 1250 
3 3773 4335 3772 
3 1937 1939 1938 
3 2334 5444 2341 
3 2691 2693 2692 
3 1872 1873 1871 
3 2427 2800 2441 
3 972 5262 834 
3 942 5267 967 
3 2299 2305 2291 
3 970 5271 975 
3 2511 2512 2510 
3 1459 1460 1458 
3 947 5279 828 
3 1029 5373 5356 
3 2448 2449 2447 
3 2914 3216 3014 
3 1460 5389 1463 
3 977 5277 891 
3 1488 1553 1487 
3 2256 2263 2259 
3 1904 1906 1905 
3 1382 1383 1372 
3 2517 2519 2518 
3 2324 2376 2322 
3 2447 2960 2445 
3 2150 4964 2718 
3 1387 1388 1319 
3 1998 2000 1999 
3 2590 2592 2591 
3 3142 3143 3141 
3 880 5245 863 
3 949 5278 926 
3 2390 2391 2389 
3 1889 5369 1887 
3 4296 5271 970 
3 1892 1893 1891 
3 4209 4211 4210 
3 1366 1530 1368 
3 2099 2101 2100 
3 1240 1241 1226 
3 2070 2088 2071 
3 2014 2020 2018 
3 1421 1422 1223 
3 6413 6415 5227 
3 926 5278 928 
3 1454 1561 1354 
3 3017 3019 3018 
3 984 5238 988 
3 2842 2977 2976 
3 5273 5274 1106 
3 511 512 510 
3 585 629 612 
3 1237 1239 1238 
3 2079 2080 2078 
3 1536 1606 1535 
3 2196 2197 2195 
3 710 712 711 
3 1022 5241 5239 
3 2545 2549 2546 
3 399 434 397 
3 2337 2339 2338 
3 1108 5275 951 
3 423 5092 398 
3 1884 1885 1883 
3 3630 5634 3945 
3 2011 2034 2008 
3 711 4487 582 
3 612 628 586 
3 1978 5138 1875 
3 2471 2910 2909 
3 398 400 399 
3 3008 3478 3477 
3 1196 1198 1195 
3 1292 1309 1308 
3 1235 1237 1236 
3 3759 4828 3339 
3 1869 2041 1867 
3 1870 2758 1872 
3 1247 1322 1249 
3 5288 5314 5212 
3 1194 1196 1195 
3 3855 3858 3856 
3 1315 1317 1310 
3 1167 1318 1227 
3 850 5253 852 
3 2049 2050 2046 
3 1490 1491 1469 
3 3103 3163 3104 
3 2007 2008 2006 
3 2170 2171 2169 
3 852 5253 864 
3 2052 3499 2054 
3 2931 2932 2930 
3 2200 2201 2199 
3 3001 3003 3002 
3 1924 1925 1923 
3 1478 1617 1579 
3 2444 2445 2435 
3 916 5269 912 
3 2504 2505 2503 
3 1027 5357 5217 
3 928 5278 958 
3 1369 1402 1242 
3 1321 1516 1406 
3 1366 1367 1365 
3 988 5238 5228 
3 5261 5262 972 
3 3998 4172 3473 
3 1362 1453 1360 
3 2317 2318 2297 
3 1235 1527 1237 
3 2796 2797 2306 
3 2031 3050 2881 
3 3856 3857 3854 
3 2962 3414 2961 
3 3083 3583 3406 
3 1060 5317 5159 
3 1511 1512 1510 
3 2156 5403 2302 
3 3271 5376 3650 
3 1899 1977 1897 
3 2192 2193 2191 
3 2955 3266 3264 
3 879 5280 888 
3 2344 2364 2343 
3 2517 2518 2516 
3 1856 1857 1855 
3 2072 2075 2074 
3 1379 1381 1377 
3 2500 2644 2498 
3 5167 5288 945 
3 3600 5678 5315 
3 1438 1445 1439 
3 1900 1901 1899 
3 3616 5677 5437 
3 4764 5715 5493 
3 1859 2746 1857 
3 2632 2659 2617 
3 981 5292 974 
3 1310 1450 1308 
3 2182 2283 2184 
3 929 5240 955 
3 2057 2727 2015 
3 2401 2409 2404 
3 1909 1910 1908 
3 2058 2059 2057 
3 3518 3682 3522 
3 3020 3022 3019 
3 3515 3516 3514 
3 2980 3093 2981 
3 1906 1908 1907 
3 4995 5438 4983 
3 3163 3165 3164 
3 1379 1389 1381 
3 2013 2014 2012 
3 3141 3440 3140 
3 2247 2248 2246 
3 3319 3642 3318 
3 2188 2267 2190 
3 1213 5299 1369 
3 2148 2149 2147 
3 2927 2928 2926 
3 891 5277 871 
3 3173 3192 3172 
3 5226 5272 1051 
3 2241 2243 2242 
3 2251 2261 2248 
3 3163 3164 3104 
3 976 5289 5288 
3 5207 5313 5308 
3 1976 1980 1975 
3 2056 2057 2015 
3 2291 2342 2281 
3 1880 1882 1881 
3 3500 3590 2580 
3 5172 5347 860 
3 2201 2257 2199 
3 2269 2276 2274 
3 2682 2704 2681 
3 3080 3083 3082 
3 2338 2762 2336 
3 3104 3654 3102 
3 1195 1197 1193 
3 2458 2463 2459 
3 2889 2891 2890 
3 5235 5263 972 
3 2069 2077 2068 
3 1850 2037 1852 
3 2162 2164 2163 
3 3732 3981 3927 
3 2893 2980 2894 
3 2229 2230 2228 
3 4909 4910 3320 
3 1873 2724 1871 
3 5308 5313 1025 
3 1547 1565 1548 
3 2569 2570 2567 
3 3133 3135 3134 
3 1967 1983 1963 
3 1884 1886 1885 
3 3753 3832 2904 
3 5227 6415 5272 
3 1359 1361 1360 
3 1571 1572 1503 
3 2651 2652 2649 
3 3023 3172 3022 
3 3031 3035 3033 
3 1926 1927 1925 
3 930 5240 929 
3 1933 1954 1935 
3 2225 2226 2224 
3 2399 2400 2398 
3 3440 3810 3623 
3 2695 2699 2698 
3 2771 3638 2773 
3 1930 1933 1932 
3 2325 2326 2324 
3 1868 1869 1867 
3 1874 1876 1875 
3 2634 2635 2600 
3 2140 2142 2141 
3 2194 2195 2193 
3 1390 1398 1317 
3 3050 3065 2881 
3 1463 1478 1465 
3 2923 2924 2922 
3 2519 2520 2518 
3 1245 1247 1246 
3 2778 2834 2438 
3 1240 1321 1241 
3 1551 1766 1609 
3 983 5313 981 
3 1956 1957 1955 
3 3117 3170 2851 
3 2108 2109 2107 
3 974 5292 5280 
3 1903 2761 1904 
3 3478 3681 3480 
3 1915 1918 1916 
3 2756 4919 3106 
3 3171 3571 2826 
3 2468 2469 2370 
3 5195 5341 5322 
3 2072 3052 2075 
3 2497 5767 2499 
3 1517 1519 1518 
3 1831 1832 1830 
3 1478 1579 1465 
3 1394 1408 1407 
3 2032 2033 2030 
3 1874 1974 1876 
3 1906 1909 1908 
3 972 5263 5261 
3 1953 1956 1955 
3 2864 3045 2368 
3 2188 2190 2189 
3 2875 3250 2253 
3 2216 2218 2217 
3 959 5310 919 
3 2800 3069 2965 
3 2223 2224 2222 
3 3034 3515 3514 
3 3809 4450 3808 
3 2414 2436 2412 
3 3890 4529 3892 
3 2828 2902 2830 
3 2027 2028 2025 
3 1996 1997 1995 
3 3448 3950 3949 
3 2529 2572 2531 
3 1939 1942 1938 
3 5190 5291 873 
3 1607 6351 1606 
3 3444 4879 4564 
3 3495 3496 3493 
3 867 5277 868 
3 914 5269 927 
3 2970 3204 3203 
3 803 805 804 
3 2369 3661 3105 
3 1864 1865 1863 
3 2529 2531 2530 
3 1156 1240 1226 
3 2198 2200 2199 
3 3021 3591 3018 
3 5309 5320 864 
3 2195 2250 2193 
3 1844 1846 1845 
3 2555 2556 2553 
3 2671 2674 2673 
3 2274 2280 2278 
3 2689 2691 2690 
3 1355 5082 1194 
3 2006 2777 2004 
3 1349 1392 1347 
3 1837 2010 1835 
3 2482 2483 2481 
3 3437 3616 2576 
3 3464 3466 3465 
3 1866 1868 1867 
3 1427 1494 1441 
3 3976 3977 3975 
3 1927 2766 1925 
3 1015 5351 5187 
3 1438 1447 1445 
3 1852 1854 1853 
3 2539 2565 2541 
3 1232 1400 1220 
3 1933 1935 1934 
3 2244 2253 2245 
3 3039 3041 3040 
3 5227 5272 5226 
3 2925 5594 2927 
3 3661 3662 3105 
3 2338 5456 2763 
3 3593 3893 3594 
3 2154 2156 2155 
3 4602 4605 4603 
3 5167 5314 5288 
3 2382 2383 2381 
3 2521 2523 2522 
3 2768 3617 2915 
3 2634 2636 2635 
3 3808 3846 3007 
3 3509 3510 3508 
3 1945 1948 1947 
3 2002 2003 2000 
3 912 5269 914 
3 2224 2234 2222 
3 1860 1862 1861 
3 3648 5527 2988 
3 1568 6195 1569 
3 2285 2345 2308 
3 907 908 905 
3 2220 2222 2219 
3 2264 2266 2265 
3 2610 2614 2609 
3 2401 2404 2402 
3 3025 3026 2621 
3 2817 2819 2818 
3 3124 3127 3126 
3 2153 2279 2151 
3 1570 1571 1503 
3 3138 3139 3136 
3 3452 5250 3285 
3 1629 1630 1491 
3 1842 1843 1841 
3 964 5297 1056 
3 2490 2805 2653 
3 2035 2036 2033 
3 3073 3076 3072 
3 2002 3302 2019 
3 2052 2054 2053 
3 3168 3169 3024 
3 5192 5291 5190 
3 5280 5292 888 
3 1520 1521 1461 
3 2665 2666 2664 
3 2535 2537 2536 
3 1591 1592 1590 
3 3877 5522 4839 
3 2014 2017 2012 
3 2092 2094 2093 
3 1460 1462 1458 
3 1632 1678 1634 
3 3044 5368 4859 
3 5191 5360 5192 
3 1249 1251 1250 
3 1910 1911 1908 
3 2178 2179 2177 
3 1632 1633 1631 
3 2668 2747 2666 
3 2020 2721 2021 
3 2307 2796 2306 
3 2395 2397 2396 
3 2679 2696 2677 
3 2927 2929 2928 
3 2783 4994 2895 
3 2154 2155 2153 
3 2578 5561 2587 
3 1490 1629 1491 
3 2134 2136 2135 
3 3356 3995 3946 
3 3826 4834 4440 
3 871 5277 867 
3 2365 2369 2364 
3 2787 2789 2788 
3 3066 3667 3665 
3 1110 5300 5278 
3 2987 2988 2870 
3 2231 2236 2235 
3 2443 5412 2972 
3 3634 3877 3065 
3 3349 5634 3630 
3 4703 4704 4702 
3 1470 1471 1428 
3 3577 3578 3576 
3 3853 3854 3852 
3 1537 4142 1538 
3 3024 3294 2903 
3 3842 5485 3297 
3 2098 2289 2099 
3 2211 2738 2208 
3 1108 5297 5275 
3 3184 3186 3185 
3 2011 2900 2034 
3 3182 3584 3184 
3 5377 5378 3719 
3 5291 5356 873 
3 2525 2527 2526 
3 2969 3120 2823 
3 2523 2525 2524 
3 1537 1538 1500 
3 5207 5308 969 
3 1887 5369 1979 
3 2433 2443 2435 
3 2441 2848 2440 
3 1292 1308 1289 
3 3188 3189 3187 
3 1952 2759 1950 
3 1290 1293 1292 
3 2405 2407 2406 
3 2532 2577 2530 
3 2190 2192 2191 
3 2104 2296 2103 
3 2139 2284 2137 
3 2236 2237 2235 
3 1981 1987 1986 
3 2353 2354 2352 
3 1025 5313 983 
3 1528 5120 1529 
3 5192 5360 5351 
3 3915 3916 3324 
3 1234 1357 1356 
3 1534 4779 1556 
3 2070 2071 2050 
3 5321 6338 1114 
3 3079 5042 4536 
3 1496 1505 1451 
3 2445 5142 2435 
3 1498 1499 1497 
3 1840 1841 1839 
3 1773 1801 1482 
3 5288 5289 945 
3 3901 3902 3613 
3 5275 5297 964 
3 2610 2615 2614 
3 1157 4858 1156 
3 1846 1848 1847 
3 1457 1531 1402 
3 5083 5448 1526 
3 2513 4884 2515 
3 2559 2561 2560 
3 2140 2141 2139 
3 518 5355 530 
3 5176 5309 1025 
3 2237 2730 2235 
3 1981 1986 1985 
3 2060 2061 2059 
3 2380 2381 2261 
3 2118 2120 2119 
3 2379 4744 2155 
3 2244 2875 2253 
3 2521 2573 2523 
3 2132 2304 2134 
3 3879 5618 5115 
3 2497 2499 2498 
3 2688 5461 2686 
3 1378 1380 1379 
3 864 5320 5170 
3 3856 3859 3857 
3 2424 2438 2425 
3 2603 2616 2604 
3 1951 1952 1950 
3 5322 5341 5171 
3 2285 2286 2102 
3 3335 3982 3340 
3 5168 5314 5167 
3 2263 2812 2282 
3 3128 3137 3126 
3 2065 2067 2066 
3 4707 4709 4708 
3 2098 2294 2289 
3 2182 2184 2183 
3 2415 2437 2417 
3 2793 3043 2795 
3 3679 3889 3367 
3 4682 4735 4734 
3 3620 3664 3344 
3 2650 2651 2649 
3 2726 5362 2138 
3 2648 3114 3113 
3 1553 1557 1487 
3 3660 3913 3672 
3 5176 5320 5309 
3 5246 5373 952 
3 1597 1598 1596 
3 3614 3615 3262 
3 2212 2213 2211 
3 5253 5309 864 
3 5373 5381 952 
3 2571 2582 2581 
3 958 5300 1052 
3 2261 5542 2248 
3 2129 2272 2127 
3 2507 2509 2508 
3 3511 4862 4751 
3 2925 2927 2926 
3 2791 2826 2792 
3 2648 3113 2642 
3 2062 2063 2061 
3 1348 1411 1349 
3 2331 2332 2307 
3 3200 4904 4903 
3 5136 5321 1113 
3 1029 5356 1031 
3 3131 3133 3132 
3 969 5308 5253 
3 3247 3782 3246 
3 2390 2392 2391 
3 2495 2496 2494 
3 2905 2908 2822 
3 3284 3450 3285 
3 3284 3285 2770 
3 2094 2095 2093 
3 2484 2487 2486 
3 2704 2799 2681 
3 3509 4427 3697 
3 3599 4034 4033 
3 3349 3629 3628 
3 952 5381 1053 
3 1521 1533 1461 
3 2701 2705 2700 
3 4710 4714 4708 
3 3767 3769 3768 
3 1831 1834 1833 
3 2943 2944 2942 
3 1883 2720 1881 
3 1205 5285 1221 
3 995 5341 5195 
3 1561 1562 1354 
3 2594 2595 2593 
3 3562 3563 3561 
3 1923 5406 1931 
3 2771 2773 2772 
3 2934 3234 2932 
3 1411 1481 1412 
3 2511 2574 2513 
3 1031 5356 5291 
3 2089 2288 2287 
3 2545 2578 2549 
3 3532 3533 3531 
3 5230 5304 1689 
3 4306 4307 4305 
3 3282 3437 2576 
3 1026 5320 5176 
3 2424 2425 2419 
3 3060 3061 3059 
3 2400 3013 2398 
3 5320 5322 5170 
3 3213 5346 2907 
3 2070 2089 2088 
3 1025 5309 5308 
3 1441 1442 1426 
3 2731 2732 2730 
3 1990 1992 1991 
3 2505 2507 2506 
3 2824 2969 2823 
3 5397 5479 5099 
3 1870 1872 1871 
3 3031 3033 3032 
3 2163 2277 2161 
3 1576 1621 1577 
3 1513 1679 1514 
3 3907 5796 3908 
3 2533 2535 2534 
3 5192 5354 5291 
3 3245 3419 3244 
3 1689 5304 1761 
3 2263 2282 2264 
3 2138 2139 2137 
3 3328 3898 3162 
3 3228 3229 3227 
3 5278 5300 958 
3 1534 1556 1555 
3 1843 2461 1841 
3 1836 1837 1835 
3 1113 5321 1114 
3 2514 2613 2512 
3 3461 3464 3463 
3 5194 5317 1060 
3 1832 2052 2051 
3 2372 2835 2373 
3 3726 3759 3339 
3 2482 5414 2484 
3 2877 2992 2991 
3 5539 5565 3644 
3 1482 1483 1412 
3 2431 2434 2433 
3 3801 5501 3527 
3 2768 2915 2914 
3 5170 5322 5171 
3 2218 2220 2219 
3 2454 2817 2455 
3 1576 1622 1621 
3 3245 3420 3419 
3 2209 2211 2208 
3 5195 5322 1026 
3 2839 2840 2797 
3 4672 4674 4673 
3 1496 5358 4289 
3 2827 4988 2889 
3 3146 3149 3148 
3 1026 5322 5320 
3 1972 1976 1975 
3 1968 1972 1971 
3 1555 5425 1533 
3 2493 2494 2491 
3 3135 3138 3136 
3 3290 3296 3292 
3 2900 3608 3325 
3 2483 4969 2481 
3 3466 5656 3467 
3 2837 5452 2835 
3 2872 3263 2984 
3 3019 3021 3018 
3 4810 4880 3180 
3 2238 5515 2237 
3 1154 1158 1157 
3 1348 1515 1411 
3 2783 2895 2781 
3 2358 2829 2828 
3 3770 3771 3462 
3 3305 3306 3118 
3 2970 3203 2969 
3 2947 2949 2948 
3 2280 2290 2281 
3 5308 5309 5253 
3 2485 5414 2482 
3 3938 4386 3941 
3 2800 2965 2964 
3 2413 2414 2412 
3 1844 2044 1846 
3 2104 2297 2296 
3 2752 2753 2751 
3 1517 5367 1519 
3 4711 4713 4712 
3 2380 2382 2381 
3 2089 2287 2088 
3 2921 2922 2920 
3 1910 1913 1912 
3 3504 5664 3791 
3 2847 2879 2820 
3 3296 3297 3292 
3 2697 3031 3030 
3 5011 5535 2717 
3 3542 3543 3541 
3 1519 5367 4518 
3 1839 5069 1837 
3 2384 2458 2387 
3 3157 3159 3158 
3 3511 4750 3836 
3 3622 3954 3646 
3 3038 4849 4848 
3 2714 4989 2112 
3 2096 2097 2095 
3 2394 2403 2393 
3 2911 2912 2655 
3 2467 3447 2468 
3 3028 3029 3026 
3 3168 3345 3169 
3 2533 2534 2532 
3 2873 2874 2799 
3 3189 5173 3718 
3 3219 3319 3318 
3 508 511 510 
3 2487 2488 2486 
3 2509 2511 2510 
3 2589 2599 2590 
3 3155 3157 3156 
3 3182 3183 3181 
3 2375 3054 3053 
3 2651 2654 2652 
3 3071 3072 3070 
3 583 4816 508 
3 585 612 586 
3 860 5360 5191 
3 398 399 397 
3 1893 2043 1891 
3 396 423 398 
3 2742 5422 1849 
3 3470 3472 3471 
3 710 711 582 
3 2519 2521 2520 
3 2589 3260 2599 
3 2340 2956 2344 
3 2465 2864 2368 
3 2182 2183 2181 
3 3310 3312 3311 
3 3916 3918 3917 
3 3345 3375 3346 
3 1031 5354 5252 
3 2663 5734 2425 
3 3877 3878 3065 
3 2475 2633 2476 
3 3093 3094 2981 
3 2090 5410 2092 
3 3855 3856 3854 
3 2123 2126 2125 
3 2062 2065 2063 
3 3442 3443 3196 
3 1529 1591 1590 
3 3725 4039 3752 
3 3093 3095 3094 
3 1958 1959 1957 
3 3099 3101 3100 
3 3176 3177 3175 
3 5217 5341 995 
3 3480 3481 3479 
3 2337 2338 2336 
3 3855 4923 3863 
3 2078 2743 2077 
3 3144 3145 3143 
3 2578 2587 2579 
3 2873 3252 2874 
3 3668 5512 2390 
3 2410 5495 2404 
3 1192 1355 1194 
3 1471 5405 1428 
3 3767 3768 3766 
3 2965 3323 3322 
3 2204 2206 2205 
3 3198 3753 2904 
3 2104 2316 2297 
3 3555 4360 3553 
3 2773 2775 2774 
3 3320 5424 2598 
3 4463 4466 4465 
3 2269 2274 2273 
3 2667 2668 2666 
3 2128 2129 2127 
3 2564 2566 2563 
3 3575 3577 3576 
3 2539 2540 2538 
3 3178 3180 3179 
3 2511 2513 2512 
3 2525 2779 2527 
3 3930 4921 3338 
3 2763 2764 2762 
3 3297 3298 3292 
3 3176 3178 3177 
3 2478 2480 2479 
3 2627 2628 2626 
3 3098 3660 3097 
3 2116 2117 2115 
3 2411 2412 2410 
3 2625 2626 2623 
3 2584 2598 2581 
3 2782 2783 2781 
3 2156 2158 2157 
3 2889 3119 2891 
3 2142 2144 2143 
3 2146 2148 2147 
3 2548 2550 2547 
3 2791 2792 2790 
3 3314 5488 5396 
3 2132 2134 2133 
3 2757 3299 2755 
3 5068 5587 3875 
3 3058 3059 3057 
3 1028 5347 1027 
3 3841 5454 4854 
3 1990 1993 1992 
3 3657 3936 3387 
3 3859 3860 3857 
3 3161 3328 3162 
3 3432 3627 3431 
3 1513 1804 1679 
3 2836 3488 2838 
3 3931 3991 3930 
3 3554 3694 3556 
3 1219 1235 1228 
3 2216 2233 2218 
3 5187 5351 1028 
3 2086 2107 2106 
3 3055 4423 4422 
3 3860 3861 3857 
3 2793 2794 2786 
3 2409 2410 2404 
3 5051 5809 3699 
3 5252 5354 1015 
3 2350 2353 2352 
3 2166 4959 2168 
3 3146 3148 3147 
3 2092 5410 2295 
3 2859 3121 2858 
3 3230 3248 3229 
3 3103 3104 3102 
3 3920 3923 3921 
3 5291 5354 1031 
3 2475 2476 2474 
3 2321 2323 2322 
3 2743 2770 2077 
3 1532 1535 1437 
3 1445 5350 1446 
3 5703 5750 2790 
3 2939 2940 2938 
3 2020 5765 2803 
3 3258 3482 3421 
3 2110 2111 2109 
3 2620 2624 2623 
3 3098 5032 3660 
3 2947 2948 2946 
3 3732 3927 3353 
3 2337 2340 2339 
3 3305 3307 3306 
3 2812 2813 2282 
3 5171 5357 5172 
3 2680 2681 2679 
3 1194 1195 1193 
3 2692 2703 2690 
3 3087 5507 3620 
3 3204 4890 3203 
3 4715 4719 4712 
3 873 5356 5246 
3 2977 3194 3193 
3 3637 3716 3715 
3 3538 3690 3540 
3 3511 3836 3476 
3 2927 3010 2929 
3 2435 5142 2432 
3 1228 1232 1220 
3 3046 3048 3047 
3 3564 3566 3565 
3 2543 2544 2542 
3 2628 2802 2626 
3 2430 3295 2428 
3 2552 2780 2612 
3 3411 3787 3263 
3 2096 2098 2097 
3 2489 2490 2488 
3 2858 2860 2814 
3 530 5355 729 
3 3542 3544 3543 
3 3510 3798 3508 
3 2620 2623 2622 
3 2643 2648 2642 
3 2045 2046 2036 
3 2312 2346 2298 
3 2601 5667 2603 
3 2130 2131 2129 
3 3481 4412 3479 
3 3481 5044 4414 
3 5334 5335 3579 
3 4403 4408 3800 
3 2311 2312 2298 
3 2605 2606 2596 
3 3090 3091 3089 
3 3611 4024 4023 
3 3257 3696 3428 
3 5338 5548 5337 
3 3409 3410 3408 
3 3194 3746 3193 
3 2496 3914 2494 
3 2815 2858 2814 
3 2031 2801 2029 
3 2676 3064 2678 
3 2407 2408 2406 
3 3534 5105 3691 
3 3310 3311 3309 
3 2854 2855 2757 
3 3309 3719 3307 
3 1456 5048 5047 
3 1957 1970 1955 
3 3085 3245 3244 
3 3020 4951 3023 
3 3816 3818 3817 
3 2095 2740 2093 
3 2606 2618 2608 
3 2501 2503 2502 
3 4781 4869 2047 
3 3271 3272 3270 
3 3617 5534 3900 
3 3257 3407 3252 
3 1889 5482 5369 
3 2308 2358 2309 
3 3818 3820 3819 
3 2356 2357 2354 
3 3041 3400 3236 
3 3269 3271 3270 
3 1506 4304 1567 
3 3279 3813 3278 
3 3056 5640 3279 
3 3735 3736 3633 
3 2731 2733 2732 
3 2101 2102 2100 
3 3249 3403 3402 
3 1242 5417 5129 
3 3351 3387 3386 
3 2905 5511 5510 
3 3583 4343 3406 
3 2081 2083 2082 
3 2174 2175 2173 
3 3472 3999 3997 
3 2347 2853 2816 
3 1204 5196 1201 
3 3467 3469 3468 
3 2086 2108 2107 
3 2030 2031 2029 
3 2375 3053 2122 
3 2038 2045 2036 
3 3001 3221 3003 
3 5351 5360 1028 
3 4011 4029 3960 
3 2803 2955 2954 
3 3780 5023 3242 
3 2492 2493 2491 
3 3450 4871 4870 
3 2685 2896 2687 
3 2450 2452 2451 
3 3165 3167 3164 
3 2739 5101 2487 
3 5129 5196 1208 
3 2350 2352 2351 
3 2384 2387 2385 
3 3037 5433 3423 
3 1630 1631 1491 
3 1831 1833 1832 
3 2230 4965 2254 
3 2111 2293 2109 
3 2770 5439 2077 
3 2472 5618 2471 
3 2832 3491 3490 
3 2535 2669 2537 
3 3875 4765 2715 
3 2861 2862 2764 
3 4470 4472 4471 
3 3487 3648 2988 
3 3443 5467 5466 
3 2418 2424 2419 
3 2839 3086 2840 
3 3528 3529 3527 
3 2589 2590 2585 
3 2140 2315 2142 
3 2123 2125 2124 
3 3606 3874 3605 
3 2846 3199 2866 
3 2601 2603 2602 
3 2505 2575 2507 
3 1428 5405 1429 
3 2356 2901 2357 
3 3272 3426 3270 
3 3351 3656 3387 
3 3025 4917 3027 
3 2902 3213 2907 
3 3512 4762 3831 
3 2367 2844 2346 
3 2841 2843 2459 
3 3422 4357 4356 
3 4463 4465 4462 
3 3112 3122 3028 
3 2424 2778 2438 
3 2671 2672 2670 
3 4878 5733 2723 
3 3305 3308 3307 
3 2734 2736 2735 
3 2450 2821 2452 
3 3268 3427 3266 
3 4010 4011 3960 
3 2480 2481 2479 
3 2427 2441 2440 
3 2941 2943 2942 
3 2068 2087 2053 
3 2256 2259 2258 
3 2902 2907 2903 
3 2853 5268 3653 
3 3160 3161 3159 
3 3914 5911 5790 
3 4432 4699 4433 
3 2949 2950 2948 
3 2222 5581 2219 
3 2748 2750 2749 
3 3437 3803 3616 
3 4510 4519 4507 
3 1522 5254 1439 
3 4607 4608 4606 
3 2263 5474 2812 
3 2561 2564 2563 
3 2999 3000 2998 
3 4707 4708 4705 
3 3585 4812 3244 
3 3504 3791 3502 
3 1409 5384 1244 
3 3580 3714 3578 
3 3044 5567 2463 
3 2835 2975 2373 
3 1498 5094 1499 
3 2632 2898 2660 
3 3209 4804 4803 
3 1053 5381 1616 
3 2117 2310 2115 
3 2151 5696 2149 
3 3667 3904 3665 
3 3131 3132 3130 
3 2328 2371 2329 
3 3448 4517 3950 
3 1931 5165 1921 
3 3172 3197 3022 
3 2439 2905 2822 
3 3614 3903 3615 
3 3248 3415 3229 
3 2693 5385 2897 
3 4595 4596 3891 
3 3039 4771 3041 
3 2325 5394 2327 
3 1917 2671 2670 
3 3863 3864 3858 
3 5347 5360 860 
3 2452 2454 2453 
3 5341 5357 5171 
3 1030 5373 1029 
3 2639 2906 2637 
3 2602 5283 2588 
3 2444 5084 2446 
3 3151 3152 3150 
3 4945 5707 5489 
3 1208 5196 1204 
3 1202 5285 1205 
3 2992 5012 2993 
3 3796 4559 4361 
3 2910 3211 2909 
3 2695 4966 2699 
3 4553 4554 4552 
3 4910 5424 3320 
3 3660 3672 3097 
3 3802 4403 3800 
3 2697 3030 2672 
3 2471 2909 2469 
3 2595 2621 2593 
3 3275 3408 3274 
3 3095 3096 3094 
3 2607 5419 5407 
3 2204 2207 2206 
3 3249 3698 3403 
3 3224 5744 3700 
3 4750 4756 3836 
3 3158 5653 4741 
3 1595 5083 1526 
3 1030 5381 5373 
3 2299 2328 2305 
3 4490 4492 4491 
3 4021 4022 4020 
3 2813 3057 2282 
3 5217 5357 5341 
3 1907 5068 3875 
3 4933 4934 3446 
3 3954 3994 3646 
3 3505 3506 3504 
3 2685 2687 2686 
3 3063 3070 3061 
3 3222 3224 3223 
3 4469 4594 4467 
3 3676 3747 3677 
3 2768 2914 2646 
3 906 4814 904 
3 2846 2847 2820 
3 4652 4653 4614 
3 3146 5736 3149 
3 2872 3317 3263 
3 801 832 803 
3 904 907 905 
3 803 804 802 
3 2073 5311 5090 
3 2327 5394 2349 
3 802 5121 826 
3 2138 5362 2140 
3 3216 3435 3433 
3 3157 3160 3159 
3 3453 3454 3452 
3 3099 3378 3101 
3 1163 5118 1159 
3 3215 3397 3214 
3 4526 6189 4573 
3 3267 3268 3266 
3 3472 3473 3471 
3 3202 4384 3726 
3 4743 4960 3572 
3 2317 5626 2320 
3 3440 4457 3810 
3 2753 2756 2755 
3 2436 5553 2412 
3 2872 2984 2871 
3 3524 3526 3525 
3 3279 5640 3816 
3 3749 4021 4020 
3 5398 5478 2652 
3 3710 4030 3967 
3 4646 5367 1517 
3 2814 5058 2312 
3 2769 5844 5394 
3 3843 4850 3842 
3 5386 5570 5142 
3 3279 3815 3813 
3 3830 4531 4530 
3 3534 3535 3533 
3 3110 3348 3111 
3 5205 5714 2960 
3 1028 5360 5347 
3 2446 5084 3201 
3 5456 5713 2763 
3 2805 2979 2978 
3 2752 2754 2753 
3 3228 3230 3229 
3 3115 3647 2862 
3 3386 5432 4015 
3 4635 4642 4641 
3 3310 5586 3581 
3 3078 3671 3670 
3 1378 1379 1377 
3 3518 3522 3519 
3 1159 5118 1157 
3 2629 2637 2628 
3 5110 5285 1202 
3 1487 5350 1445 
3 3769 3979 3978 
3 4350 4455 4349 
3 3271 3650 3273 
3 2876 2880 2659 
3 4547 4548 4546 
3 3066 3068 2887 
3 3045 5415 2368 
3 3205 3207 3206 
3 2891 2893 2892 
3 2736 2810 2809 
3 3062 3063 3061 
3 3287 3474 3288 
3 3970 4532 3969 
3 3195 3196 3194 
3 3267 3651 3269 
3 2132 5451 2304 
3 2354 2355 2352 
3 2162 2163 2161 
3 3129 3131 3130 
3 2264 5663 2266 
3 5036 5094 1498 
3 3713 5518 3708 
3 4850 5424 3842 
3 2417 2422 2421 
3 5368 5483 3645 
3 2413 5102 2415 
3 3464 5434 3725 
3 2819 2846 2820 
3 4598 4599 4596 
3 1999 3649 2040 
3 3874 4958 3605 
3 1491 5468 1469 
3 2676 2678 2677 
3 4565 4567 4566 
3 2114 2115 2113 
3 3236 3396 3237 
3 2700 2702 2698 
3 3524 3570 3526 
3 1462 5390 1458 
3 2320 2807 2361 
3 3219 3318 2918 
3 5013 5014 5012 
3 3644 3924 2808 
3 2807 3008 2957 
3 3421 3797 3422 
3 5760 5801 3655 
3 2616 2631 2617 
3 1557 5350 1487 
3 4910 5682 3678 
3 4598 4600 4599 
3 2247 5404 2249 
3 1245 5445 1247 
3 4948 4949 4947 
3 3758 3888 3887 
3 2924 2985 2922 
3 3624 3625 3316 
3 3460 3461 3459 
3 3359 3360 3358 
3 3515 3518 3517 
3 3546 3547 3545 
3 1467 5397 1359 
3 5106 5397 5099 
3 3765 3766 3764 
3 2210 3668 2390 
3 1533 5425 5389 
3 2836 2837 2835 
3 4611 4613 4612 
3 3106 3712 3709 
3 3086 3088 2840 
3 3393 4009 4007 
3 3500 3847 3590 
3 2970 3289 3204 
3 4711 4712 4710 
3 2172 2173 2171 
3 3035 3036 3033 
3 5381 5382 1616 
3 3959 3960 3370 
3 3161 3162 3159 
3 1222 1594 1526 
3 3304 3305 3118 
3 2358 5526 2829 
3 4596 4597 3891 
3 2167 2804 2165 
3 4924 5752 3651 
3 5503 5582 1489 
3 3108 3369 3107 
3 3273 3275 3274 
3 2974 3365 3364 
3 2124 5359 2121 
3 3540 3542 3541 
3 2916 3218 2918 
3 2929 2931 2930 
3 2787 2857 2789 
3 2909 5508 2469 
3 3449 4546 4535 
3 5468 5469 1495 
3 2166 2167 2165 
3 2873 3257 3252 
3 3661 3707 3662 
3 3743 3744 3742 
3 3763 3765 3764 
3 3153 3154 3152 
3 2811 3693 3242 
3 2467 3475 3447 
3 3091 3658 3089 
3 1348 1349 1347 
3 1427 1441 1426 
3 3498 3838 3827 
3 2603 2630 2616 
3 4922 5568 2547 
3 3588 3610 3589 
3 4704 4720 4702 
3 1239 5236 1352 
3 1352 5236 1454 
3 1506 1567 1507 
3 3546 3548 3547 
3 3139 3140 3136 
3 2102 3597 2100 
3 2997 2999 2998 
3 3766 4077 3764 
3 2407 2423 2418 
3 3322 3915 3324 
3 2065 2072 2067 
3 2982 3390 2983 
3 1290 1292 1289 
3 3310 3581 3312 
3 3073 3077 3076 
3 4466 4467 4465 
3 3573 5283 2602 
3 1030 5382 5381 
3 2034 5666 2008 
3 3922 4684 3919 
3 2112 2113 2111 
3 3947 3948 3736 
3 3150 3436 3147 
3 3435 4321 3433 
3 2958 2959 2710 
3 5099 5479 1531 
3 2566 2580 2563 
3 3244 4812 3062 
3 3048 3247 3246 
3 3784 3965 3937 
3 2403 2428 2393 
3 2987 3413 3412 
3 2464 3016 2124 
3 3109 3721 3720 
3 1594 1595 1526 
3 3947 4031 3948 
3 2467 2468 2370 
3 1981 5332 1987 
3 2320 2361 2321 
3 3025 3027 3026 
3 1156 1226 1153 
3 3637 3717 3716 
3 2966 3351 3350 
3 3199 5472 4681 
3 3055 4422 3886 
3 3329 3953 3331 
3 2128 5366 2767 
3 1463 5389 1478 
3 5622 5682 3029 
3 2765 5431 1959 
3 3019 5651 3021 
3 2173 2271 2171 
3 1843 4901 2461 
3 2974 3364 3363 
3 3535 3794 3533 
3 3046 3049 3048 
3 3604 3605 3237 
3 2340 2344 2343 
3 2995 2996 2994 
3 2242 5593 5515 
3 3388 5377 3311 
3 5141 5843 2769 
3 2655 5398 2652 
3 1207 5448 1206 
3 3315 3624 3316 
3 2884 5205 2449 
3 5622 5794 3931 
3 1949 5762 1944 
3 3982 3996 3340 
3 3232 5363 2999 
3 2156 2302 2158 
3 3501 3502 3486 
3 4948 4950 4949 
3 2734 2737 2736 
3 2827 2887 2792 
3 2938 3235 2936 
3 2769 5394 2325 
3 4589 4590 4332 
3 5130 5520 729 
3 3714 5333 3578 
3 5271 5610 826 
3 3824 3826 3823 
3 5548 5662 5337 
3 2090 5470 5410 
3 3632 3735 3633 
3 2615 2620 2619 
3 3488 4346 3489 
3 2490 2653 2488 
3 3799 4430 4402 
3 3391 4273 3393 
3 3133 3200 3135 
3 1247 5445 1322 
3 1840 5295 1842 
3 2369 3105 2364 
3 3127 5072 3129 
3 4819 4821 4820 
3 2935 2936 2934 
3 3519 3521 3520 
3 3377 3983 3758 
3 2070 4991 2089 
3 1879 5834 1877 
3 2004 5551 2000 
3 3144 3146 3145 
3 2635 5578 5450 
3 3218 5529 3598 
3 3536 3537 3535 
3 3622 3646 3621 
3 4930 5686 5552 
3 2913 3214 2911 
3 2076 3243 2953 
3 4726 5038 2697 
3 4706 4707 4705 
3 3461 3462 3459 
3 3769 3980 3979 
3 3542 4973 3544 
3 3743 3745 3744 
3 2699 2700 2698 
3 2119 5359 4773 
3 3438 3439 3395 
3 3195 3512 3441 
3 3478 3480 3479 
3 3725 4040 4039 
3 3434 4443 3444 
3 2691 2692 2690 
3 2937 2938 2936 
3 2823 5371 2794 
3 4944 4945 3304 
3 3124 3125 2867 
3 3582 5579 4873 
3 5009 5741 4477 
3 3331 3587 3586 
3 3598 4324 3398 
3 3611 4023 3933 
3 3196 5466 3194 
3 3474 3844 3288 
3 2454 2845 2817 
3 1154 1157 1156 
3 734 5520 4278 
3 3812 4481 3806 
3 4659 4663 4656 
3 2597 5162 2518 
3 2492 4382 2658 
3 3521 3524 3523 
3 3017 5702 3020 
3 3333 5736 3144 
3 729 5520 730 
3 2328 2811 2371 
3 3391 3392 2983 
3 3526 3528 3527 
3 3123 3124 2867 
3 3670 4787 4786 
3 4926 4927 3293 
3 3491 3493 3492 
3 5524 5567 4763 
3 1566 5411 1548 
3 2431 2432 2430 
3 2632 2660 2659 
3 3544 3546 3545 
3 3074 3686 3078 
3 3255 3416 3256 
3 3865 3868 3866 
3 1429 5405 5035 
3 5130 5523 5520 
3 3391 3393 3392 
3 2706 2708 2707 
3 3491 3495 3493 
3 2871 2987 2870 
3 3207 3329 3208 
3 3009 3011 2869 
3 3498 3839 3838 
3 2098 5113 2294 
3 1359 5397 1361 
3 3083 3401 3082 
3 3365 3679 3367 
3 3563 4342 3561 
3 3212 3940 3211 
3 2481 2647 2479 
3 3238 4819 4818 
3 3483 3485 3484 
3 2020 2803 2721 
3 3839 4722 4439 
3 4462 5672 4513 
3 3296 5062 3843 
3 2159 5571 4891 
3 2361 5286 5141 
3 1206 5448 1209 
3 3377 3758 3170 
3 3617 3900 3789 
3 5323 5324 3306 
3 4755 4998 4754 
3 3846 5342 3007 
3 4613 4614 4612 
3 3596 4852 4798 
3 3361 3380 3379 
3 3578 3579 3576 
3 3784 3966 3965 
3 1829 1831 1830 
3 2140 5362 2315 
3 2861 5721 3109 
3 2237 5515 2731 
3 4917 5420 3588 
3 3108 3373 3369 
3 2850 3358 3357 
3 3180 3181 3179 
3 3810 4476 4442 
3 2033 5573 5079 
3 2877 2991 2990 
3 3197 5651 3022 
3 3255 3418 3416 
3 3297 3321 3298 
3 3558 3703 3560 
3 3866 3869 3867 
3 3020 3023 3022 
3 1919 5165 2725 
3 3394 3399 3011 
3 3882 5415 3045 
3 3083 5528 3583 
3 4976 5502 3164 
3 4874 5579 5306 
3 4414 4447 4446 
3 5111 5445 1245 
3 3087 3344 3343 
3 4634 4637 4636 
3 5255 5256 3232 
3 2893 3210 2980 
3 3743 4489 3745 
3 3635 5608 3637 
3 5532 5597 3375 
3 3907 3908 3409 
3 2473 2474 2472 
3 2844 4690 2346 
3 3384 3762 3761 
3 3717 3749 3748 
3 2826 2827 2792 
3 3258 3259 2951 
3 5912 5969 4550 
3 2963 3643 2034 
3 3396 3604 3237 
3 3394 3774 3399 
3 3968 3970 3969 
3 3448 5713 4517 
3 1909 5737 4958 
3 3641 5319 3776 
3 2387 5443 2388 
3 1198 5247 1195 
3 4926 5107 4927 
3 1469 5468 1495 
3 3942 4012 3730 
3 5017 5019 5018 
3 3805 3807 3806 
3 5655 5755 3876 
3 3384 3761 3760 
3 5710 5749 3673 
3 2637 5661 2628 
3 3609 3890 3301 
3 2861 3109 2862 
3 3564 3565 3563 
3 2755 4940 2751 
3 3437 4767 3803 
3 1522 5438 5254 
3 3188 3190 3189 
3 3826 4440 3823 
3 3365 3367 3366 
3 3809 4452 4451 
3 3226 3227 3225 
3 3830 4530 3829 
3 1909 5393 1910 
3 3048 5475 3247 
3 3775 4330 3400 
3 2840 5717 2797 
3 2659 5401 2617 
3 4939 4987 4531 
3 4609 4610 4608 
3 5418 5678 3600 
3 3015 4939 4861 
3 3419 4351 3585 
3 2697 5038 3031 
3 2959 2961 2710 
3 5389 5425 1478 
3 3443 5466 3196 
3 1458 5390 1457 
3 1862 5284 2729 
3 3641 3775 3400 
3 3789 4437 3790 
3 3037 3423 3036 
3 3721 3928 3720 
3 3515 3517 3516 
3 3257 5395 3696 
3 4541 4543 4542 
3 3871 4505 3861 
3 3088 3089 2840 
3 506 583 508 
3 396 398 397 
3 709 710 582 
3 2972 2974 2973 
3 585 586 584 
3 508 510 507 
3 5089 5479 1467 
3 2375 3056 3054 
3 3168 3385 3345 
3 2221 5380 2213 
3 5334 5339 5336 
3 2404 5495 2405 
3 2318 5063 2297 
3 3195 5524 3512 
3 3167 4976 3164 
3 1358 5248 5247 
3 3529 3801 3527 
3 3692 5044 3480 
3 3194 5466 3746 
3 3944 3963 3943 
3 3282 5708 3830 
3 2945 2946 2944 
3 2966 3350 3110 
3 3847 5073 3590 
3 4554 4557 4552 
3 3073 3240 3077 
3 3552 4695 3554 
3 3608 3683 3325 
3 1478 5425 1617 
3 2484 5414 2739 
3 3993 4387 4385 
3 1990 5096 1993 
3 2163 5562 2277 
3 3466 3467 3465 
3 3773 4986 4985 
3 4517 5713 5456 
3 3059 3905 3057 
3 3712 3727 3709 
3 3120 5519 5371 
3 1361 5397 5106 
3 3630 3632 3631 
3 4461 4462 4460 
3 3862 3871 3861 
3 5328 5482 2043 
3 3408 3425 3274 
3 2306 5471 2287 
3 2950 2989 2948 
3 3227 3793 3225 
3 2557 5039 2556 
3 2368 5415 2103 
3 3215 3772 3397 
3 4470 4471 4469 
3 2979 3354 3352 
3 1457 5390 5098 
3 5872 5900 4923 
3 3008 3477 3283 
3 2318 5563 5063 
3 3297 5485 3321 
3 5334 5336 5335 
3 3283 3880 3286 
3 3612 3901 3613 
3 2423 5459 2418 
3 4849 4850 3843 
3 5220 5726 5221 
3 2068 5439 2087 
3 1212 5344 1215 
3 2390 5512 2392 
3 1631 5468 1491 
3 4851 5307 2570 
3 1195 5247 1197 
3 4769 5386 3893 
3 2751 4940 2749 
3 2998 5625 3005 
3 3467 3468 3465 
3 2716 5067 1856 
3 4011 4049 4029 
3 2022 5075 2018 
3 3120 5371 2823 
3 3176 3640 3178 
3 2559 5437 2561 
3 2831 5301 2363 
3 3936 5432 3387 
3 5338 5628 5548 
3 3849 3851 3850 
3 3314 5711 5488 
3 3805 3873 3807 
3 3548 3550 3549 
3 2015 5595 1980 
3 3630 3945 3632 
3 4729 4730 3936 
3 3360 3935 3358 
3 3802 4893 4403 
3 3538 3539 3537 
3 2025 5539 2024 
3 4541 4542 4540 
3 3483 3484 3276 
3 4492 4497 4494 
3 5741 5890 5742 
3 3207 5496 3329 
3 3077 3080 3079 
3 1192 1194 1193 
3 3149 4622 4621 
3 3795 4398 3424 
3 3642 3881 3318 
3 2537 5458 2539 
3 2323 5141 2769 
3 2626 5481 2623 
3 4692 4693 3580 
3 4760 5766 4759 
3 2774 5527 2776 
3 2629 4978 2645 
3 5087 5545 2824 
3 3686 5460 3078 
3 2731 3618 2733 
3 3338 3751 3298 
3 4483 5769 3417 
3 1961 5303 2765 
3 1219 1228 1220 
3 2210 2390 2389 
3 3191 4527 4526 
3 4555 4571 4554 
3 1878 5837 2719 
3 4816 5523 5130 
3 3820 3822 3821 
3 1972 5491 3602 
3 2803 4924 2955 
3 2226 5660 2224 
3 3897 5064 3634 
3 2305 5342 4972 
3 5387 5616 2647 
3 4415 4416 4320 
3 4494 4496 4495 
3 3655 3731 3729 
3 2394 5743 2403 
3 1975 5595 3777 
3 3678 5485 4910 
3 975 5585 5289 
3 3376 3431 3430 
3 3170 5031 2851 
3 5404 5670 5383 
3 3531 5327 3529 
3 1921 5165 1919 
3 3507 3508 3506 
3 2791 4811 3171 
3 2406 4971 2402 
3 3157 5590 3160 
3 4349 4479 3779 
3 2842 5524 2977 
3 3666 4889 3673 
3 3558 3560 3559 
3 3154 4960 3152 
3 3566 3705 3568 
3 2717 5319 5290 
3 2000 5551 1999 
3 3690 5556 3540 
3 4925 4926 3293 
3 3221 5363 3702 
3 3756 3757 3095 
3 2099 5074 2101 
3 2979 3355 3354 
3 3202 3726 3339 
3 1833 5572 1832 
3 3264 3804 3265 
3 3776 5535 4329 
3 2103 5415 2074 
3 3376 3432 3431 
3 4758 5771 3899 
3 3572 4960 3154 
3 2661 5854 5057 
3 4622 4624 4621 
3 3550 3552 3551 
3 2648 5478 3114 
3 5691 5745 3656 
3 4210 5045 3389 
3 4404 4405 2658 
3 4935 5686 4936 
3 3556 3558 3557 
3 4459 4461 4460 
3 3926 4383 4354 
3 3334 5848 3964 
3 2206 5400 2210 
3 2303 4964 2148 
3 3898 3899 3162 
3 2598 4851 2581 
3 3371 3750 3347 
3 2785 4994 2783 
3 4296 5610 5271 
3 2130 5451 2132 
3 2652 5478 2649 
3 1548 5411 1612 
3 2248 5542 2246 
3 5426 5427 1481 
3 3715 5580 3636 
3 5015 5016 5014 
3 2647 5617 2479 
3 3106 3116 2854 
3 4508 4510 4507 
3 5623 5624 4032 
3 1531 5417 1402 
3 3625 3724 3316 
3 2072 5591 3052 
3 2561 5437 4856 
3 4997 5480 2118 
3 2831 5302 5301 
3 3905 5747 5663 
3 2946 3239 2944 
3 2268 5493 2265 
3 4492 4494 4493 
3 2992 5013 5012 
3 3752 5656 3466 
3 3566 3568 3567 
3 3250 3251 2253 
3 4972 5342 3846 
3 1438 5503 1447 
3 2812 5474 3614 
3 5936 5963 3924 
3 730 5520 734 
3 1215 5344 1420 
3 3500 4848 4648 
3 3483 4675 3485 
3 3911 3912 3383 
3 3664 3755 3344 
3 3770 4310 3771 
3 3467 3470 3469 
3 3022 5651 3019 
3 3231 4658 4657 
3 2670 5587 5068 
3 3279 3816 3815 
3 3472 5536 3999 
3 2148 4964 2150 
3 1856 5067 1858 
3 2339 5456 2338 
3 5515 5593 3618 
3 3291 4890 3204 
3 4804 4876 4803 
3 2804 5562 2165 
3 4623 4774 4622 
3 2344 5490 2365 
3 4278 5523 5100 
3 3736 4480 3633 
3 2959 5538 2962 
3 1402 5417 1242 
3 2672 5587 2670 
3 2835 5452 2975 
3 5346 5782 3385 
3 5392 5393 3874 
3 3326 4508 4507 
3 2628 5661 2802 
3 3917 4898 3324 
3 4763 4764 4762 
3 3552 3554 3553 
3 4757 4758 3899 
3 2121 5359 2119 
3 3723 3734 3733 
3 4172 5601 3473 
3 2850 3359 3358 
3 2767 5451 2130 
3 3658 5824 5717 
3 1849 5422 1847 
3 3535 5605 3794 
3 5097 5579 3582 
3 5323 5325 5324 
3 3038 4848 3500 
3 3606 5060 5059 
3 2660 5725 2877 
3 3044 5483 5368 
3 3879 5616 3624 
3 2884 5893 5861 
3 3683 5934 5694 
3 2071 5675 2050 
3 3317 5155 3612 
3 4645 4987 3573 
3 3642 5668 3881 
3 2313 5599 5598 
3 2118 5480 2120 
3 2115 5655 2113 
3 5561 5686 3574 
3 3881 5667 5450 
3 1896 5290 1898 
3 2772 5311 2073 
3 3361 3381 3380 
3 4873 4999 3582 
3 1895 5533 5103 
3 4775 4777 4776 
3 3636 5580 3841 
3 2992 5725 5013 
3 3698 4687 4686 
3 3665 5740 3666 
3 2448 5154 2450 
3 3529 5327 3801 
3 3890 3892 3301 
3 3307 5323 3306 
3 2967 5546 5398 
3 4882 5463 2284 
3 5676 5739 2669 
3 2450 5154 2821 
3 4605 4606 4603 
3 3944 5623 4032 
3 3740 3976 3975 
3 5005 5007 4077 
3 1522 5492 4983 
3 2708 5613 2958 
3 2316 5626 2317 
3 3108 3448 3373 
3 2409 4720 2460 
3 4462 4513 4460 
3 802 826 800 
3 904 905 885 
3 801 803 802 
3 886 906 904 
3 2495 4920 2611 
3 5039 5418 2556 
3 2679 5543 2696 
3 3626 3723 3722 
3 5661 5862 5759 
3 2418 5459 2424 
3 5668 5669 2630 
3 1437 5503 1438 
3 2424 5459 2778 
3 3887 5031 3170 
3 2308 5526 2358 
3 3766 5005 4077 
3 2293 5650 2109 
3 3899 5653 3162 
3 3069 5560 5514 
3 2412 5553 2410 
3 1535 5503 1437 
3 2251 5008 2380 
3 3215 3773 3772 
3 4494 5436 4496 
3 5039 5620 5418 
3 2846 5472 3199 
3 3643 5666 2034 
3 2210 5400 3668 
3 4477 5741 4968 
3 3593 4769 3893 
3 3620 5607 3664 
3 4845 5715 4846 
3 2285 5757 2345 
3 3253 5701 4583 
3 3894 3896 3895 
3 3548 3695 3550 
3 4623 4775 4774 
3 2065 5591 2072 
3 4548 5980 4550 
3 3089 5717 2840 
3 3370 5721 3107 
3 3051 4703 4702 
3 5597 5822 5820 
3 2793 5315 3043 
3 2314 5994 5982 
3 2089 4991 4896 
3 1606 6353 5582 
3 3708 5518 3809 
3 2776 5311 2772 
3 2956 5726 4862 
3 3666 3673 3669 
3 2253 5648 2245 
3 4930 5552 4928 
3 3298 5569 3292 
3 4324 4325 3398 
3 3030 5587 2672 
3 3844 3845 3288 
3 4838 5000 4837 
3 2335 5646 2337 
3 4877 5706 2232 
3 2819 5472 2846 
3 3698 4686 4685 
3 5122 5682 4909 
3 2503 5057 2502 
3 2591 5603 4908 
3 3183 4946 3181 
3 4957 5766 2377 
3 2649 5478 2648 
3 2555 5708 2558 
3 3848 5593 5592 
3 4924 5765 5752 
3 3473 5601 3471 
3 2603 5667 2630 
3 3385 5531 5530 
3 2727 5595 2015 
3 3231 4657 4656 
3 4795 5645 3689 
3 5996 6004 3693 
3 3897 5513 5064 
3 3343 4665 4664 
3 3055 5615 4423 
3 1446 5492 1522 
3 2761 5737 1904 
3 2048 5295 1840 
3 3423 3424 3036 
3 3292 5569 3291 
3 2999 5363 3001 
3 5697 5839 2633 
3 3467 5656 3470 
3 5635 5636 2644 
3 4857 5623 3944 
3 2813 5984 3058 
3 3719 5323 3307 
3 2778 5722 2850 
3 2109 5650 2107 
3 3001 5363 3221 
3 2704 5395 2873 
3 2949 5056 3258 
3 2633 5114 2476 
3 2717 5290 1896 
3 1910 5393 1913 
3 3191 4526 4525 
3 2847 5517 2879 
3 3200 5687 4904 
3 3574 5686 4930 
3 4473 5923 4475 
3 3078 5460 3671 
3 3663 5643 3105 
3 2902 5584 3213 
3 3989 5519 3990 
3 1535 5582 5503 
3 3638 5576 5155 
3 3904 5740 3665 
3 3601 5918 4867 
3 2320 5626 2807 
3 3664 5657 3755 
3 4751 4781 4750 
3 2547 5568 2544 
3 5155 5486 3638 
3 2377 5766 4798 
3 2029 5539 2025 
3 3875 5077 4765 
3 4497 5436 4494 
3 1344 1378 1377 
3 1345 1348 1347 
3 2981 5504 4671 
3 5271 5585 975 
3 2975 5452 3713 
3 2536 5778 2534 
3 3337 5546 2967 
3 3650 5754 4794 
3 2380 5008 3645 
3 2802 5481 2626 
3 1288 1290 1289 
3 1847 5422 2016 
3 3155 5590 3157 
3 3341 5724 5624 
3 4980 5651 3197 
3 4725 5833 3333 
3 2738 5400 2208 
3 1506 1507 1405 
3 3857 5732 3854 
3 2706 5613 2708 
3 5900 5930 4923 
3 4716 4718 4717 
3 2556 5521 2553 
3 2797 5717 5471 
3 3590 5119 2580 
3 2842 5567 5524 
3 3849 4853 3851 
3 3435 5287 4589 
3 2895 5749 5710 
3 3850 5777 5602 
3 2664 5440 5093 
3 3404 4498 4359 
3 3626 5387 3723 
3 5444 5813 2341 
3 2873 5395 3257 
3 4441 4484 3814 
3 4719 5886 2437 
3 5667 5668 2630 
3 3781 4378 4377 
3 1411 5426 1481 
3 3614 5474 5383 
3 3105 5643 2364 
3 3249 5799 3698 
3 3680 5692 3072 
3 3678 5622 3639 
3 2405 5495 5494 
3 5607 5813 3647 
3 5904 5943 4447 
3 1942 5762 2745 
3 2534 5399 2532 
3 2101 5757 2285 
3 1515 5426 1411 
3 5948 5960 4534 
3 3914 5644 2494 
3 5532 5822 5597 
3 2729 5318 1864 
3 1396 1427 1426 
3 2369 5508 3661 
3 2694 5132 5131 
3 3049 5475 3048 
3 3238 4818 4817 
3 4873 5579 4874 
3 3646 5510 3621 
3 2821 5632 5631 
3 4390 5610 4296 
3 1606 5582 1535 
3 4588 5751 3629 
3 1988 5943 1986 
3 3049 5662 5475 
3 1946 5408 5011 
3 5957 5958 3686 
3 3164 5502 3104 
3 1999 5551 3649 
3 2211 5380 2738 
3 5398 5546 3883 
3 4939 5004 4861 
3 2731 5515 3618 
3 5014 5017 5012 
3 4350 6054 4455 
3 5491 5852 5685 
3 3909 5773 3591 
3 2737 5329 2736 
3 3134 5477 3280 
3 2097 5117 2095 
3 3321 5485 3678 
3 3861 5732 3857 
3 3234 5795 2932 
3 4758 5883 5771 
3 2430 5570 3295 
3 1154 1156 1153 
3 2882 5565 2801 
3 5781 5817 4674 
3 3064 5895 2678 
3 4699 4700 4433 
3 2532 5399 2577 
3 3066 4831 3667 
3 2364 5643 2343 
3 3603 5639 4768 
3 4974 5880 2742 
3 2382 5483 2384 
3 5530 5532 3375 
3 2341 5446 2332 
3 4798 5766 4760 
3 2265 5493 4845 
3 5493 5715 4845 
3 2289 5074 2099 
3 2931 5349 3281 
3 5774 5848 3334 
3 3830 5708 4942 
3 3614 5383 3903 
3 2289 5763 5074 
3 2091 5675 2071 
3 2865 5547 2864 
3 2880 5401 2659 
3 2463 5567 2842 
3 5463 5499 2135 
3 3591 5773 4996 
3 2062 5591 2065 
3 2478 5114 4789 
3 4756 5704 3836 
3 4860 5894 5870 
3 3129 5072 3362 
3 2006 5666 2777 
3 4853 5872 3851 
3 5542 5592 5052 
3 4952 5487 4986 
3 5550 5641 2272 
3 2771 5096 3638 
3 2801 5539 2029 
3 5437 5677 4856 
3 2937 5709 2939 
3 2934 5730 3234 
3 5332 5574 2741 
3 3854 5732 3852 
3 2906 5661 2637 
3 4751 5220 4781 
3 2345 5526 2308 
3 2644 5931 4911 
3 3797 5619 3422 
3 4557 5966 2662 
3 2723 5699 5364 
3 2712 5741 5009 
3 3422 5619 4357 
3 2886 5613 2706 
3 3602 5332 1976 
3 2458 5483 3044 
3 2213 5380 2211 
3 2736 5329 2810 
3 3922 6014 6005 
3 2240 5402 2241 
3 3830 4942 4531 
3 5764 5854 3674 
3 1906 5737 1909 
3 2895 5710 5588 
3 3712 5024 3728 
3 2597 5807 5761 
3 5117 5522 2740 
3 3039 5509 4771 
3 3673 5749 3669 
3 3582 4999 3284 
3 5592 5593 5052 
3 4722 5956 2434 
3 3104 5502 3654 
3 3026 5122 2621 
3 4835 5293 4810 
3 5020 5858 5842 
3 2272 5641 5148 
3 3751 5569 3298 
3 3581 5586 4842 
3 3540 5556 3542 
3 2300 5673 2299 
3 4813 5931 5636 
3 3471 5601 4271 
3 3470 5656 5536 
3 5412 5674 2972 
3 3072 5692 3070 
3 2911 5716 2912 
3 3506 5664 3504 
3 1996 5091 1998 
3 2987 5642 3413 
3 3011 5487 2869 
3 3336 5590 3155 
3 5090 5091 1996 
3 3672 5504 3097 
3 1968 5491 1972 
3 2050 5675 5614 
3 2828 5584 2902 
3 3478 5768 3681 
3 2208 5400 2206 
3 3353 5681 4770 
3 1973 5491 1968 
3 2411 5423 2413 
3 2432 5570 2430 
3 2341 5447 5446 
3 3283 5968 3880 
3 3326 5694 4509 
3 3915 5975 3916 
3 3348 5634 3349 
3 3886 5557 3053 
3 1925 5406 1923 
3 3317 5486 5155 
3 3904 5778 5740 
3 5102 5637 2437 
3 2985 5609 2922 
3 2343 5643 2856 
3 4347 5735 3395 
3 2863 5647 2752 
3 1866 5318 2001 
3 2641 5419 2609 
3 2573 5484 2523 
3 1976 5332 1981 
3 5502 5874 5842 
3 5142 5570 2432 
3 3593 5688 4769 
3 2845 5544 2817 
3 2986 4424 1826 
3 2008 5666 2006 
3 1995 4797 1992 
3 5910 5960 2108 
3 3258 5056 3482 
3 3359 5722 5391 
3 3809 5518 4452 
3 2476 5114 2478 
3 5400 5828 3668 
3 1870 5361 2758 
3 2747 5440 2666 
3 2246 5542 5052 
3 3440 5516 4457 
3 3499 5925 4793 
3 2744 5429 1951 
3 3046 5547 3049 
3 2610 5534 2615 
3 5995 6001 3690 
3 3592 5688 3593 
3 3125 5517 2867 
3 2829 5584 2828 
3 5377 5379 5378 
3 2001 5361 1868 
3 2881 5525 2882 
3 2609 5419 2607 
3 2686 5461 2711 
3 4505 5777 5732 
3 3335 5719 3982 
3 5599 5961 5600 
3 5364 5752 2013 
3 2410 5553 5495 
3 3649 5370 2040 
3 2354 5266 2355 
3 3460 5434 3461 
3 4878 5754 5733 
3 3003 5902 3002 
3 2510 5476 4840 
3 3000 5625 2998 
3 507 509 505 
3 581 585 584 
3 506 508 507 
3 580 709 582 
3 396 397 395 
3 2407 5494 2423 
3 2096 5113 2098 
3 2565 5552 4935 
3 2405 5494 2407 
3 4639 5676 4638 
3 2018 5075 2017 
3 3885 5614 3897 
3 3879 5617 5616 
3 4857 5718 5623 
3 2107 5650 4943 
3 3385 5530 3345 
3 2429 5348 2431 
3 1829 1830 1828 
3 5480 5640 3056 
3 4529 5875 2745 
3 1827 2374 1829 
3 2067 5500 2076 
3 2587 5561 2634 
3 2525 5484 2779 
3 2224 5660 2234 
3 2965 5746 3323 
3 4733 5706 3835 
3 2661 5873 5854 
3 4997 5793 5640 
3 3094 5504 2981 
3 2803 5765 4924 
3 4840 5873 2661 
3 5449 5540 3989 
3 2512 5476 2510 
3 5450 5667 2601 
3 3723 5388 3734 
3 2474 5115 2472 
3 2801 5565 5539 
3 2539 5458 2565 
3 2898 5725 2660 
3 3034 5723 3515 
3 3814 5615 3278 
3 3395 5735 3394 
3 4945 5489 3304 
3 3648 5589 5527 
3 5870 5894 5025 
3 3118 5505 3117 
3 2600 5450 2601 
3 3878 5525 3065 
3 2428 5649 2393 
3 3669 5703 3068 
3 5078 5942 5772 
3 1913 5393 5392 
3 2454 5631 2845 
3 2234 5581 2222 
3 3994 5719 3646 
3 3901 5577 5574 
3 2384 5483 2458 
3 1828 4432 2986 
3 2266 5747 2269 
3 3054 5615 3055 
3 2287 5471 5470 
3 2337 5646 2340 
3 4408 5625 3800 
3 4960 5659 3152 
3 5107 5739 4927 
3 3106 4919 3712 
3 3214 5716 2911 
3 1900 5509 1903 
3 3119 4988 4953 
3 2613 5476 2512 
3 3542 5556 4973 
3 5590 5652 3599 
3 3883 5546 3884 
3 4728 5841 4832 
3 3816 5793 3818 
3 5697 5939 3873 
3 5576 5577 5155 
3 1993 5096 2771 
3 4859 5715 4764 
3 3362 5687 3131 
3 2867 5517 2847 
3 3675 5716 3214 
3 3150 5659 3436 
3 2920 5609 3220 
3 2666 5440 2664 
3 5699 5733 5376 
3 2787 5566 2857 
3 5783 5826 3911 
3 3029 5122 3026 
3 5616 5617 2647 
3 4627 5652 3336 
3 2656 5578 2635 
3 4680 5695 4679 
3 3887 5671 5031 
3 2794 5566 2786 
3 5472 5544 5473 
3 3133 5687 3200 
3 3454 5935 3452 
3 2494 5644 2491 
3 2752 5647 2754 
3 2269 5747 2276 
3 5435 5738 2863 
3 3608 5116 4795 
3 5498 5572 1833 
3 3853 5872 4923 
3 2864 5547 3046 
3 3305 5489 3308 
3 2391 5649 4629 
3 4425 5803 3795 
3 3836 5704 3837 
3 2763 5713 2849 
3 2095 5117 2740 
3 4703 5705 4706 
3 4029 5818 3960 
3 3656 5745 3676 
3 5518 5541 4452 
3 3029 5682 5122 
3 2715 5857 1905 
3 2895 5588 2781 
3 5319 5535 3776 
3 2502 5635 2500 
3 4909 5682 4910 
3 2393 5649 2391 
3 3646 5719 5510 
3 3651 5699 5376 
3 2014 5765 2020 
3 2860 5745 5058 
3 1897 5533 1895 
3 4772 5857 2715 
3 3345 5530 3375 
3 3824 5948 4534 
3 2367 5691 2966 
3 2088 5470 2090 
3 5403 6007 6003 
3 2192 5305 2194 
3 2922 5609 2920 
3 2900 5116 3608 
3 5864 5867 5865 
3 1210 4578 1219 
3 3070 5692 5416 
3 1219 1220 1218 
3 1192 1193 1191 
3 3955 6452 6451 
3 2586 5882 5806 
3 1902 5857 1901 
3 5078 5772 2316 
3 2821 5631 2452 
3 4585 5863 1901 
3 2209 5775 2262 
3 3927 5681 3353 
3 4996 5755 2310 
3 2522 5827 5807 
3 3699 5799 3230 
3 1191 4415 4320 
3 2634 5561 3574 
3 1904 5737 1906 
3 2830 5712 2831 
3 3065 5525 2881 
3 5830 5905 4709 
3 3666 5740 4889 
3 5733 5754 3650 
3 1953 5429 1969 
3 3278 5615 3054 
3 2403 5743 2456 
3 3312 5774 3334 
3 5633 5739 4639 
3 2766 5406 1925 
3 4531 4987 4645 
3 3575 5563 3577 
3 3281 5349 4634 
3 3785 5679 3251 
3 2871 5642 2987 
3 4505 5732 3861 
3 3306 5505 3118 
3 2314 5982 4959 
3 2885 5891 2455 
3 3537 5605 3535 
3 3687 5894 5836 
3 2284 5463 2137 
3 2714 5960 5948 
3 5799 5809 4687 
3 2287 5470 2088 
3 4889 5740 2562 
3 4751 5726 5220 
3 5759 5862 3749 
3 3304 5489 3305 
3 5387 5388 3723 
3 2093 5513 2091 
3 2019 5754 4878 
3 2530 5781 2528 
3 5041 5870 3313 
3 5620 5678 5418 
3 5741 5742 4968 
3 1977 5533 1897 
3 2282 5663 2264 
3 1383 5856 1372 
3 2912 5716 2982 
3 2869 5487 4952 
3 1944 5762 1942 
3 3152 5659 3150 
3 4794 5825 3907 
3 3096 5690 3099 
3 3313 5760 2859 
3 2909 5748 5508 
3 5337 5662 5604 
3 2419 5734 2420 
3 2194 5305 2239 
3 3357 5611 3622 
3 2523 5484 2525 
3 2862 5698 2764 
3 2207 5775 2209 
3 2528 5840 2526 
3 5911 5931 3685 
3 2738 5828 5400 
3 3109 5721 3721 
3 2621 5603 2593 
3 2786 5566 2787 
3 3313 5870 5025 
3 2340 5646 2956 
3 2524 5827 2522 
3 5459 5722 2778 
3 4989 5855 2330 
3 3034 5812 5723 
3 5611 5612 3955 
3 1864 5318 1866 
3 2972 5674 2974 
3 5717 5824 5471 
3 2612 5588 4922 
3 5063 5563 3575 
3 5391 5783 3911 
3 3515 5723 3518 
3 5410 5836 2295 
3 3660 5761 3913 
3 5115 5618 2472 
3 5481 5608 3635 
3 2984 5642 2871 
3 3602 5574 5332 
3 3911 5826 3912 
3 3651 5752 5699 
3 1973 5852 5491 
3 3341 5718 2908 
3 3211 5748 2909 
3 5383 5670 3903 
3 2936 5730 2934 
3 3230 5799 3249 
3 3461 5434 3464 
3 5032 5761 3660 
3 2464 5702 3017 
3 2126 5557 5366 
3 2362 5989 5974 
3 2036 5573 2033 
3 2357 5266 2354 
3 4450 5558 3808 
3 5510 5719 3335 
3 2884 5938 5893 
3 5761 5888 2597 
3 2717 5535 5319 
3 3658 5717 3089 
3 3518 5723 3682 
3 2425 5734 2419 
3 2452 5631 2454 
3 5508 5748 3661 
3 2927 5594 3010 
3 5488 5710 3673 
3 3909 5848 5774 
3 1903 5509 3039 
3 1891 5482 1889 
3 5740 5778 2562 
3 5571 5758 4892 
3 2299 5673 2328 
3 4013 5756 3627 
3 5608 5759 3717 
3 2276 5937 2274 
3 4946 5789 3181 
3 2221 5905 5830 
3 4997 5640 5480 
3 5114 5700 4791 
3 2611 5767 2497 
3 3394 5735 3774 
3 3097 5504 3094 
3 3388 5379 5377 
3 3588 5420 3610 
3 3899 5771 5653 
3 3131 5687 3133 
3 5502 5842 3654 
3 2013 5765 2014 
3 3903 5679 3906 
3 3876 5755 3652 
3 1936 5917 5442 
3 5699 5752 5364 
3 3528 5600 4580 
3 3966 5627 3965 
3 2833 5388 4969 
3 1868 5361 1870 
3 3351 5691 3656 
3 3800 5625 3000 
3 3069 5746 2965 
3 2558 5708 3282 
3 5623 5718 3341 
3 5460 5946 3671 
3 5614 5675 3897 
3 2889 4988 3119 
3 2593 5603 2591 
3 4994 5749 2895 
3 4533 5913 2883 
3 3616 5832 5677 
3 2293 5654 4842 
3 5962 5976 3868 
3 3908 5784 3409 
3 5010 5819 2860 
3 5661 5759 2802 
3 2133 5499 2462 
3 5564 5883 2292 
3 2490 5644 2805 
3 3340 5724 3341 
3 2244 5402 2875 
3 3008 5768 3478 
3 3621 5511 2834 
3 2383 5791 2381 
3 3149 5736 4623 
3 2781 5588 2612 
3 5335 5604 5340 
3 3277 5709 2937 
3 4597 5875 3891 
3 2043 5482 1891 
3 1974 5837 1876 
3 2633 5700 5114 
3 2135 5499 2133 
3 5912 5980 3323 
3 3584 5506 3184 
3 1877 5834 1978 
3 3683 5694 3325 
3 5155 5577 3612 
3 2819 5544 5472 
3 4989 5941 5855 
3 2491 5644 2490 
3 4599 5955 4596 
3 2351 5899 5268 
3 3996 5724 3340 
3 5312 5796 3302 
3 4810 5293 4880 
3 3661 5748 3707 
3 2582 5838 2589 
3 2328 5673 2811 
3 4458 5798 3895 
3 4824 5730 3235 
3 5588 5711 4922 
3 1505 5856 1451 
3 2137 5463 2135 
3 2139 5372 2284 
3 4963 5871 3426 
3 6030 6068 3892 
3 5654 5655 3876 
3 2712 5890 5741 
3 3617 5689 5534 
3 2522 5807 2520 
3 3960 5818 3370 
3 3325 5694 3326 
3 5548 5627 3966 
3 3137 5951 5923 
3 4323 6080 3701 
3 2552 5521 2780 
3 3698 5799 4687 
3 2966 5691 3351 
3 5755 5773 3652 
3 2046 5573 2036 
3 4679 5695 4682 
3 2618 5720 2608 
3 3685 5931 4813 
3 4996 5773 5755 
3 3231 5795 4658 
3 3695 5780 3550 
3 2423 5826 5783 
3 3385 5782 5531 
3 5510 5511 3621 
3 884 887 886 
3 886 904 885 
3 2161 5571 2159 
3 801 802 800 
3 2807 5768 3008 
3 2624 5689 2768 
3 3913 5806 3672 
3 3893 5714 3894 
3 4919 5024 3712 
3 2245 5648 2247 
3 3905 5663 3057 
3 2486 5630 2833 
3 1927 5926 2766 
3 2388 5930 5900 
3 3653 5804 3198 
3 3700 5729 5050 
3 2607 5407 2596 
3 3184 5506 3186 
3 4880 5293 4881 
3 2362 5974 4782 
3 1951 5429 1953 
3 2420 5734 4932 
3 2386 5900 5872 
3 4433 6006 2986 
3 3632 5455 3735 
3 5594 5633 3010 
3 3659 5850 4976 
3 3057 5663 2282 
3 4457 5776 3810 
3 2817 5544 2819 
3 2694 5131 2692 
3 5256 5889 3232 
3 4961 5702 2464 
3 2596 5407 2595 
3 3099 5690 3378 
3 5806 5882 5464 
3 5644 5790 2805 
3 2680 5895 2683 
3 3909 5774 5773 
3 2247 5648 5404 
3 2740 5513 2093 
3 5454 5851 3610 
3 3730 5810 5010 
3 5820 5821 4013 
3 4654 6016 4655 
3 4842 5654 3876 
3 3808 5558 3846 
3 3810 5776 4476 
3 2863 5738 5647 
3 3669 5750 5703 
3 5586 5707 4842 
3 3873 5939 4731 
3 5789 5877 4527 
3 3235 5730 2936 
3 4969 5388 5387 
3 3907 5825 5796 
3 4690 5763 2346 
3 5881 5947 3601 
3 2019 5825 5754 
3 6003 6007 4973 
3 2423 5783 5459 
3 2141 5372 2139 
3 3820 5941 3822 
3 3564 5792 3566 
3 4623 5833 4775 
3 4682 5695 4736 
3 3409 5784 3410 
3 4698 5845 3832 
3 5337 5604 5335 
3 3717 5759 3749 
3 5589 5784 3908 
3 4862 5726 4751 
3 5553 5878 5876 
3 3684 5731 3546 
3 4673 5817 4830 
3 4976 5874 5502 
3 5073 5678 5620 
3 5376 5733 3650 
3 2553 5521 2552 
3 1986 5904 1985 
3 5940 5964 2879 
3 3029 5794 5622 
3 3664 5808 5657 
3 5921 5953 4463 
3 5864 5865 2845 
3 4718 5969 5912 
3 5137 5769 3844 
3 5574 5685 3901 
3 4706 5829 4707 
3 2653 5630 2488 
3 3370 5818 5721 
3 2431 5348 2434 
3 2586 5827 2524 
3 2942 5800 3238 
3 5000 5879 5525 
3 1835 5498 1833 
3 5064 5513 2740 
3 2010 5498 1835 
3 5366 5557 3886 
3 5815 5816 4423 
3 3570 5600 3526 
3 2802 5608 5481 
3 3028 5794 3029 
3 2349 5849 4918 
3 5612 6452 3955 
3 5879 5958 2882 
3 5442 5917 4597 
3 5909 5942 3052 
3 3652 5774 3312 
3 3610 5851 3611 
3 5845 5853 3832 
3 3622 5611 3955 
3 3945 5455 3632 
3 2330 5793 4997 
3 2198 5915 2200 
3 3120 5575 5519 
3 2451 5938 2884 
3 3566 5792 3705 
3 2233 6055 4429 
3 5772 5942 3681 
3 2692 5131 2703 
3 3927 5786 5681 
3 5876 5878 3912 
3 2738 5829 5828 
3 5828 5829 4706 
3 2185 5457 2183 
3 2930 5795 3231 
3 4923 5930 3863 
3 3704 5792 3564 
3 2241 5402 2244 
3 4581 5961 5959 
3 5057 5764 2502 
3 3659 5873 5850 
3 3302 5825 2019 
3 3889 6002 5927 
3 5914 5920 2798 
3 3654 5858 5033 
3 5807 5827 3913 
3 3896 5893 4459 
3 2346 5763 2298 
3 3901 5685 3902 
3 2562 5778 2536 
3 4860 5870 5113 
3 2434 5956 5412 
3 2131 5550 2129 
3 5162 5858 5020 
3 3932 5537 3862 
3 4630 5636 5635 
3 3550 5780 3552 
3 2748 5671 2750 
3 2277 5571 2161 
3 3431 5993 3834 
3 5975 5978 2809 
3 5017 5954 5019 
3 3365 5674 3679 
3 4896 4992 3300 
3 4672 5882 4674 
3 5684 5927 3494 
3 3198 5804 3754 
3 5519 5540 5371 
3 5754 5825 4794 
3 2147 5564 2292 
3 2388 5900 2385 
3 3336 5652 5590 
3 3405 6052 4437 
3 3862 5537 3872 
3 1344 1377 1345 
3 5844 5849 5394 
3 3655 5801 3731 
3 1345 1347 1343 
3 2381 5791 3042 
3 2183 5457 2270 
3 5635 5764 4630 
3 3010 5847 5349 
3 5459 5783 5722 
3 5416 5846 3905 
3 3137 5932 3126 
3 3427 5802 3266 
3 5525 5879 2882 
3 5850 5873 4840 
3 3895 5798 4977 
3 5826 5876 3912 
3 4947 5877 4946 
3 5031 5671 2748 
3 1876 5837 1878 
3 2884 5861 5205 
3 5626 5768 2807 
3 5519 5575 3990 
3 2298 5763 2289 
3 2613 5874 5476 
3 3602 5685 5574 
3 3668 5828 5705 
3 3251 5679 5670 
3 3647 5698 2862 
3 5736 5833 4623 
3 3526 5600 3528 
3 5033 5888 5032 
3 3672 5806 5464 
3 3191 5789 4527 
3 1405 1432 1404 
3 2149 5564 2147 
3 3612 5577 3901 
3 2816 5853 5104 
3 2768 5689 3617 
3 5843 5844 2769 
3 5722 5783 5391 
3 1288 1289 1287 
3 5749 5750 3669 
3 1284 1587 1288 
3 3755 5805 3344 
3 2788 5750 4994 
3 5800 5922 4819 
3 1396 1426 1425 
3 2179 5787 2177 
3 1905 5857 1902 
3 2802 5759 5608 
3 1386 1506 1405 
3 2577 5781 2530 
3 2110 5960 2714 
3 2149 5696 5564 
3 4741 5771 4747 
3 5842 5874 2613 
3 3848 5831 3849 
3 2280 5945 2290 
3 3676 5819 3747 
3 2170 5959 2313 
3 2982 5814 3390 
3 3033 5812 3034 
3 5694 5887 4509 
3 3849 5831 4853 
3 3552 5780 4695 
3 1916 5903 1914 
3 5394 5849 2349 
3 2974 5674 3365 
3 4484 5815 3814 
3 3266 5802 3264 
3 5363 5889 3702 
3 3384 5797 3762 
3 5773 5774 3652 
3 1901 5863 1899 
3 5653 5771 4741 
3 4464 5921 4461 
3 2633 5839 5700 
3 5615 5815 4423 
3 5399 5788 2577 
3 4012 5810 3730 
3 2177 5787 2712 
3 2592 5965 2594 
3 2904 5853 2816 
3 5470 5824 5410 
3 3344 5805 3343 
3 3264 5802 3804 
3 3493 5684 3494 
3 5797 5971 3762 
3 5514 5886 4719 
3 4557 5753 4552 
3 3601 5947 5918 
3 5761 5807 3913 
3 4604 5979 4601 
3 3122 5794 3028 
3 3548 5731 3695 
3 2129 5550 2272 
3 5553 5876 5495 
3 5565 5957 3644 
3 4509 5849 5844 
3 5710 5711 5588 
3 3675 5814 5716 
3 3696 6050 3428 
3 5879 5946 5460 
3 5949 5963 3075 
3 5020 5842 2613 
3 1586 1588 1152 
3 4461 5921 4463 
3 3905 5846 5747 
3 3036 5812 3033 
3 1152 1154 1153 
3 3424 5812 3036 
3 2526 5840 2586 
3 5081 5949 3075 
3 5113 5870 5041 
3 5054 5908 3521 
3 5747 5846 2276 
3 3546 5731 3548 
3 4658 5928 4661 
3 3894 5861 3896 
3 2932 5795 2930 
3 5560 5886 5514 
3 2204 5583 2207 
3 5494 5876 5826 
3 4406 5871 4963 
3 3181 5789 3179 
3 2860 5819 5745 
3 2777 5860 5551 
3 3496 5684 3493 
3 5464 5882 4672 
3 5790 5911 3355 
3 2086 5910 2108 
3 5494 5826 2423 
3 3343 5805 4665 
3 5380 5829 2738 
3 3890 5875 4529 
3 5025 5894 3687 
3 3179 5789 3191 
3 3176 5728 3640 
3 1451 5856 1383 
3 3674 5854 4799 
3 5359 5549 4773 
3 4537 5945 5937 
3 2292 5770 4957 
3 5495 5876 5494 
3 5592 5831 3848 
3 3016 5549 5359 
3 3075 5963 5936 
3 3989 5540 5519 
3 2355 5885 2352 
3 3818 5855 3820 
3 5897 5898 3731 
3 4838 5946 5000 
3 3910 5848 3909 
3 3910 5859 5848 
3 4509 5844 4508 
3 5812 5916 5723 
3 3174 5728 3176 
3 5721 5818 3721 
3 4981 5859 4980 
3 3814 5815 5615 
3 4435 5785 4677 
3 2906 5862 5661 
3 2488 5630 2486 
3 3407 5701 3252 
3 4707 5830 4709 
3 2221 5830 5380 
3 4552 5753 4551 
3 3872 5985 4511 
3 3979 6027 4153 
3 4958 5779 3605 
3 4581 5982 3595 
3 3749 5862 4021 
3 5698 5813 5444 
3 4911 5911 3914 
3 2883 5913 2081 
3 5409 5423 2460 
3 4799 5873 3659 
3 5716 5814 2982 
3 5854 5873 4799 
3 3333 5833 5736 
3 5476 5850 4840 
3 5471 5824 5470 
3 2502 5764 5635 
3 4991 4992 4896 
3 3844 5769 4483 
3 3383 5797 3384 
3 4959 5982 4581 
3 3611 5851 4024 
3 2475 5697 2633 
3 5692 5846 5416 
3 4830 5817 5788 
3 5685 5852 3902 
3 3891 5875 3890 
3 4411 6046 2984 
3 3498 5927 3839 
3 4508 5843 4510 
3 3432 5820 4013 
3 4537 5901 3680 
3 2745 5917 1938 
3 3832 5853 2904 
3 5745 5819 3676 
3 5018 5944 5256 
3 5806 5827 2586 
3 3252 5701 3253 
3 3924 5963 5645 
3 1899 5863 1977 
3 5670 5679 3903 
3 3232 5889 5363 
3 1962 6024 1964 
3 2678 5895 2680 
3 3913 5827 5806 
3 1940 5991 1932 
3 2589 5838 3260 
3 3851 5872 3853 
3 4534 5960 5910 
3 4843 5905 2221 
3 4701 6009 4700 
3 2083 5913 5910 
3 1884 5929 1886 
3 2760 5972 1888 
3 4844 6001 5995 
3 2878 5697 2475 
3 5631 5864 2845 
3 3912 5797 3383 
3 3521 5908 3524 
3 4832 5841 4833 
3 5632 5864 5631 
3 2466 5998 4753 
3 4639 5739 5676 
3 3686 5958 5460 
3 2460 5423 2411 
3 5302 5986 3671 
3 2436 5878 5553 
3 2577 5817 5781 
3 4709 5905 4711 
3 4975 5880 4974 
3 2979 5790 3355 
3 5796 5825 3302 
3 3692 5942 5909 
3 4827 5928 3234 
3 5705 5828 4706 
3 3002 5902 3802 
3 2203 5583 2204 
3 2597 5888 5162 
3 3694 5835 3556 
3 4752 5884 4405 
3 4581 5959 4959 
3 2798 5920 4843 
3 3902 5852 4345 
3 5768 5772 3681 
3 4980 5859 3910 
3 4713 5920 5914 
3 5162 5888 5858 
3 5788 5817 2577 
3 2805 5790 2979 
3 4468 5964 5940 
3 4338 5892 5430 
3 5597 5820 3432 
3 4580 5961 4581 
3 6009 6044 4700 
3 5858 5888 5033 
3 3237 5779 3040 
3 2455 5891 2453 
3 5770 5883 4758 
3 5460 5958 5879 
3 2385 5900 2386 
3 4669 5897 4668 
3 2885 5953 5921 
3 4782 5909 5591 
3 4318 4362 394 
3 506 507 505 
3 580 582 581 
3 581 584 433 
3 394 396 395 
3 5793 5855 3818 
3 4550 5969 5660 
3 5551 5860 3649 
3 3912 5878 5797 
3 1828 2986 1826 
3 2330 5855 5793 
3 3558 5835 3703 
3 5743 5785 2456 
3 3234 5928 5795 
3 1827 1829 1828 
3 2725 5903 1916 
3 2277 5758 5571 
3 2059 6066 4401 
3 4459 5893 4464 
3 3424 5916 5812 
3 4994 5750 5749 
3 5488 5711 5710 
3 3222 5744 3224 
3 3701 5744 3222 
3 2843 5976 5443 
3 1890 5972 1946 
3 5787 5890 2712 
3 2809 5978 3449 
3 2352 5885 2351 
3 3075 5936 3074 
3 5517 5940 2879 
3 5908 5919 3570 
3 2081 5913 2083 
3 4606 6013 5988 
3 4918 5887 2806 
3 4674 5882 5840 
3 5205 5861 5714 
3 2776 5823 5311 
3 1985 5904 2056 
3 3658 5836 5824 
3 4884 5933 2662 
3 4843 5920 5905 
3 3052 5942 5078 
3 5581 5914 2798 
3 3687 5836 3658 
3 3889 5907 3367 
3 5901 5937 2276 
3 5905 5920 4711 
3 5311 5823 5312 
3 1938 5917 1936 
3 5714 5861 3894 
3 2083 5910 2086 
3 4414 5989 4447 
3 2316 5772 5626 
3 5476 5874 5850 
3 5294 5994 2314 
3 3239 5922 5800 
3 3671 5986 3670 
3 3323 5983 3322 
3 3494 5927 3498 
3 4959 5959 2168 
3 5840 5882 2586 
3 2295 5894 4860 
3 3239 5800 2944 
3 3880 5968 5860 
3 3681 5942 3692 
3 6072 6075 2767 
3 4770 5896 5630 
3 4634 5847 4637 
3 6017 6059 2144 
3 4353 6031 3489 
3 1929 5926 1927 
3 3556 5835 3558 
3 4398 5916 3424 
3 5694 5934 5887 
3 3605 5779 3237 
3 3125 5932 5924 
3 2944 5800 2942 
3 3355 5911 3685 
3 3922 6005 4684 
3 2200 5915 2203 
3 3737 5808 3115 
3 6032 6043 3696 
3 5893 5938 4464 
3 3367 5907 3952 
3 2180 5973 2182 
3 5924 5932 4472 
3 5850 5874 4976 
3 4436 5919 4431 
3 5591 5909 3052 
3 2436 5971 5878 
3 3524 5908 3570 
3 2274 5937 2280 
3 4867 5918 2906 
3 3691 6008 4619 
3 2879 5964 5046 
3 3489 6031 5559 
3 1210 1219 1218 
3 1191 4320 1189 
3 1190 1192 1191 
3 3126 5932 3125 
3 4568 6058 4570 
3 4713 5914 4716 
3 5746 5912 3323 
3 3683 5949 5934 
3 4529 6030 3892 
3 4536 5967 4537 
3 5923 5932 3137 
3 5965 5992 4500 
3 4470 5924 4472 
3 1965 5929 1884 
3 3865 5962 3868 
3 5626 5772 5768 
3 4464 5938 5891 
3 2885 5921 5891 
3 4472 5923 4473 
3 3822 5948 3824 
3 5268 5899 3653 
3 5014 5954 5017 
3 5891 5938 2453 
3 4793 5925 2883 
3 1865 5981 1863 
3 3084 6004 3688 
3 1960 5997 1962 
3 1986 5943 5904 
3 3125 5924 5517 
3 3074 5936 3686 
3 5795 5928 4658 
3 3647 5813 5698 
3 4606 5988 4603 
3 2453 5938 2451 
3 6010 6021 5731 
3 5723 5916 3682 
3 5824 5836 5410 
3 4647 5965 2592 
3 4819 5922 4821 
3 2058 6000 2362 
3 4604 5988 5926 
3 5924 5940 5517 
3 3916 5987 3918 
3 4711 5920 4713 
3 5967 5970 2300 
3 3803 5832 3616 
3 2108 5960 2110 
3 4677 5785 5743 
3 3863 5930 3865 
3 5891 5921 4464 
3 4468 5940 4470 
3 5860 5968 3649 
3 3690 6001 5556 
3 5742 5951 4894 
3 4647 5992 5965 
3 4511 5985 3920 
3 5636 5931 2644 
3 4508 5844 5843 
3 5829 5830 4707 
3 5042 5970 5967 
3 5380 5830 5829 
3 5046 5953 2885 
3 4697 6032 2711 
3 5403 6003 2302 
3 2234 5950 5581 
3 3347 5881 3601 
3 3834 5993 5899 
3 2234 5969 5950 
3 2290 5945 2300 
3 5349 5847 4634 
3 4722 6002 5956 
3 4554 5966 4557 
3 2292 5883 5770 
3 3839 6002 4722 
3 5016 5954 5014 
3 6016 6038 4655 
3 5061 6012 2466 
3 2811 5996 3693 
3 3587 5952 4813 
3 5987 5990 4511 
3 3689 5949 3683 
3 4463 5953 4466 
3 3689 5963 5949 
3 5462 6018 3798 
3 3458 5935 3454 
3 5657 5808 3737 
3 2882 5958 5565 
3 5042 5967 4536 
3 4885 5933 4884 
3 5442 5955 1940 
3 6007 6010 3684 
3 3750 5881 3347 
3 4466 5964 4468 
3 3644 5957 3924 
3 4021 5947 4022 
3 5862 5918 4021 
3 5443 5962 2388 
3 2300 5970 5673 
3 3236 6019 3396 
3 5950 5969 4718 
3 5956 6002 3679 
3 5630 5896 2833 
3 5978 5983 4547 
3 3918 5987 4511 
3 5046 5964 5953 
3 2906 5918 5862 
3 3688 5970 5042 
3 4716 5950 4718 
3 3692 5974 5044 
3 3449 5978 4547 
3 5974 5989 5044 
3 2714 5941 4989 
3 5982 5994 5105 
3 2466 6012 5998 
3 3798 6018 3508 
3 4601 5979 4599 
3 2168 5959 2170 
3 4447 6000 5904 
3 2806 5934 5081 
3 4393 5984 4392 
3 5903 6038 1914 
3 4973 6007 3684 
3 2313 5961 5599 
3 5904 6000 2056 
3 5669 6011 2630 
3 4470 5940 5924 
3 5375 6081 5374 
3 5953 5964 4466 
3 2142 6017 2144 
3 4537 5937 5901 
3 1929 5991 5926 
3 5645 5963 3689 
3 5581 5950 5914 
3 5000 5946 5879 
3 5412 5956 5674 
3 5980 5983 3323 
3 2810 5975 2809 
3 5638 5832 3803 
3 961 4341 799 
3 884 886 885 
3 799 801 800 
3 2711 6032 4962 
3 3726 6026 3938 
3 5899 5993 3653 
3 5936 5957 3686 
3 2616 6011 2631 
3 5918 5947 4021 
3 5935 6009 4701 
3 4537 5967 5945 
3 2878 5939 5697 
3 1888 5972 1890 
3 3771 6044 5164 
3 4894 5951 3137 
3 4696 6061 3694 
3 4437 6052 4438 
3 4753 5971 2436 
3 3595 5982 5105 
3 6023 6037 3767 
3 4571 5966 4554 
3 2671 6016 2674 
3 4619 5995 3690 
3 5674 5956 3679 
3 5941 5948 3822 
3 4844 5995 2713 
3 3924 5957 5936 
3 2182 5973 2283 
3 5934 5949 5081 
3 4608 6013 4606 
3 5044 5989 4414 
3 3765 6023 3767 
3 1863 5981 1984 
3 5465 6015 3084 
3 5731 6021 3695 
3 2632 5999 2898 
3 5926 5991 4604 
3 5914 5950 4716 
3 4547 5980 4548 
3 5660 5969 2234 
3 3684 6010 5731 
3 3649 5968 5370 
3 6035 6065 3925 
3 4802 5976 2843 
3 4472 5932 5923 
3 1932 5991 1929 
3 2388 5962 5930 
3 2810 5990 5987 
3 3670 5986 4787 
3 4567 6058 4568 
3 4608 6020 6013 
3 3915 5983 5978 
3 4655 6038 5903 
3 6029 6066 2064 
3 3767 6037 3769 
3 4610 6034 6020 
3 5926 5988 2766 
3 5395 6032 3696 
3 5930 5962 3865 
3 6035 6042 4393 
3 3920 5985 3923 
3 1930 6025 1933 
3 3697 6043 3510 
3 3322 5983 3915 
3 3060 6042 3085 
3 3245 6035 3925 
3 4330 6019 3400 
3 5902 6022 3802 
3 1912 6038 1917 
3 3688 5996 5970 
3 5975 5987 3916 
3 2714 5948 5941 
3 4610 6020 4608 
3 2442 6047 6037 
3 5329 5990 2810 
3 2302 6001 4844 
3 5945 5967 2300 
3 3506 6018 5664 
3 5909 5974 3692 
3 3762 5998 3763 
3 5973 5977 2283 
3 6014 6027 3979 
3 1344 1345 1343 
3 1342 4400 1344 
3 5887 5934 2806 
3 4395 5992 4647 
3 5988 6013 2766 
3 5105 5994 3691 
3 2378 5997 1960 
3 3679 6002 3889 
3 4396 6022 5902 
3 4782 5974 5909 
3 1396 1425 1351 
3 2303 6036 4964 
3 1404 1472 1370 
3 1284 1288 1287 
3 5970 5996 5673 
3 1386 1405 1404 
3 3084 6015 6004 
3 2440 6047 2442 
3 4310 6006 3771 
3 4599 5979 5955 
3 2056 6000 2058 
3 6061 6067 5835 
3 4437 6062 3405 
3 5059 6056 2042 
3 1949 6030 5762 
3 3653 5993 5804 
3 3606 6041 5060 
3 5673 5996 2811 
3 4800 6063 4659 
3 4695 6051 4696 
3 3428 6055 3796 
3 4684 6005 2848 
3 4612 6034 4610 
3 2961 6039 2710 
3 4547 5983 5980 
3 4663 6063 2985 
3 3693 6004 3781 
3 5955 5979 1940 
3 4907 6010 6007 
3 4570 6063 4800 
3 1152 1153 1151 
3 1149 1586 1152 
3 1151 4331 4297 
3 2631 5999 2632 
3 4696 6059 6017 
3 5556 6003 4973 
3 2810 5987 5975 
3 5164 6009 3458 
3 4907 6007 5403 
3 4614 6049 6040 
3 6027 6028 4153 
3 2713 6008 5294 
3 3398 6048 3219 
3 2984 6046 5642 
3 3763 6012 3765 
3 5998 6012 3763 
3 2948 6060 2946 
3 3706 6072 4422 
3 3458 6009 5935 
3 4383 6068 6030 
3 5971 5998 3762 
3 2146 6059 2303 
3 2630 6011 2616 
3 4697 6043 6032 
3 2766 6013 5406 
3 2718 6010 4907 
3 3985 6014 3922 
3 6013 6020 5406 
3 2985 6058 5609 
3 1917 6016 2671 
3 4753 5998 5971 
3 3781 6015 4378 
3 4614 6040 4612 
3 6020 6034 1931 
3 3400 6019 3236 
3 2315 6017 2142 
3 3508 6018 3506 
3 5406 6020 1931 
3 2718 6021 6010 
3 4373 6076 6060 
3 4653 6049 4614 
3 4612 6040 6034 
3 6064 6068 3926 
3 3802 6022 4893 
3 3980 6047 6005 
3 6033 6041 3604 
3 1933 6025 1954 
3 4422 6074 3706 
3 4964 6021 2718 
3 4384 6026 3726 
3 2442 6023 5061 
3 3926 6068 4383 
3 6017 6061 4696 
3 3925 6064 3926 
3 3396 6033 3604 
3 6050 6055 3428 
3 5997 6024 1962 
3 6005 6047 2848 
3 392 4318 394 
3 504 506 505 
3 394 395 393 
3 652 4327 504 
3 580 581 433 
3 2303 6051 6036 
3 4619 6008 5995 
3 5995 6008 2713 
3 1827 1828 1826 
3 6004 6015 3781 
3 3405 6062 3404 
3 2061 6066 2059 
3 4962 6032 5395 
3 2442 6037 6023 
3 3085 6035 3245 
3 6001 6003 5556 
3 1931 6034 5165 
3 2302 6003 6001 
3 5559 6031 3782 
3 5762 6030 4529 
3 2315 6067 6061 
3 3769 6037 3980 
3 3695 6036 5780 
3 6040 6049 2725 
3 3925 6065 6064 
3 4700 6044 4433 
3 1914 6038 1912 
3 3058 6042 3060 
3 5165 6040 2725 
3 2710 6039 2709 
3 3604 6041 3606 
3 6037 6047 3980 
3 6039 6045 2709 
3 5642 6046 4350 
3 5984 6042 3058 
3 4422 6072 3886 
3 6034 6040 5165 
3 2709 6045 4937 
3 4325 6048 3398 
3 1190 1191 1189 
3 3510 6043 4697 
3 1210 1218 1188 
3 5835 6067 3703 
3 2848 6047 2440 
3 6067 6069 3703 
3 6053 6055 2233 
3 4393 6042 5984 
3 4429 6050 3697 
3 5609 6058 4567 
3 4438 6052 4591 
3 5134 6071 6070 
3 6056 6057 2042 
3 3985 6027 6014 
3 3796 6053 4559 
3 3706 6074 3568 
3 2725 6049 5903 
3 6070 6071 3704 
3 5619 6054 4357 
3 4347 6083 2044 
3 6021 6036 3695 
3 5366 6072 2767 
3 5780 6051 4695 
3 6036 6051 5780 
3 4433 6044 6006 
3 4964 6036 6021 
3 5060 6056 5059 
3 2144 6059 2146 
3 6006 6044 3771 
3 3703 6069 4504 
3 3706 6075 6072 
3 2946 6060 3239 
3 2315 6061 6017 
3 3694 6061 5835 
3 4376 6076 4373 
3 4429 6055 6050 
3 5134 6070 2726 
3 4659 6063 4663 
3 3404 6062 4498 
3 884 885 883 
3 799 800 798 
3 797 961 799 
3 6071 6073 5792 
3 2962 6065 3414 
3 5362 6067 2315 
3 2064 6066 2061 
3 3892 6068 5538 
3 5538 6064 2962 
3 5538 6068 6064 
3 5362 6069 6067 
3 6064 6065 2962 
3 3704 6071 5792 
3 5792 6073 3705 
3 4504 6070 3704 
3 3796 6055 6053 
3 2726 6069 5362 
3 3705 6075 3706 
3 6073 6075 3705 
3 1342 1344 1343 
3 2304 6071 5134 
3 6060 6076 3239 
3 1284 1287 1282 
3 1386 1404 1370 
3 1350 4333 1386 
3 1395 1396 1351 
3 2304 6073 6071 
3 3886 6072 5366 
3 2726 6070 6069 
3 6069 6070 4504 
3 5451 6073 2304 
3 1151 4297 1147 
3 1149 1152 1151 
3 5256 6081 5889 
3 3568 6074 3569 
3 5889 6081 5375 
3 1974 6080 5837 
3 5837 6080 4323 
3 2767 6075 5451 
3 5451 6075 6073 
3 3239 6076 5922 
3 4348 6083 4347 
3 4331 6077 4297 
3 392 394 393 
3 393 4294 390 
3 502 652 504 
3 391 580 433 
3 504 505 503 
3 6076 6078 5922 
3 5922 6078 4821 
3 4376 6078 6076 
3 2055 4319 1825 
3 1825 1827 1826 
3 3772 6079 3397 
3 1187 1190 1189 
3 1189 1210 1188 
3 3772 6082 6079 
3 5109 6080 1974 
3 5944 6081 5256 
3 4335 6082 3772 
3 4445 6083 4348 
3 797 799 798 
3 845 884 883 
3 698 6085 4365 
3 1340 1346 1342 
3 1342 1343 1341 
3 1312 1395 1351 
3 1283 1284 1282 
3 1350 1386 1370 
3 6079 6084 3397 
3 4319 6084 6079 
3 697 6085 698 
3 1149 1151 1147 
3 502 504 503 
3 392 393 390 
3 391 433 392 
3 1825 1826 1824 
3 1823 2055 1825 
3 3397 6084 3675 
3 1187 1189 1188 
3 1114 6085 697 
3 845 883 795 
3 797 798 796 
3 1340 1342 1341 
3 1312 1351 1350 
3 1281 1283 1282 
3 1350 1370 1311 
3 1148 6829 1147 
3 1147 6829 1149 
3 391 392 390 
3 502 503 422 
3 503 6810 422 
3 1824 2105 1822 
3 1823 1825 1824 
3 1183 4301 1187 
3 1187 1188 1186 
3 886 6086 906 
3 796 845 795 
3 793 797 796 
3 1340 1341 1339 
3 1312 1350 1311 
3 1281 1282 1280 
3 1145 1148 1147 
3 887 6086 886 
3 420 6087 5127 
3 389 502 422 
3 388 391 390 
3 1823 1824 1822 
3 1183 1187 1186 
3 793 796 795 
3 3463 6088 3770 
3 3468 6088 3465 
3 1339 1492 1337 
3 1338 1340 1339 
3 1674 4283 1338 
3 1306 1312 1311 
3 1279 1281 1280 
3 1280 1504 1278 
3 1401 4282 1306 
3 1145 1147 1146 
3 1146 1231 1144 
3 395 6089 393 
3 388 390 389 
3 389 422 387 
3 1821 1823 1822 
3 3465 6088 3463 
3 1182 1184 1181 
3 1183 1186 1180 
3 793 795 792 
3 393 6089 4294 
3 1338 1339 1337 
3 1327 1674 1338 
3 1291 1401 1306 
3 1279 1280 1278 
3 1277 1384 1279 
3 1306 1311 1305 
3 1143 4276 1145 
3 1145 1146 1144 
3 388 389 387 
3 386 4312 388 
3 1821 1822 1820 
3 1820 4272 4254 
3 1181 1183 1180 
3 1179 1182 1181 
3 791 793 792 
3 882 4285 791 
3 792 794 790 
3 1327 1338 1337 
3 1328 1330 1329 
3 4503 6091 3468 
3 1277 1279 1278 
3 1291 1306 1305 
3 2055 6090 6084 
3 3675 6090 5814 
3 1143 1145 1144 
3 1144 4287 1142 
3 4286 6091 4272 
3 6088 6091 4286 
3 386 388 387 
3 2366 4259 1819 
3 1819 1821 1820 
3 1820 4254 1818 
3 1179 1181 1180 
3 6084 6090 3675 
3 3468 6091 6088 
3 789 882 791 
3 791 792 790 
3 6090 6093 5814 
3 1327 1337 1325 
3 1328 1329 1326 
3 4174 4175 1723 
3 1291 1305 1275 
3 1277 1278 1276 
3 1276 4262 1291 
3 3391 6092 4273 
3 1143 1144 1142 
3 4270 6093 6090 
3 385 746 744 
3 386 387 385 
3 1819 1820 1818 
3 1817 2366 1819 
3 1179 1180 1178 
3 1177 4258 1179 
3 3390 6092 3391 
3 3390 6093 6092 
3 5814 6093 3390 
3 883 6094 4275 
3 789 791 790 
3 885 6094 883 
3 962 6094 905 
3 1326 1327 1325 
3 4252 4257 1323 
3 1324 1328 1326 
3 1276 1291 1275 
3 1274 1277 1276 
3 1493 4174 1723 
3 4617 6150 6148 
3 1140 1143 1142 
3 387 6809 746 
3 422 6809 387 
3 905 6094 885 
3 5147 6095 5149 
3 448 4269 384 
3 384 386 385 
3 385 744 383 
3 1818 2359 1816 
3 1817 1819 1818 
3 1287 6097 4291 
3 1289 6097 1287 
3 1450 6097 1308 
3 1178 1449 1176 
3 1177 1179 1178 
3 1811 1813 1812 
3 962 6095 4274 
3 5149 6095 962 
3 4274 6095 4239 
3 789 790 788 
3 788 4238 881 
3 79 321 80 
3 7 322 8 
3 4240 6101 6096 
3 1308 6097 1289 
3 78 1809 79 
3 4273 6098 3393 
3 77 4056 78 
3 80 4057 81 
3 1325 4252 1323 
3 1324 1326 1325 
3 76 304 77 
3 10 305 11 
3 1274 1276 1275 
3 1493 1723 1722 
3 5756 6099 3754 
3 151 315 150 
3 201 316 200 
3 1140 1142 1138 
3 81 358 82 
3 5 359 6 
3 4084 4085 4082 
3 939 6100 5147 
3 6099 6150 4617 
3 382 448 384 
3 384 385 383 
3 1817 1818 1816 
3 1136 6128 1414 
3 3374 6104 1815 
3 3393 6098 4009 
3 1177 1178 1176 
3 3754 6099 4617 
3 940 6101 939 
3 74 340 75 
3 12 339 13 
3 1049 6363 1624 
3 4239 6100 4240 
3 787 789 788 
3 788 881 786 
3 72 293 73 
3 14 294 15 
3 75 4052 76 
3 1733 1778 1732 
3 6095 6100 4239 
3 5147 6100 6095 
3 1170 4164 1168 
3 1324 1325 1323 
3 617 619 618 
3 1273 4231 1493 
3 1274 1275 1273 
3 1493 1722 1271 
3 4225 4227 4226 
3 1033 6101 940 
3 4273 6104 6098 
3 1817 6104 2366 
3 1139 1140 1138 
3 4058 4060 4059 
3 148 299 147 
3 204 300 203 
3 570 599 594 
3 6098 6104 3374 
3 2359 6111 1816 
3 312 4218 4215 
3 305 4053 11 
3 6326 6505 4981 
3 4083 4084 4082 
3 779 4080 4079 
3 758 4100 4099 
3 4079 4081 4078 
3 1400 6110 1220 
3 382 384 383 
3 1815 1817 1816 
3 1232 6701 1721 
3 5601 6111 4271 
3 293 4063 73 
3 1814 6111 2868 
3 339 4055 13 
3 1175 1177 1176 
3 1642 1645 1644 
3 1644 1646 1643 
3 1432 6127 4178 
3 599 626 625 
3 4114 4171 670 
3 4260 6129 1558 
3 613 665 554 
3 6655 6719 1628 
3 666 667 665 
3 205 6103 204 
3 16 338 17 
3 70 337 71 
3 2366 6104 4273 
3 6164 6181 1537 
3 4298 6132 1598 
3 1185 3972 3971 
3 1405 6127 1432 
3 1569 6127 1507 
3 444 469 451 
3 578 596 547 
3 1142 6128 1138 
3 4143 6128 4287 
3 787 788 786 
3 245 275 244 
3 107 276 106 
3 1220 6110 1218 
3 565 6135 535 
3 4101 6240 761 
3 5468 6130 5469 
3 1633 6130 1631 
3 1322 6132 4300 
3 294 4061 15 
3 1186 6133 4255 
3 608 741 739 
3 5070 6132 1322 
3 1598 6132 1596 
3 4126 4127 4125 
3 146 352 145 
3 206 350 205 
3 1188 6133 1186 
3 4271 6111 2359 
3 1719 1733 1732 
3 606 663 441 
3 204 6103 300 
3 337 4065 71 
3 1813 1814 1812 
3 1814 2868 1812 
3 482 4173 485 
3 1303 1324 1323 
3 1272 1274 1273 
3 1273 1493 1271 
3 207 6102 206 
3 251 289 250 
3 239 283 238 
3 113 281 112 
3 531 6623 527 
3 19 280 20 
3 67 279 68 
3 1137 1139 1138 
3 6110 6133 1218 
3 486 570 548 
3 1799 6164 1572 
3 144 287 143 
3 208 288 207 
3 217 6122 216 
3 133 6116 132 
3 137 6115 136 
3 142 354 141 
3 139 277 138 
3 209 6112 208 
3 213 278 212 
3 219 6117 218 
3 218 355 217 
3 230 270 229 
3 216 317 215 
3 210 353 209 
3 98 356 97 
3 96 284 95 
3 100 311 99 
3 253 351 252 
3 110 319 109 
3 111 6118 110 
3 256 282 255 
3 242 320 241 
3 240 6107 239 
3 252 6106 251 
3 97 6119 96 
3 122 269 121 
3 229 6121 228 
3 99 6120 98 
3 134 357 133 
3 136 318 135 
3 138 6123 137 
3 143 6113 142 
3 460 461 453 
3 668 1715 667 
3 3710 6136 4030 
3 3727 6136 3709 
3 1507 6127 1405 
3 1112 4076 1123 
3 4224 6275 4225 
3 350 6103 205 
3 4167 6162 4166 
3 4248 6235 4246 
3 4287 6128 1142 
3 763 4109 4108 
3 779 4079 4078 
3 761 4083 4082 
3 3166 4090 4089 
3 758 4099 4098 
3 1810 6137 3368 
3 1721 6701 1375 
3 481 482 480 
3 1631 6130 5468 
3 4075 4158 123 
3 4897 6140 3760 
3 1791 1792 549 
3 1596 6132 5070 
3 21 342 22 
3 35 758 36 
3 65 341 66 
3 55 764 56 
3 29 4105 30 
3 41 757 42 
3 42 4156 43 
3 44 762 45 
3 57 4091 58 
3 43 4097 44 
3 28 296 29 
3 52 760 53 
3 58 295 59 
3 34 4151 35 
3 25 4111 26 
3 26 343 27 
3 27 4106 28 
3 64 4110 65 
3 38 761 39 
3 49 4148 50 
3 69 4071 70 
3 47 759 48 
3 32 763 33 
3 30 3166 31 
3 50 779 51 
3 56 4112 57 
3 59 4103 60 
3 62 271 63 
3 60 344 61 
3 54 4102 55 
3 24 272 25 
3 382 383 381 
3 1815 1816 1814 
3 1813 3374 1815 
3 1218 6133 1188 
3 877 6684 6204 
3 1443 1748 1393 
3 4317 6144 1564 
3 1541 6144 4317 
3 1495 6146 1543 
3 1812 6137 1810 
3 1721 6805 1232 
3 446 6159 439 
3 206 6102 350 
3 6679 6836 1084 
3 1717 1793 704 
3 619 634 633 
3 1265 6568 1267 
3 287 6114 6113 
3 624 675 596 
3 779 4078 51 
3 761 4082 39 
3 3166 4089 31 
3 759 4094 48 
3 758 4098 36 
3 344 4095 61 
3 760 4104 53 
3 763 4108 33 
3 3833 6148 6147 
3 1174 4165 4164 
3 1175 1176 1174 
3 455 6153 464 
3 1642 1644 1643 
3 608 6124 741 
3 338 4069 4068 
3 4166 6162 4169 
3 6485 6553 5867 
3 4137 6308 4128 
3 185 6193 298 
3 1807 6458 1808 
3 1466 1541 1464 
3 1303 1605 1324 
3 1711 4299 4298 
3 616 617 573 
3 1117 1119 675 
3 6138 6139 4180 
3 279 4073 68 
3 280 4074 20 
3 1419 6141 6140 
3 288 6102 207 
3 6218 6250 3718 
3 469 471 470 
3 6393 6778 5188 
3 760 6366 4104 
3 1569 6138 6127 
3 4150 6672 3203 
3 4208 6250 6218 
3 540 576 539 
3 1135 1137 1136 
3 353 6112 209 
3 355 6122 217 
3 357 6116 133 
3 136 6115 318 
3 216 6122 317 
3 142 6113 354 
3 218 6117 355 
3 239 6107 283 
3 110 6118 319 
3 98 6120 356 
3 96 6119 284 
3 351 6106 252 
3 311 6120 99 
3 356 6119 97 
3 251 6106 289 
3 270 6121 229 
3 277 6123 138 
3 208 6112 288 
3 137 6123 6115 
3 287 6113 143 
3 626 642 641 
3 1049 1624 1048 
3 3709 6136 3710 
3 454 636 446 
3 563 565 535 
3 338 4068 17 
3 572 573 545 
3 349 6193 186 
3 1501 6164 1537 
3 1572 6164 1503 
3 1341 6165 1339 
3 1131 1133 1132 
3 4245 6167 1392 
3 1343 6167 1341 
3 1392 6167 1347 
3 322 4051 8 
3 784 787 786 
3 786 4235 785 
3 4073 6713 3750 
3 4178 6138 4180 
3 6268 6825 309 
3 3760 6140 5365 
3 6127 6138 4178 
3 467 468 457 
3 1719 1732 1731 
3 1564 6144 1368 
3 2868 6137 1812 
3 644 1726 671 
3 4206 6156 4203 
3 5469 6146 1495 
3 544 545 468 
3 3964 6173 3388 
3 4014 6174 3350 
3 3110 6174 3348 
3 5333 6177 5334 
3 1133 1135 1134 
3 309 4075 124 
3 6365 6378 6276 
3 4737 6715 1734 
3 1813 1815 1814 
3 1799 6181 6164 
3 1580 6719 6655 
3 613 666 665 
3 551 607 603 
3 477 536 534 
3 463 499 498 
3 1303 1323 1300 
3 1435 1542 1436 
3 437 6225 4117 
3 3724 6319 4070 
3 294 4062 4061 
3 1754 6438 6348 
3 1376 6388 4182 
3 1740 6183 1038 
3 932 6183 959 
3 607 738 632 
3 3833 6147 4698 
3 1272 1273 1271 
3 1697 6756 4495 
3 309 4195 4075 
3 1706 6511 1780 
3 4041 6554 299 
3 578 624 596 
3 6509 6757 1105 
3 570 594 548 
3 5160 6255 281 
3 672 703 702 
3 4127 4147 4146 
3 599 625 594 
3 1059 4280 1058 
3 1118 1688 1117 
3 46 6237 47 
3 428 706 426 
3 741 1690 739 
3 469 470 451 
3 1137 1138 1136 
3 6174 6233 3348 
3 644 645 634 
3 666 668 667 
3 4532 6192 3455 
3 1569 6195 6194 
3 3940 6795 4069 
3 1324 1605 1328 
3 3998 6840 4060 
3 1400 6162 6110 
3 785 4235 954 
3 617 6166 619 
3 227 6236 308 
3 882 6197 4285 
3 5724 6531 5624 
3 566 672 614 
3 420 6496 4132 
3 546 600 568 
3 616 651 617 
3 1128 1131 1130 
3 626 641 625 
3 275 6176 244 
3 759 6513 4094 
3 196 6231 195 
3 1233 6285 6181 
3 1620 1677 632 
3 6122 6664 317 
3 4249 6212 4248 
3 572 616 573 
3 6177 6178 5339 
3 483 4173 482 
3 1394 6199 1408 
3 1490 6199 1660 
3 1112 1123 1088 
3 637 6801 6108 
3 624 1118 1117 
3 501 554 484 
3 6709 6775 3953 
3 4805 6201 4802 
3 5976 6201 3868 
3 702 1655 614 
3 782 6314 784 
3 6527 6692 936 
3 1301 6264 1303 
3 3714 6202 5333 
3 3729 6203 3942 
3 5898 6203 3731 
3 5612 6453 6452 
3 624 1117 675 
3 568 595 578 
3 6623 6832 742 
3 619 644 634 
3 608 739 623 
3 568 578 547 
3 606 664 663 
3 485 539 501 
3 1544 6629 1712 
3 576 608 577 
3 4229 6615 595 
3 1293 6212 4249 
3 607 632 603 
3 1503 6164 1501 
3 1339 6165 1492 
3 6212 6235 4248 
3 702 1663 1655 
3 124 4075 123 
3 1092 1096 1095 
3 544 572 545 
3 460 462 461 
3 5180 5186 5179 
3 1347 6167 1343 
3 1246 6208 1409 
3 1776 6562 363 
3 738 1620 632 
3 467 544 468 
3 619 6166 644 
3 4127 4146 4125 
3 6110 6162 4167 
3 5006 6827 3978 
3 455 464 458 
3 566 613 554 
3 471 473 472 
3 487 538 465 
3 557 631 564 
3 1727 6323 6220 
3 1790 1791 549 
3 5378 6210 3719 
3 5323 6210 5325 
3 1295 6212 1293 
3 672 702 614 
3 668 6161 1715 
3 492 493 491 
3 499 569 500 
3 380 382 381 
3 1671 1672 668 
3 482 485 484 
3 642 1625 641 
3 6099 6264 6150 
3 1304 6264 6099 
3 316 6184 200 
3 6331 6358 1266 
3 320 6581 5161 
3 1772 6623 602 
3 608 623 577 
3 464 486 465 
3 4208 6218 3328 
3 671 1658 645 
3 739 1614 623 
3 4904 6216 6134 
3 3362 6216 5687 
3 473 475 474 
3 462 6143 463 
3 501 566 554 
3 5173 6218 3718 
3 3328 6218 3898 
3 572 620 616 
3 336 6207 4163 
3 475 480 479 
3 435 438 431 
3 4777 6247 1603 
3 603 604 563 
3 569 627 571 
3 3388 6173 5379 
3 644 6166 1726 
3 468 6157 457 
3 546 547 538 
3 627 700 638 
3 3350 6174 3110 
3 1414 6285 1134 
3 449 575 452 
3 486 548 487 
3 546 568 547 
3 666 1671 668 
3 5334 6177 5339 
3 566 614 613 
3 1597 6794 1598 
3 644 671 645 
3 467 736 544 
3 636 6159 446 
3 454 6157 636 
3 1789 1790 549 
3 576 577 539 
3 625 640 594 
3 445 446 439 
3 486 487 465 
3 3371 6221 3750 
3 6146 6242 1543 
3 5496 6709 3953 
3 485 501 484 
3 464 465 458 
3 474 476 472 
3 551 603 563 
3 982 6223 5238 
3 1104 6223 980 
3 277 6792 4030 
3 3663 6224 5554 
3 3950 6224 3992 
3 1537 6181 4142 
3 647 6812 648 
3 244 6176 243 
3 1625 1739 641 
3 478 6143 462 
3 6147 6202 4698 
3 1302 6202 6147 
3 4123 6182 87 
3 1758 6430 745 
3 458 467 457 
3 487 546 538 
3 558 1111 543 
3 6373 6435 5658 
3 432 437 436 
3 471 472 470 
3 442 6155 449 
3 551 563 535 
3 534 535 478 
3 595 6168 578 
3 1172 1175 1174 
3 1174 4164 1170 
3 198 6207 336 
3 1038 6183 932 
3 1642 1643 1641 
3 4110 6771 341 
3 4016 6233 6174 
3 578 6168 624 
3 480 6152 479 
3 482 484 480 
3 437 444 439 
3 1355 6303 4138 
3 651 6166 617 
3 536 6169 534 
3 1391 1610 1444 
3 477 478 462 
3 1705 1707 1706 
3 6107 6411 1109 
3 551 6169 607 
3 671 1675 1658 
3 534 551 535 
3 444 451 445 
3 477 534 478 
3 475 479 474 
3 280 6293 4074 
3 447 454 446 
3 3975 6238 3738 
3 785 954 953 
3 455 458 457 
3 4067 6519 4066 
3 1746 1785 1662 
3 1649 6217 5208 
3 596 6228 547 
3 6165 6206 1492 
3 455 457 454 
3 1465 1466 1464 
3 473 474 472 
3 291 6258 117 
3 595 6646 4229 
3 6286 6345 620 
3 351 6324 4064 
3 1585 6517 6457 
3 425 426 419 
3 459 460 453 
3 4242 6649 1078 
3 775 6242 6146 
3 4518 6242 1736 
3 452 453 450 
3 6290 6475 1565 
3 1711 4298 1598 
3 442 443 438 
3 624 6168 1118 
3 452 459 453 
3 327 6378 6365 
3 3945 6185 5455 
3 1711 6794 1599 
3 4159 6267 448 
3 470 621 451 
3 427 428 426 
3 1800 6574 6141 
3 460 477 462 
3 200 6184 199 
3 432 435 431 
3 449 450 443 
3 449 452 450 
3 687 6262 690 
3 2893 6246 3210 
3 3119 6246 2891 
3 1672 6161 668 
3 444 445 439 
3 723 6266 4159 
3 4003 6481 6462 
3 366 367 364 
3 649 4173 483 
3 566 6163 672 
3 554 6152 484 
3 1185 6214 3974 
3 425 430 427 
3 3970 6192 4532 
3 954 1049 1048 
3 102 6244 101 
3 6363 6433 1624 
3 1080 1081 1076 
3 1175 6321 1177 
3 4301 6306 4028 
3 539 6163 501 
3 4775 6247 4777 
3 4725 6247 5833 
3 429 431 428 
3 1416 4260 1558 
3 1558 1559 1418 
3 442 449 443 
3 5297 6249 1056 
3 1677 6160 632 
3 613 6158 666 
3 1393 1430 1397 
3 632 6160 603 
3 445 447 446 
3 437 439 436 
3 6171 6228 736 
3 484 6152 480 
3 435 442 438 
3 3864 6251 3858 
3 4285 6197 961 
3 603 6160 604 
3 6138 6194 6139 
3 1111 6291 543 
3 1270 6441 4019 
3 6209 6281 673 
3 447 455 454 
3 577 6163 539 
3 4129 6425 705 
3 1136 1414 1134 
3 1808 6327 636 
3 67 6283 279 
3 341 6283 66 
3 463 6143 499 
3 4724 6253 4725 
3 789 6256 882 
3 1655 6158 614 
3 901 1034 899 
3 186 6193 185 
3 501 6163 566 
3 538 6228 6171 
3 457 6157 454 
3 4095 6362 4096 
3 7 6311 322 
3 359 6311 6 
3 546 6179 600 
3 3746 6259 5003 
3 5467 6259 5466 
3 432 436 435 
3 1740 6665 1105 
3 448 6267 4269 
3 127 4144 126 
3 6121 6236 228 
3 1074 1094 1059 
3 614 6158 613 
3 46 6561 6237 
3 725 6198 5222 
3 6260 6712 5003 
3 6206 6235 4253 
3 194 6275 193 
3 1805 6325 4284 
3 1795 6544 1093 
3 5324 6265 3984 
3 429 432 431 
3 1408 6199 1490 
3 345 6669 4199 
3 710 6266 712 
3 715 6266 723 
3 651 6294 6172 
3 307 6355 4124 
3 1097 6204 1091 
3 449 6155 575 
3 709 6267 710 
3 1726 6180 671 
3 4037 6284 4208 
3 496 541 495 
3 4802 6201 5976 
3 1569 6194 6138 
3 6446 6447 6289 
3 1430 1433 1431 
3 4698 6202 3714 
3 1702 1704 1703 
3 3731 6203 3729 
3 5782 6492 5531 
3 3737 6271 5657 
3 161 6277 160 
3 427 429 428 
3 529 601 532 
3 465 6171 458 
3 1433 1435 1434 
3 425 427 426 
3 538 6171 465 
3 6135 6281 6209 
3 569 673 627 
3 666 6158 1671 
3 4156 6449 4097 
3 1492 6206 4253 
3 153 6273 152 
3 534 6169 551 
3 784 786 785 
3 4125 6182 4123 
3 458 6171 467 
3 4043 6556 149 
3 548 6179 487 
3 487 6179 546 
3 6184 6207 199 
3 1248 6208 1246 
3 4051 6440 9 
3 467 6171 736 
3 3720 6279 3737 
3 5183 5186 5180 
3 5181 6245 5182 
3 428 6175 706 
3 1269 6568 1268 
3 6229 6230 409 
3 1099 6845 6383 
3 199 6207 198 
3 1601 6288 4776 
3 1092 1095 1091 
3 281 6255 112 
3 111 6255 6118 
3 183 6299 182 
3 747 6808 1761 
3 6149 6243 1302 
3 4631 6287 3987 
3 4776 6288 4774 
3 3719 6210 5323 
3 1737 6629 1544 
3 1299 6212 1295 
3 23 6341 24 
3 1735 6290 5027 
3 1547 6290 1565 
3 494 495 493 
3 631 635 564 
3 723 6292 717 
3 720 6292 5181 
3 1299 6235 6212 
3 664 6186 1657 
3 1704 1705 1703 
3 6276 6378 1102 
3 577 6222 6163 
3 1719 1731 688 
3 1132 6285 1233 
3 1804 6329 1805 
3 692 6758 6312 
3 699 6798 6477 
3 672 6222 703 
3 447 6188 6153 
3 3974 6214 5869 
3 761 6240 4083 
3 4034 6298 4784 
3 4627 6298 5652 
3 1054 6314 782 
3 1435 1436 1434 
3 438 6175 431 
3 1759 6404 1122 
3 4681 6300 4683 
3 5866 6300 5473 
3 4253 6235 1299 
3 6400 6786 6399 
3 5687 6216 4904 
3 4146 6182 4125 
3 3662 6302 3663 
3 4301 6303 1190 
3 1192 6303 1355 
3 1648 4160 1647 
3 1680 6305 1555 
3 5425 6305 1617 
3 3898 6218 5173 
3 1302 6243 6178 
3 1184 6306 1181 
3 1183 6306 4301 
3 3931 6309 3991 
3 3122 6309 5794 
3 5453 6479 1285 
3 1095 1097 1091 
3 1048 6276 953 
3 4139 6248 479 
3 1090 1091 1089 
3 671 6180 1675 
3 431 6175 428 
3 4132 6802 420 
3 1652 6802 4132 
3 784 6314 787 
3 231 1787 230 
3 4906 6254 6253 
3 6163 6222 672 
3 3587 6313 5952 
3 225 6261 1712 
3 282 6282 255 
3 1788 6637 334 
3 606 6170 664 
3 1764 6689 330 
3 1605 5821 5820 
3 4181 6316 4184 
3 553 6348 542 
3 3884 6221 3371 
3 245 1763 275 
3 6181 6285 4142 
3 181 6328 180 
3 451 6188 445 
3 3870 4006 3867 
3 1096 1654 1095 
3 226 6261 225 
3 4031 6693 1332 
3 980 6223 982 
3 5554 6224 3950 
3 6139 6316 4180 
3 4074 6439 342 
3 3625 6319 3724 
3 4680 6320 5695 
3 1082 1083 1081 
3 1089 6204 1112 
3 1525 6473 1540 
3 4284 6325 1346 
3 4400 6325 1508 
3 773 774 772 
3 640 6638 4217 
3 630 1750 1656 
3 621 6188 451 
3 4160 6637 1647 
3 421 6778 6393 
3 210 6297 353 
3 605 646 606 
3 4367 6229 4368 
3 6251 6471 3858 
3 1768 6740 1771 
3 1771 6740 647 
3 1333 6687 4031 
3 1508 6329 1509 
3 1513 6329 1804 
3 700 1669 1103 
3 432 6225 437 
3 442 6191 6155 
3 3921 6330 3985 
3 4059 6468 155 
3 4293 6227 4314 
3 1627 6239 1552 
3 242 6301 320 
3 304 6226 4162 
3 445 6188 447 
3 4185 6333 4183 
3 3884 6519 4067 
3 1269 1272 1271 
3 776 4118 774 
3 6159 6191 436 
3 6253 6254 1603 
3 1593 6634 4449 
3 1571 6335 1574 
3 5537 6336 5985 
3 6254 6572 1316 
3 6320 6715 5695 
3 564 637 558 
3 435 6191 442 
3 1114 6338 6337 
3 4108 6274 4151 
3 6515 6765 1744 
3 1788 6728 6637 
3 4135 6808 747 
3 1119 6345 675 
3 106 1764 105 
3 6135 6209 6143 
3 5864 6340 5867 
3 115 6317 114 
3 4201 6286 736 
3 6124 6511 1707 
3 4090 6542 4089 
3 923 6626 6195 
3 5624 6533 4032 
3 3348 6233 5634 
3 765 766 756 
3 1619 6344 1618 
3 552 5125 5124 
3 1745 6831 1742 
3 4921 6470 4102 
3 755 756 754 
3 436 6191 435 
3 5455 6349 3735 
3 752 753 291 
3 771 772 770 
3 3587 6821 6313 
3 6519 6631 4066 
3 5029 6789 1546 
3 556 602 531 
3 3940 6354 3211 
3 5748 6354 3707 
3 253 6324 351 
3 623 6222 577 
3 308 6762 1738 
3 621 6381 4129 
3 646 6170 606 
3 3738 6238 3739 
3 193 6275 4224 
3 6417 6644 377 
3 699 6477 1668 
3 430 6200 427 
3 368 370 369 
3 6256 6714 882 
3 4293 6249 6227 
3 228 6236 227 
3 605 606 441 
3 410 6361 413 
3 3988 6237 3977 
3 3756 6240 3757 
3 6466 6623 742 
3 1730 6825 6268 
3 557 564 558 
3 4386 6426 3941 
3 6756 6818 4493 
3 149 6761 4043 
3 1543 6242 4518 
3 1091 6204 1089 
3 493 550 491 
3 604 6278 563 
3 4098 6412 4101 
3 5184 5185 5183 
3 541 557 543 
3 4201 6345 6286 
3 47 6237 759 
3 237 1725 236 
3 1794 6380 706 
3 703 6315 702 
3 5877 6370 4527 
3 479 6248 474 
3 1064 6371 1666 
3 4030 6792 6343 
3 557 558 543 
3 429 6225 432 
3 324 6390 172 
3 302 6724 259 
3 354 6343 141 
3 532 597 556 
3 6176 6301 243 
3 2891 6246 2893 
3 547 6228 538 
3 630 701 602 
3 510 6711 1778 
3 4149 6513 5575 
3 4136 6809 537 
3 1663 6328 1655 
3 427 6200 429 
3 1126 1127 285 
3 6339 6622 5304 
3 1574 6375 1576 
3 6245 6296 456 
3 316 6279 6184 
3 6172 6232 651 
3 4209 6250 1589 
3 499 6209 569 
3 4062 6563 4061 
3 1599 6636 6451 
3 640 6280 594 
3 6293 6439 4074 
3 5158 6310 440 
3 572 6286 620 
3 1591 4027 1592 
3 5833 6247 4775 
3 6117 6347 355 
3 1056 6249 4293 
3 4631 6818 6287 
3 6143 6209 499 
3 270 6789 5029 
3 1601 6289 6288 
3 184 6391 183 
3 1336 1747 1331 
3 4055 6600 294 
3 5178 6628 6120 
3 1072 6301 6176 
3 4038 6284 4037 
3 6337 6338 492 
3 6254 6546 1603 
3 627 6213 700 
3 3718 6250 4209 
3 620 6294 616 
3 736 6286 544 
3 569 6209 673 
3 3999 6273 3997 
3 1778 6711 1732 
3 3867 6251 3864 
3 1647 6637 1623 
3 5184 6732 365 
3 4064 6512 351 
3 3742 6386 3741 
3 673 6213 627 
3 5178 6387 678 
3 680 6387 1659 
3 4208 6284 6250 
3 201 6373 316 
3 4069 6795 3724 
3 1089 1112 1088 
3 4562 4563 1753 
3 4043 6389 3752 
3 5656 6389 5536 
3 4182 6388 4179 
3 4092 6534 295 
3 4906 6253 4724 
3 1434 1486 1431 
3 621 6308 6188 
3 787 6256 789 
3 663 1664 441 
3 1051 6393 5188 
3 6454 6636 1599 
3 4142 6285 1414 
3 134 6379 357 
3 318 6379 135 
3 112 6255 111 
3 378 1789 549 
3 548 6280 6179 
3 1485 1730 1484 
3 4051 6688 4628 
3 5466 6259 3746 
3 778 6475 6290 
3 474 6248 476 
3 4122 6395 1570 
3 4177 6388 4194 
3 1669 6151 1103 
3 278 6382 212 
3 1545 1748 1443 
3 1330 6682 1331 
3 5467 6639 6259 
3 10 6440 305 
3 1094 4280 1059 
3 1128 6323 1131 
3 5325 6265 5324 
3 6166 6232 1726 
3 712 6266 715 
3 6200 6225 429 
3 4269 6267 709 
3 651 6232 6166 
3 6273 6632 152 
3 1664 6409 4261 
3 630 1656 701 
3 3513 6410 5084 
3 1135 1136 1134 
3 6196 6523 925 
3 556 630 602 
3 424 425 419 
3 114 6433 113 
3 1129 1484 1127 
3 1131 1132 1130 
3 170 6484 313 
3 1133 1134 1132 
3 6237 6561 3977 
3 4495 6633 1697 
3 6265 6751 3984 
3 807 6422 811 
3 6194 6626 6139 
3 1718 1719 688 
3 6184 6279 3928 
3 335 6273 153 
3 6109 6536 4200 
3 1578 6377 5822 
3 5657 6271 5658 
3 466 6694 6644 
3 1607 6427 6352 
3 6477 6798 1770 
3 1682 6725 4367 
3 3716 6431 3715 
3 126 6268 125 
3 64 6461 4110 
3 271 6461 63 
3 107 6404 276 
3 1399 6434 1250 
3 564 6215 637 
3 6191 6327 6155 
3 264 6463 263 
3 832 6437 803 
3 663 1665 1664 
3 1687 6723 6459 
3 4081 6366 760 
3 846 6616 4076 
3 6350 6670 1749 
3 261 6671 260 
3 3165 6442 3939 
3 3332 6442 3163 
3 541 543 495 
3 1094 6621 4280 
3 1598 6794 1711 
3 4092 6640 4579 
3 6188 6308 6153 
3 1693 1694 1692 
3 635 6215 564 
3 6328 6678 1655 
3 1584 6504 6326 
3 203 6435 202 
3 3958 4027 3971 
3 1393 1397 1336 
3 160 6277 325 
3 5297 6743 6249 
3 380 381 379 
3 378 549 380 
3 6241 6423 301 
3 274 6540 1693 
3 737 6445 5124 
3 5436 6764 4496 
3 320 6411 241 
3 240 6411 6107 
3 4496 6764 6763 
3 6505 6506 1141 
3 6784 6824 6414 
3 6330 6331 1266 
3 3928 6279 3720 
3 4012 6456 5810 
3 3747 6456 3961 
3 6113 6408 354 
3 5002 6457 4804 
3 121 1788 120 
3 1740 6310 6183 
3 922 6834 923 
3 840 6834 922 
3 4018 6471 6251 
3 5820 5822 1605 
3 615 6685 1776 
3 692 6617 4815 
3 2821 6462 5632 
3 1169 6822 1170 
3 6320 6321 1734 
3 899 6205 766 
3 255 6282 254 
3 4106 6804 4107 
3 66 6283 67 
3 4084 6806 6547 
3 4122 6630 903 
3 3975 6785 6238 
3 4107 6775 296 
3 3987 6287 4026 
3 766 6205 768 
3 1646 6714 6256 
3 1037 1710 509 
3 4774 6288 4625 
3 635 6842 1702 
3 1760 6823 832 
3 366 368 367 
3 594 6280 548 
3 5027 6290 1547 
3 563 6278 565 
3 262 6356 261 
3 3991 6470 3930 
3 1035 6659 5133 
3 5270 6787 5339 
3 717 6292 720 
3 3856 6471 3859 
3 4624 6476 4627 
3 3733 6293 3722 
3 1653 6825 1730 
3 1077 5428 1752 
3 6313 6821 4107 
3 639 699 662 
3 771 6676 773 
3 763 6542 4109 
3 1169 6702 6455 
3 1074 6359 1094 
3 1774 6752 749 
3 5569 6478 3291 
3 4045 6486 352 
3 6159 6327 6191 
3 4828 6479 5453 
3 3941 6479 3759 
3 4284 6501 1805 
3 6508 6757 6509 
3 6404 6569 1122 
3 1743 6766 6515 
3 1693 1695 1694 
3 6223 6784 5238 
3 505 1710 503 
3 6597 6660 4152 
3 6250 6284 1589 
3 5652 6298 4034 
3 338 6563 4069 
3 325 6487 159 
3 4175 6749 1723 
3 158 6487 362 
3 182 6299 314 
3 476 6381 472 
3 752 754 753 
3 4563 6679 1753 
3 4226 6615 4229 
3 544 6286 572 
3 1540 1583 1582 
3 4341 6596 832 
3 211 6297 210 
3 5473 6300 4681 
3 616 6294 651 
3 1734 6715 6320 
3 5881 6489 5947 
3 6208 6847 1409 
3 784 785 783 
3 1638 1760 1673 
3 405 6496 420 
3 3934 6302 3662 
3 532 556 531 
3 1190 6303 1192 
3 6233 6564 6521 
3 565 6281 6135 
3 1555 6305 5425 
3 6244 6722 101 
3 243 6301 242 
3 4576 6502 4577 
3 1430 1431 1397 
3 1399 6624 6434 
3 1181 6306 1183 
3 748 6512 4064 
3 782 783 781 
3 5794 6309 3931 
3 90 6708 89 
3 6241 6494 701 
3 3888 6514 5436 
3 3983 6514 3758 
3 2973 6516 3513 
3 3957 6516 3363 
3 4154 6642 306 
3 6293 6319 3722 
3 6287 6818 1698 
3 1433 1434 1431 
3 1805 6501 1436 
3 690 6154 692 
3 702 6315 1663 
3 5546 6519 3884 
3 4157 6653 661 
3 323 6315 4206 
3 6183 6310 5158 
3 1734 6321 1175 
3 6630 6659 6500 
3 4305 6523 1567 
3 1568 6523 6196 
3 762 6561 45 
3 6317 6365 1624 
3 310 6356 262 
3 936 1648 1647 
3 1636 6658 1642 
3 4059 6650 358 
3 5952 6313 3995 
3 415 605 441 
3 313 6835 169 
3 1616 6738 1615 
3 1583 1662 1661 
3 6578 6686 1333 
3 6 6311 7 
3 290 6244 102 
3 1 6650 156 
3 195 6651 0 
3 689 1718 688 
3 82 6650 1 
3 0 6651 5 
3 4090 6709 5496 
3 144 6486 287 
3 352 6486 145 
3 6282 6324 254 
3 6114 6783 4047 
3 470 6381 621 
3 6335 6395 937 
3 22 6618 23 
3 3981 6545 3927 
3 1238 6548 1375 
3 377 6526 376 
3 1172 1174 1170 
3 4145 6594 317 
3 3741 6570 3727 
3 4180 6316 4181 
3 1248 6434 6208 
3 1288 6550 1290 
3 1294 6550 1374 
3 4906 6572 6254 
3 317 6664 4145 
3 1475 6564 4016 
3 1636 1642 1641 
3 561 6828 4370 
3 6219 6220 1480 
3 1423 6532 1422 
3 6289 6447 6288 
3 938 1101 753 
3 6439 6545 342 
3 4229 6646 4223 
3 3722 6319 3625 
3 4683 6320 4680 
3 689 6754 691 
3 6259 6639 1286 
3 213 6522 278 
3 1802 6649 1766 
3 149 6556 148 
3 780 781 769 
3 4006 4017 1270 
3 4905 6572 4903 
3 4161 6606 755 
3 1743 6751 6265 
3 1346 6325 4400 
3 345 6538 85 
3 4486 6566 1268 
3 4577 6326 4981 
3 1410 6576 1258 
3 3166 6709 4090 
3 314 6328 181 
3 5365 6574 4004 
3 266 6537 346 
3 1123 6552 1088 
3 356 6344 6119 
3 780 1054 782 
3 254 6324 253 
3 3964 6768 6173 
3 601 6736 6577 
3 4080 6582 4079 
3 1019 6782 1718 
3 5496 6641 4090 
3 1126 1128 1127 
3 316 6373 6271 
3 579 6511 6124 
3 1087 6820 1795 
3 1384 6518 1279 
3 4890 6582 3203 
3 284 6432 1765 
3 3932 6589 5537 
3 4730 6593 3936 
3 1137 6406 1139 
3 4200 6673 324 
3 1509 6329 1513 
3 6249 6743 694 
3 4258 6485 5868 
3 1648 4161 4160 
3 4192 6847 6208 
3 5541 6745 4452 
3 299 6554 147 
3 146 6554 352 
3 1098 6400 4913 
3 3923 6330 3921 
3 1539 6679 4563 
3 355 6322 6122 
3 4002 6410 3973 
3 344 6362 4095 
3 6238 6785 762 
3 4005 6662 6482 
3 2 6666 175 
3 176 6667 4 
3 83 6666 2 
3 1162 6447 6446 
3 4 6667 268 
3 4488 6605 3935 
3 1751 6658 1636 
3 1272 6611 1274 
3 4183 6333 4193 
3 4204 6667 361 
3 1277 6611 1384 
3 360 6666 4198 
3 837 6616 846 
3 601 6577 532 
3 1721 6619 1630 
3 1632 6619 1678 
3 3999 6632 6273 
3 6249 6656 6227 
3 466 6784 6223 
3 1570 6335 1571 
3 5985 6336 3923 
3 6362 6657 4096 
3 1083 1086 1085 
3 6153 6308 4137 
3 4187 6624 4185 
3 766 768 767 
3 6272 6588 3963 
3 1609 6649 4242 
3 319 6569 109 
3 1114 6337 6085 
3 5094 6630 4122 
3 4008 6631 4868 
3 4449 6634 3952 
3 6361 6791 1683 
3 299 6556 4039 
3 180 6748 179 
3 4453 6639 4451 
3 3939 6641 3205 
3 3207 6641 5496 
3 1086 1089 1088 
3 768 770 769 
3 293 6790 4063 
3 6230 6791 6361 
3 1171 6592 6134 
3 5632 6340 5864 
3 3715 6657 5580 
3 151 6632 315 
3 4145 6664 4729 
3 1106 6665 1740 
3 1752 6813 1753 
3 3945 6521 6185 
3 6185 6521 1611 
3 157 6668 3 
3 3 6668 194 
3 938 1676 1102 
3 5066 6847 1608 
3 3203 6672 2969 
3 3120 6672 5575 
3 317 6594 215 
3 1540 1582 1539 
3 690 6754 689 
3 6204 6684 1112 
3 4864 6687 5782 
3 4031 6687 3948 
3 6173 6768 1141 
3 3959 6688 4010 
3 5265 6344 1619 
3 5531 6492 6491 
3 1375 6701 1236 
3 1228 6701 1232 
3 1612 6704 5133 
3 3732 6706 3981 
3 6220 6323 1480 
3 512 6711 510 
3 1081 6359 1076 
3 4370 6828 4369 
3 1614 6493 623 
3 3978 6827 3768 
3 1252 6826 1399 
3 1674 6717 4283 
3 351 6512 6106 
3 3992 6721 3949 
3 3953 6821 3331 
3 4669 6814 288 
3 1110 6733 5300 
3 4493 6818 4491 
3 4184 6815 4186 
3 141 6343 140 
3 1761 6808 5146 
3 5282 6808 4135 
3 1615 6743 1108 
3 1629 6805 1721 
3 420 6802 6087 
3 733 6802 1652 
3 3985 6799 6027 
3 4947 6750 5877 
3 3212 6795 3940 
3 3724 6795 3316 
3 749 6752 722 
3 5339 6787 5336 
3 5228 6784 6414 
3 4315 6758 4815 
3 3735 6349 3947 
3 695 6599 424 
3 4981 6768 5859 
3 5189 6778 5231 
3 3748 6771 3962 
3 3954 6777 3994 
3 327 6365 6317 
3 494 6338 5321 
3 24 6341 272 
3 4133 6402 1107 
3 1600 6397 6396 
3 1397 1747 1336 
3 6105 6477 331 
3 220 273 219 
3 132 274 131 
3 637 6403 558 
3 211 6382 6297 
3 3971 3972 3957 
3 1742 6766 1741 
3 1128 1130 1129 
3 3211 6354 5748 
3 154 6468 335 
3 6453 6605 1775 
3 5612 6605 6453 
3 1416 1558 1418 
3 477 6681 536 
3 759 6846 6513 
3 639 662 574 
3 1129 1485 1484 
3 6156 6493 1614 
3 543 6291 495 
3 1102 6304 6276 
3 900 6692 902 
3 150 6761 149 
3 4236 6601 575 
3 1716 6660 6597 
3 1659 6722 6244 
3 6504 6505 6326 
3 6421 6498 1224 
3 5426 6813 5427 
3 1066 1691 1116 
3 1713 6736 601 
3 4107 6804 6313 
3 493 6291 550 
3 1580 6655 1552 
3 700 6355 1669 
3 675 6345 4201 
3 774 777 772 
3 100 6722 311 
3 409 6361 410 
3 691 6312 6227 
3 6227 6312 4314 
3 740 1754 662 
3 4024 6362 4023 
3 139 6792 277 
3 1034 6205 899 
3 1785 1786 1662 
3 559 6645 553 
3 314 6678 6328 
3 1076 6359 1074 
3 699 1668 740 
3 4241 6681 459 
3 1767 1770 1768 
3 1638 6145 1685 
3 4130 6580 550 
3 1643 6558 1641 
3 5432 6719 4015 
3 636 6327 6159 
3 6418 6419 4001 
3 1747 6376 4141 
3 782 784 783 
3 6204 6780 877 
3 6197 6595 961 
3 766 767 756 
3 3733 6439 6293 
3 1132 1233 1130 
3 6512 6675 6106 
3 6413 6414 379 
3 6233 6521 5634 
3 1646 6369 1643 
3 707 6432 5264 
3 4527 6370 6190 
3 5157 6371 1064 
3 924 6385 1073 
3 287 6783 6114 
3 495 6291 493 
3 840 6551 6472 
3 4914 4915 1098 
3 4000 6396 4001 
3 1083 1085 1081 
3 6230 6361 409 
3 739 6607 1614 
3 424 6599 425 
3 5575 6513 3990 
3 6536 6673 4200 
3 1666 6759 5281 
3 6558 6730 1641 
3 202 6373 201 
3 6109 6669 4147 
3 1695 1699 1694 
3 4199 6669 6109 
3 1704 6356 1705 
3 6273 6840 3997 
3 6415 6416 5272 
3 1540 6473 1758 
3 787 6314 6256 
3 600 6646 568 
3 331 6477 1770 
3 1576 6375 1622 
3 1128 1129 1127 
3 6288 6447 4625 
3 780 782 781 
3 6283 6489 279 
3 1434 6501 1486 
3 1583 1661 1582 
3 6141 6574 6140 
3 6296 6598 370 
3 773 6676 6474 
3 1688 6755 1117 
3 415 441 411 
3 376 1789 378 
3 1050 6125 1710 
3 4088 6760 4087 
3 639 6798 699 
3 135 6379 134 
3 938 1102 1101 
3 248 6257 303 
3 1739 6638 641 
3 335 6840 6273 
3 6388 6576 4194 
3 768 769 767 
3 575 6601 452 
3 4807 6608 4806 
3 6246 6547 3210 
3 5258 6683 1069 
3 725 6752 6198 
3 1654 6549 1095 
3 694 6656 6249 
3 754 938 753 
3 212 6382 211 
3 1010 1037 1018 
3 459 6681 460 
3 1086 1088 1085 
3 625 6638 640 
3 6213 6355 700 
3 4008 6790 6631 
3 4808 6695 3956 
3 230 1787 270 
3 1119 6450 6345 
3 6344 6628 1618 
3 6115 6386 318 
3 770 780 769 
3 1374 6550 4388 
3 1124 6769 4241 
3 6530 6531 5724 
3 1269 4017 1272 
3 699 740 662 
3 3986 6386 3742 
3 3968 6408 3970 
3 678 6387 680 
3 529 532 531 
3 6642 6755 306 
3 472 6381 470 
3 1758 6473 6430 
3 4179 6388 4177 
3 1763 6217 275 
3 1078 6776 4242 
3 3752 6389 5656 
3 298 6391 184 
3 3981 6618 6545 
3 4495 6756 4493 
3 172 6390 171 
3 605 6380 646 
3 6141 6142 1418 
3 4146 6669 345 
3 1761 6622 747 
3 366 456 368 
3 322 6688 4051 
3 3988 6846 6237 
3 5378 6394 6210 
3 507 6742 509 
3 5272 6393 1051 
3 620 6450 6294 
3 303 365 364 
3 6237 6846 759 
3 1661 6747 6718 
3 5867 6553 5866 
3 4453 6739 6639 
3 780 6332 1054 
3 3929 6729 4806 
3 4102 6470 764 
3 5382 6263 1616 
3 4111 6819 343 
3 541 6438 557 
3 1334 1336 1331 
3 1416 6398 1262 
3 4054 6573 339 
3 4036 4783 1160 
3 303 6257 365 
3 903 6630 6500 
3 611 708 707 
3 4191 6830 4188 
3 1105 6757 1740 
3 1605 6377 1328 
3 381 6416 6415 
3 3757 6590 5690 
3 108 6404 107 
3 783 6844 781 
3 4579 6640 3122 
3 3755 6497 5805 
3 1399 6826 6333 
3 900 6499 901 
3 272 6773 4111 
3 1668 1684 740 
3 365 366 364 
3 1741 6406 1137 
3 1085 6359 1081 
3 1676 6304 1102 
3 370 372 371 
3 4261 6409 407 
3 5658 6497 3755 
3 5084 6410 3201 
3 6114 6408 6113 
3 705 6425 4152 
3 5881 6713 6489 
3 4099 6412 4098 
3 241 6411 240 
3 3971 4027 1184 
3 937 6527 6375 
3 5161 6581 1070 
3 805 6422 807 
3 6222 6493 703 
3 1588 6407 1158 
3 4195 6825 1653 
3 6408 6839 354 
3 4736 6715 4737 
3 772 6332 770 
3 6315 6748 1663 
3 1161 6469 1164 
3 1037 5242 1710 
3 1673 6658 1751 
3 3981 6706 6341 
3 155 6468 154 
3 383 6360 381 
3 574 6348 553 
3 332 6510 6495 
3 1608 6427 1607 
3 565 6591 6281 
3 1716 6597 6248 
3 6529 6530 3996 
3 6689 6796 330 
3 6459 6723 5223 
3 6205 6676 771 
3 938 6342 1676 
3 805 6437 6422 
3 3962 6431 3716 
3 744 6360 383 
3 550 6580 491 
3 6508 6509 371 
3 84 6538 4198 
3 6271 6373 5658 
3 1693 6540 1696 
3 5183 6817 5186 
3 6440 6721 305 
3 319 6733 6569 
3 1250 6434 1248 
3 355 6347 6322 
3 6170 6652 664 
3 6390 6484 171 
3 258 6105 331 
3 6637 6728 1623 
3 1795 6820 6544 
3 4204 6537 267 
3 6602 6622 6339 
3 263 6463 310 
3 4087 6449 4156 
3 1657 6736 1665 
3 1769 6707 6464 
3 803 6437 805 
3 5786 6439 3733 
3 4088 6547 6246 
3 756 6342 754 
3 558 6403 1111 
3 113 6433 281 
3 1014 6782 1019 
3 4094 6513 4149 
3 3163 6442 3165 
3 6690 6793 6427 
3 6210 6394 1155 
3 300 6435 203 
3 936 6692 900 
3 259 6724 6105 
3 1808 6458 6327 
3 323 6748 6315 
3 9 6440 10 
3 6706 6773 272 
3 1718 6782 1719 
3 1301 6149 6148 
3 1565 6475 6474 
3 4019 6566 4485 
3 923 6384 924 
3 6773 6819 4111 
3 378 379 377 
3 6401 6483 813 
3 1754 6720 631 
3 6434 6624 4190 
3 639 6812 647 
3 6501 6717 1486 
3 6186 6577 1657 
3 1648 6606 4161 
3 6358 6443 1266 
3 1410 6749 6576 
3 1626 6445 737 
3 6168 6615 4228 
3 6158 6678 1671 
3 6427 6793 841 
3 3963 6803 3943 
3 6312 6758 4314 
3 6337 6635 6085 
3 696 6635 6337 
3 1602 6546 1169 
3 1233 6364 1130 
3 902 6499 900 
3 1552 6655 1627 
3 781 6612 769 
3 1084 6718 1082 
3 1780 6511 579 
3 1284 6426 1587 
3 5810 6456 3747 
3 4001 6677 1604 
3 6432 6510 1765 
3 5003 6457 5002 
3 6497 6575 5805 
3 3750 6713 5881 
3 6409 6496 407 
3 1066 1116 1115 
3 1125 6583 1480 
3 5154 6462 2821 
3 488 6691 6586 
3 3996 6530 5724 
3 1104 6694 6223 
3 1765 6510 332 
3 695 6580 4130 
3 63 6461 64 
3 1116 1686 1115 
3 333 6587 1787 
3 6116 6540 274 
3 755 6606 765 
3 542 6438 541 
3 1603 6546 1602 
3 4064 6464 749 
3 593 6812 639 
3 4118 6730 6558 
3 1641 6730 1635 
3 328 6680 1700 
3 1754 6348 662 
3 4024 6657 6362 
3 553 6645 560 
3 4160 6697 334 
3 5805 6575 4665 
3 6263 6738 1616 
3 6531 6533 5624 
3 5272 6416 6393 
3 4449 6803 1593 
3 277 6570 6123 
3 6136 6570 277 
3 6262 6392 1691 
3 4060 6468 4059 
3 4022 6489 6283 
3 6294 6450 4155 
3 6626 6845 6139 
3 811 6770 1781 
3 774 4118 777 
3 770 6332 780 
3 1269 1271 1267 
3 574 6741 593 
3 3930 6470 4921 
3 597 6577 6186 
3 3858 6471 3856 
3 4625 6476 4624 
3 310 6833 6356 
3 1116 1687 1686 
3 6313 6804 3995 
3 6343 6792 140 
3 707 6510 6432 
3 1102 6378 1101 
3 302 6671 1702 
3 418 424 419 
3 3739 6760 4953 
3 4089 6542 763 
3 1778 6742 510 
3 4193 6826 1254 
3 5003 6712 6457 
3 6366 6716 4104 
3 334 6637 4160 
3 5786 6545 6439 
3 5411 6436 1034 
3 3291 6478 4890 
3 6276 6304 953 
3 492 6338 494 
3 1757 6769 1124 
3 777 6332 772 
3 281 6433 6363 
3 4931 6767 4100 
3 3759 6479 4828 
3 3947 6693 4031 
3 4100 6837 4931 
3 6248 6597 476 
3 108 6569 6404 
3 1670 6494 6241 
3 6217 6685 5208 
3 1733 6480 1778 
3 6340 6481 5868 
3 754 6342 938 
3 6340 6485 5867 
3 686 6723 6392 
3 742 6467 6466 
3 4005 6482 4488 
3 6327 6458 6155 
3 1066 1115 1065 
3 509 1710 505 
3 743 6459 5223 
3 1130 6364 1129 
3 1160 6446 1161 
3 356 6628 6344 
3 6155 6458 575 
3 6521 6564 1611 
3 171 6484 170 
3 4370 6703 561 
3 1786 6820 6747 
3 357 6541 6116 
3 1698 6818 6756 
3 159 6487 158 
3 6386 6816 318 
3 560 6741 574 
3 494 6585 496 
3 6302 6573 4054 
3 1149 6448 1586 
3 707 5264 598 
3 4061 6563 338 
3 489 6580 695 
3 145 6486 144 
3 339 6573 4055 
3 4307 6488 4305 
3 767 6342 756 
3 5947 6489 4022 
3 1581 6559 4309 
3 407 6496 405 
3 1570 6395 6335 
3 4189 6690 4192 
3 378 380 379 
3 3986 6816 6386 
3 6356 6833 1705 
3 6575 6648 4665 
3 1070 6581 1072 
3 295 6534 4103 
3 6223 6694 466 
3 6384 6385 924 
3 1702 6671 1704 
3 662 6348 574 
3 6201 6608 4807 
3 4575 6502 4576 
3 1618 6628 5178 
3 1376 6576 6388 
3 750 6512 748 
3 1048 6365 6276 
3 3122 6640 6309 
3 6190 6829 1148 
3 4485 6566 4486 
3 4806 6729 4807 
3 4807 6729 3869 
3 1129 6364 1485 
3 3758 6514 3888 
3 3363 6516 2973 
3 5223 6723 686 
3 4804 6517 4876 
3 1691 6392 1116 
3 3337 6519 5546 
3 346 6700 265 
3 1335 6405 6349 
3 6287 6726 4026 
3 4039 6556 4043 
3 5634 6521 3945 
3 466 6824 6784 
3 1695 6654 1697 
3 292 6571 1785 
3 6375 6527 1622 
3 750 6675 6512 
3 1707 6511 1706 
3 5690 6590 3378 
3 276 1764 106 
3 267 6537 266 
3 1729 6689 1764 
3 1567 6523 1568 
3 600 6647 4230 
3 85 6538 84 
3 677 6643 6579 
3 6117 6520 6347 
3 3869 3870 3867 
3 4665 6648 4666 
3 6280 6647 6179 
3 749 6707 1774 
3 6634 6774 4809 
3 1436 6501 1434 
3 214 6522 213 
3 6341 6706 272 
3 6447 6476 4625 
3 1162 6476 6447 
3 6355 6708 1669 
3 4205 6537 4204 
3 6106 6675 289 
3 6463 6490 310 
3 677 6644 6643 
3 1785 6402 1786 
3 4198 6538 4199 
3 4016 6564 6233 
3 1566 6436 5411 
3 1696 6654 1695 
3 4043 6761 6389 
3 4453 6745 1283 
3 421 6360 5231 
3 265 6700 264 
3 3927 6545 5786 
3 4086 6547 4088 
3 1586 6346 1588 
3 1313 6548 1238 
3 1290 6550 1294 
3 1753 6813 4562 
3 6193 6797 298 
3 6661 6662 4005 
3 6419 6677 4001 
3 1695 6307 1699 
3 1626 6828 6445 
3 260 6671 302 
3 6274 6837 4100 
3 595 6615 6168 
3 147 6554 146 
3 1670 6495 6494 
3 6239 6520 273 
3 4126 6591 4127 
3 6243 6555 6178 
3 300 6575 6497 
3 6562 6685 6217 
3 330 1796 104 
3 6495 6753 332 
3 6028 6539 1549 
3 6281 6627 673 
3 3941 6426 1285 
3 148 6556 299 
3 1770 6798 6740 
3 1539 4563 1389 
3 4367 6725 6230 
3 5339 6705 5270 
3 3968 6839 6408 
3 1095 6549 1097 
3 6179 6647 600 
3 6648 6727 4666 
3 6412 6590 3757 
3 1729 5210 978 
3 623 6493 6222 
3 631 6842 635 
3 214 6594 6522 
3 45 6561 46 
3 6160 6536 604 
3 1774 6707 1771 
3 509 6742 6480 
3 3337 6631 6519 
3 3727 6570 6136 
3 6744 6745 5541 
3 4280 6621 838 
3 6486 6783 287 
3 4903 6572 4906 
3 6345 6450 620 
3 1069 6683 6549 
3 109 6569 108 
3 6418 6421 1224 
3 6397 6421 6418 
3 1258 6576 1376 
3 354 6839 6343 
3 269 1788 121 
3 762 6785 6561 
3 529 5244 601 
3 5281 6579 5143 
3 476 6597 6425 
3 4666 6727 4667 
3 6645 6703 560 
3 561 6703 6645 
3 1786 6747 1662 
3 4150 6582 4080 
3 6541 6726 6540 
3 4026 6726 6541 
3 1710 6125 503 
3 5186 6675 750 
3 6103 6575 300 
3 6140 6574 5365 
3 6277 6613 325 
3 6231 6651 195 
3 6503 6507 1584 
3 6435 6497 5658 
3 4486 6589 3932 
3 6301 6581 320 
3 3936 6593 5432 
3 6590 6767 3378 
3 961 6595 4341 
3 1119 6642 6450 
3 194 6668 6275 
3 4452 6745 4453 
3 903 6811 4122 
3 215 6594 214 
3 1770 6740 1768 
3 6491 6686 1330 
3 1670 6753 6495 
3 611 707 598 
3 4228 6615 4226 
3 1116 6392 1687 
3 307 6708 6355 
3 648 6772 6198 
3 3935 6605 5612 
3 532 6577 597 
3 6579 6643 5143 
3 4805 6608 6201 
3 677 6579 6368 
3 6148 6150 1301 
3 294 6600 4062 
3 419 1728 417 
3 4019 6779 4018 
3 838 6621 6616 
3 89 6708 307 
3 1274 6611 1277 
3 491 6580 489 
3 365 6732 366 
3 4216 6647 6280 
3 4105 6775 6709 
3 661 6653 4072 
3 1286 6739 6372 
3 1120 6731 1717 
3 838 6616 837 
3 4155 6642 4154 
3 6452 6453 1599 
3 4815 6617 1100 
3 4284 6717 6501 
3 1630 6619 1632 
3 425 6599 430 
3 6103 6648 6575 
3 1702 6842 1684 
3 6727 6814 4667 
3 693 1718 689 
3 376 6598 1789 
3 6219 6583 329 
3 1579 6770 1640 
3 6451 6452 1599 
3 5304 6622 1761 
3 1143 6507 4276 
3 1140 6507 1143 
3 4190 6624 4187 
3 452 6601 459 
3 5632 6481 6340 
3 6499 6811 903 
3 902 6811 6499 
3 1715 6660 1716 
3 647 6798 639 
3 6577 6736 1657 
3 1785 6571 6402 
3 1065 1729 978 
3 602 6623 531 
3 342 6618 22 
3 1072 6581 6301 
3 4230 6647 4216 
3 6383 6845 6626 
3 5036 6630 5094 
3 4868 6631 3337 
3 1316 6546 6254 
3 5133 6659 5036 
3 6126 6633 4495 
3 152 6632 151 
3 6310 6508 440 
3 3952 6634 4809 
3 4667 6814 4669 
3 6085 6635 4365 
3 4093 6640 4092 
3 5868 6485 6340 
3 1690 6607 739 
3 6586 6791 1681 
3 1683 6791 6586 
3 691 6656 6610 
3 6610 6656 694 
3 290 6788 6459 
3 4451 6639 5467 
3 3205 6641 3207 
3 5143 6643 1104 
3 6309 6640 4093 
3 1766 6649 1609 
3 1103 6807 638 
3 1597 6674 6454 
3 358 6650 82 
3 5 6651 359 
3 6120 6628 356 
3 4105 6709 3166 
3 6350 6680 328 
3 6495 6510 708 
3 6441 6566 4019 
3 6161 6699 6698 
3 1715 6698 6660 
3 6698 6699 1625 
3 374 6526 6368 
3 6368 6526 677 
3 5259 6683 5258 
3 6660 6698 642 
3 1644 6714 1646 
3 5580 6657 4024 
3 334 6557 119 
3 773 6843 774 
3 1642 6658 1645 
3 4152 6660 642 
3 4921 6716 3751 
3 1141 6614 6173 
3 175 6666 360 
3 361 6667 176 
3 4010 6781 4011 
3 4194 6749 4175 
3 350 6648 6103 
3 4004 6661 4005 
3 4729 6664 4730 
3 3378 6767 4931 
3 359 6781 6311 
3 6028 6799 6443 
3 6443 6799 1266 
3 5274 6665 1106 
3 6139 6845 6316 
3 3951 6721 6440 
3 362 6668 157 
3 568 6646 595 
3 269 6728 1788 
3 6489 6713 279 
3 740 6720 1754 
3 2969 6672 3120 
3 832 6823 6437 
3 4099 6767 6590 
3 6506 6614 1141 
3 646 6731 6170 
3 6471 6779 3859 
3 708 6510 707 
3 1697 6307 1695 
3 1789 6598 6296 
3 1796 6796 1686 
3 1600 6603 6397 
3 6545 6618 342 
3 510 6742 507 
3 296 6775 4105 
3 6359 6552 1094 
3 641 6638 625 
3 1088 6552 1085 
3 6422 6770 811 
3 6160 6673 6536 
3 3948 6687 4864 
3 318 6816 6379 
3 1112 6684 4076 
3 4628 6688 3959 
3 1182 6525 1184 
3 343 6804 4106 
3 1374 6696 1296 
3 1592 6774 6535 
3 6347 6520 1627 
3 3943 6803 4449 
3 841 6830 6429 
3 350 6727 6648 
3 4122 6811 6395 
3 1236 6701 1228 
3 5411 6704 1612 
3 376 378 377 
3 4689 6706 3732 
3 6450 6642 4155 
3 522 6711 512 
3 5629 6787 5270 
3 882 6714 6197 
3 4147 6669 4146 
3 643 6741 6703 
3 6703 6741 560 
3 5695 6715 4736 
3 5866 6734 6300 
3 4283 6717 4284 
3 179 6748 323 
3 6449 6760 3739 
3 1592 6535 1590 
3 3949 6721 3951 
3 877 6780 5259 
3 6402 6571 1107 
3 5036 6659 6630 
3 1610 6838 6460 
3 6425 6597 4152 
3 1093 6544 4133 
3 1623 6728 1621 
3 6631 6790 4066 
3 6178 6705 5339 
3 1122 6733 1110 
3 101 6722 100 
3 4783 4784 1160 
3 4127 6591 6278 
3 6256 6841 1646 
3 4689 6773 6706 
3 1108 6743 5297 
3 6654 6756 1697 
3 1698 6756 6654 
3 460 6681 477 
3 5259 6780 6683 
3 279 6713 4073 
3 4949 6750 4947 
3 359 6651 6231 
3 4066 6790 293 
3 767 6612 6342 
3 6197 6714 1644 
3 6588 6803 3963 
3 273 6117 219 
3 132 6116 274 
3 1279 6543 1281 
3 3984 6751 3983 
3 722 6752 725 
3 1645 6596 6595 
3 6342 6612 1676 
3 642 6698 1625 
3 1158 6318 1160 
3 6161 6698 1715 
3 527 6466 524 
3 526 527 524 
3 4314 6758 4315 
3 1581 6776 6559 
3 6102 6727 350 
3 1679 6762 1708 
3 1268 6566 6441 
3 5859 6768 3964 
3 4100 6767 4099 
3 4020 6771 3748 
3 6436 6676 6205 
3 3946 6773 4689 
3 6644 6694 6643 
3 4242 6776 1581 
3 6451 6777 3954 
3 4047 6783 4045 
3 1661 6836 1582 
3 5188 6778 5189 
3 1752 5428 5427 
3 3934 6573 6302 
3 6278 6591 565 
3 1677 6673 6160 
3 5338 5629 5628 
3 1164 6469 1602 
3 372 376 374 
3 309 6825 4195 
3 5238 6784 5228 
3 1262 6539 1263 
3 3977 6785 3975 
3 1719 6782 1733 
3 5336 6787 5338 
3 315 6761 150 
3 3946 6819 6773 
3 1655 6678 6158 
3 328 6670 6350 
3 169 6835 168 
3 4188 6793 4189 
3 3316 6795 3212 
3 1549 6539 6398 
3 6170 6731 1120 
3 6027 6799 6028 
3 1054 6841 6314 
3 1334 6682 1332 
3 6460 6838 1611 
3 6087 6802 733 
3 1660 6805 1629 
3 3210 6806 4694 
3 1590 6295 1423 
3 5146 6808 5282 
3 6683 6780 1097 
3 6414 6417 379 
3 4186 6815 4191 
3 4025 6816 3986 
3 4491 6818 4631 
3 3995 6819 3946 
3 6102 6814 6727 
3 140 6792 139 
3 746 6809 4136 
3 6134 6592 4905 
3 3331 6821 3587 
3 1223 6420 1222 
3 1254 6826 1252 
3 3768 6827 5005 
3 4369 6828 1626 
3 1744 6765 6764 
3 6764 6765 6763 
3 1787 6789 270 
3 1177 6553 4258 
3 4931 6837 3332 
3 3967 6839 3968 
3 3997 6840 3998 
3 1296 6555 1298 
3 3990 6846 3988 
3 1409 6847 5066 
3 673 6627 6213 
3 1611 6838 6185 
3 1034 6436 6205 
3 1117 6755 1119 
3 6333 6826 4193 
3 6448 6750 4949 
3 1150 6750 6448 
3 6569 6733 1122 
3 6227 6656 691 
3 6211 6406 1741 
3 300 6497 6435 
3 4038 6609 6284 
3 6314 6841 6256 
3 6275 6668 362 
3 664 6652 6186 
3 418 6691 488 
3 288 6814 6102 
3 1739 6797 6193 
3 6747 6820 1087 
3 6343 6839 3967 
3 6284 6609 1589 
3 1625 6797 1739 
3 1546 6789 1667 
3 781 6844 6612 
3 6369 6841 1054 
3 6389 6761 315 
3 1627 6520 6239 
3 6639 6739 1286 
3 6220 6737 1727 
3 1119 6755 6642 
3 1763 6562 6217 
3 4118 6558 777 
3 6740 6798 647 
3 1636 1641 1635 
3 6349 6693 3947 
3 334 6697 6557 
3 1333 6686 6492 
3 769 6612 767 
3 1422 6530 6529 
3 1479 6604 6336 
3 1073 6385 4308 
3 1699 6737 6220 
3 1665 6736 1713 
3 6576 6749 4194 
3 4161 6697 4160 
3 6214 6525 1182 
3 6378 6584 1101 
3 4575 6503 6502 
3 6502 6503 1584 
3 1638 1673 1637 
3 1549 6398 5006 
3 1097 6780 6204 
3 6196 6384 923 
3 232 6620 333 
3 1647 6527 936 
3 6185 6838 6252 
3 1480 6583 6219 
3 1170 6822 1172 
3 1705 6833 1707 
3 1085 6552 6359 
3 1101 6584 6258 
3 6741 6772 593 
3 643 6772 6741 
3 529 531 527 
3 1628 6719 6593 
3 327 6584 6378 
3 333 6620 6430 
3 611 6832 708 
3 1162 6446 4784 
3 6312 6754 692 
3 1391 6565 1610 
3 6368 6759 375 
3 6105 6724 1668 
3 6311 6781 4010 
3 6405 6693 6349 
3 1740 6757 6310 
3 1014 1019 1017 
3 6369 6558 1643 
3 6547 6806 3210 
3 4876 6518 1384 
3 6316 6845 1099 
3 4308 6385 4307 
3 1686 6796 1115 
3 6443 6539 6028 
3 1589 6346 4211 
3 4099 6590 6412 
3 1582 6679 1539 
3 1776 6685 6562 
3 1640 1685 1639 
3 592 742 611 
3 6474 6676 1566 
3 1268 6568 6567 
3 6720 6842 631 
3 4038 6407 1588 
3 1373 6407 4038 
3 6215 6801 637 
3 6513 6846 3990 
3 6346 6609 1588 
3 6560 6800 6472 
3 1585 6518 6517 
3 3751 6716 6366 
3 6300 6734 1243 
3 6430 6620 745 
3 3929 4017 3870 
3 6402 6544 1786 
3 1684 6720 740 
3 1662 6747 1661 
3 925 6384 6196 
3 746 6602 6339 
3 6607 6700 346 
3 6252 6838 1610 
3 5427 6813 1752 
3 6772 6812 593 
3 648 6812 6772 
3 742 6832 611 
3 366 6732 456 
3 6595 6596 4341 
3 332 6753 93 
3 6383 6626 6625 
3 6403 6653 1111 
3 370 6598 372 
3 4191 6560 6551 
3 3332 6837 6274 
3 4191 6815 6560 
3 6551 6560 6472 
3 6504 6507 1140 
3 4045 6783 6486 
3 5338 6787 5629 
3 6560 6815 1099 
3 6307 6831 1745 
3 6464 6707 749 
3 6379 6816 4025 
3 1667 6789 6587 
3 4211 6346 1586 
3 1155 6406 6211 
3 4133 6544 6402 
3 1267 6568 1269 
3 6515 6751 1743 
3 3983 6751 6515 
3 5185 6817 5183 
3 6397 6674 6421 
3 246 6710 1763 
3 692 6754 690 
3 6612 6844 1676 
3 1335 6565 1334 
3 1697 6633 6307 
3 6307 6633 6126 
3 1161 6446 6289 
3 1685 6145 1639 
3 6557 6697 751 
3 1332 6693 6405 
3 4072 6653 6403 
3 6500 6659 1035 
3 1608 6690 6427 
3 744 6339 5304 
3 6395 6811 902 
3 6459 6788 1687 
3 979 1066 1065 
3 6718 6836 1661 
3 1763 6710 6562 
3 6532 6533 6531 
3 1424 6533 6532 
3 298 6797 6699 
3 1656 6807 6423 
3 6437 6823 1685 
3 1676 6844 6304 
3 6643 6694 1104 
3 6535 6774 1593 
3 1646 6841 6369 
3 6457 6712 1585 
3 5321 6585 494 
3 6625 6626 923 
3 1600 6636 6603 
3 537 6810 6125 
3 1687 6788 1686 
3 1489 1714 1554 
3 1353 1636 1635 
3 1367 1638 1637 
3 1554 4916 4915 
3 6455 6592 1171 
3 1673 4421 1637 
3 4018 6779 6471 
3 6546 6702 1169 
3 4189 6793 6690 
3 372 6598 376 
3 1584 6507 6504 
3 4087 6760 6449 
3 1585 6543 6518 
3 6567 6568 1265 
3 6472 6834 840 
3 6603 6636 6454 
3 6480 6742 1778 
3 5629 6696 1374 
3 330 6796 1796 
3 6385 6488 4307 
3 925 6488 6385 
3 6423 6807 1103 
3 6549 6683 1097 
3 592 6467 742 
3 1185 6525 6214 
3 6544 6820 1786 
3 6579 6759 6368 
3 1284 6746 6426 
3 6603 6674 6397 
3 6310 6757 6508 
3 6561 6785 3977 
3 1223 6528 6420 
3 1566 6676 6436 
3 6392 6723 1687 
3 1640 6770 6422 
3 5006 6398 1417 
3 416 6691 418 
3 1690 6700 6607 
3 6593 6719 5432 
3 1281 6543 6372 
3 1353 1751 1636 
3 4784 6446 1160 
3 1707 6833 6490 
3 1593 6588 6535 
3 6535 6588 6272 
3 1367 6145 1638 
3 6272 6295 1590 
3 1422 6531 6530 
3 6490 6833 310 
3 1296 6696 6555 
3 1610 6565 6252 
3 1331 6682 1334 
3 5136 6585 5321 
3 1600 6777 6636 
3 6587 6789 1787 
3 5281 6759 6579 
3 6426 6746 1285 
3 1590 6535 6272 
3 1602 6469 4778 
3 418 419 417 
3 6126 6831 6307 
3 1332 6682 6578 
3 4386 4387 1587 
3 4683 6321 6320 
3 5628 5629 1374 
3 3956 3958 3957 
3 6562 6710 363 
3 6625 6800 6383 
3 6636 6777 6451 
3 925 6385 6384 
3 5231 6360 744 
3 1593 6803 6588 
3 1586 6448 4949 
3 273 6520 6117 
3 1283 6744 6465 
3 6735 6746 6465 
3 6735 6744 5541 
3 1285 6746 6735 
3 6465 6744 6735 
3 979 5298 1066 
3 1243 6321 4683 
3 812 6786 6400 
3 1622 1647 1623 
3 6699 6797 1625 
3 6725 6791 6230 
3 1562 4421 1751 
3 6398 6539 1262 
3 1681 6791 6725 
3 1637 4421 4420 
3 5270 6696 5629 
3 1263 6539 6443 
3 1751 4421 1673 
3 6518 6543 1279 
3 4036 6318 1373 
3 6448 6829 1150 
3 1084 6836 6718 
3 4258 6553 6485 
3 4188 6830 6793 
3 6793 6830 841 
3 1585 6712 6543 
3 6543 6712 6260 
3 1160 6318 4036 
3 6578 6682 1330 
3 1639 6145 1541 
3 1587 6426 4386 
3 6553 6734 5866 
3 1243 6734 6553 
3 1582 6836 6679 
3 3956 6695 3958 
3 1298 6555 6243 
3 1589 6609 6346 
3 6809 6810 537 
3 1599 6794 6454 
3 1684 6842 6720 
3 6555 6705 6178 
3 5270 6705 6555 
3 6454 6794 1597 
3 6455 6702 1316 
3 1546 1667 1524 
3 1012 1018 1014 
3 526 5244 529 
3 6270 6822 1171 
3 1622 6527 1647 
3 1224 6420 6419 
3 3870 4017 4006 
3 6763 6831 6126 
3 691 6754 6312 
3 3971 6525 1185 
3 592 611 598 
3 4778 6469 1601 
3 1424 6295 6272 
3 3958 3971 3957 
3 1466 1640 1639 
3 1023 5242 1022 
3 1022 5242 5241 
3 6765 6766 1742 
3 5822 6377 1605 
3 6150 6264 1301 
3 6125 6810 503 
3 526 529 527 
3 1524 1525 1523 
3 6662 6663 6482 
3 1330 6686 6578 
3 923 6834 6625 
3 416 418 417 
3 1283 6745 6744 
3 3869 3929 3870 
3 1424 6532 6295 
3 1172 6822 6270 
3 3869 6729 3929 
3 1422 6532 6531 
3 6763 6765 1742 
3 6482 6663 1775 
3 6295 6532 1423 
3 1742 6831 6763 
3 414 415 412 
3 3993 4388 4387 
3 6318 6407 1373 
3 5241 5242 1037 
3 1158 6407 6318 
3 6555 6696 5270 
3 935 5298 5276 
3 5276 5298 979 
3 1316 6702 6546 
3 1559 6663 6662 
3 1149 6829 6448 
3 979 1065 978 
3 1012 1014 1013 
3 1100 6154 1067 
3 1100 6617 6154 
3 1466 1639 1541 
3 1488 1554 1553 
3 1365 1637 1364 
3 1314 1635 1313 
3 1184 6525 3971 
3 422 6810 6809 
3 371 6509 370 
3 381 6415 6413 
3 1664 4261 411 
3 421 6416 6360 
3 1050 4134 537 
3 691 6610 689 
3 693 6738 6263 
3 6131 6843 775 
3 1633 4118 776 
3 776 6130 1633 
3 1781 6483 811 
3 811 6483 6401 
3 6401 6786 811 
3 839 6353 6351 
3 901 1035 1034 
3 901 6500 1035 
3 1010 1012 1009 
3 1017 5382 1030 
3 4308 6559 1075 
3 1078 1802 1077 
3 6559 6776 1078 
3 1172 4737 1734 
3 4737 6270 1173 
3 1224 6498 6420 
3 1301 6243 6149 
3 1354 1562 1353 
3 1465 1579 1466 
3 5582 6353 1489 
3 4562 6813 1515 
3 1515 6813 5426 
3 4153 6028 1549 
3 1578 5822 5532 
3 1578 6491 6377 
3 1634 6730 1633 
3 1634 1678 1635 
3 1711 6453 1775 
3 1743 6211 1741 
3 1743 6265 6211 
3 1800 6662 6661 
3 4309 6559 4308 
3 6173 6614 5379 
3 6195 6626 6194 
3 6414 6824 6417 
3 6421 6674 6498 
3 6472 6800 6625 
3 6504 6506 6505 

CELL_TYPES 13427
9
9
9
9
9
9
9
9
9
9
9
9
9
9
9
9
9
9
9
9
9
9
9
9
9
9
9
9
9
9
9
9
9
9
9
9
9
9
9
9
9
9
9
9
9
9
9
9
9
9
9
9
9
9
9
9
9
9
9
9
9
9
9
9
9
9
9
9
9
9
9
9
9
9
9
9
9
9
9
9
9
9
9
9
9
9
9
9
9
9
9
9
9
9
9
9
9
9
9
9
9
9
9
9
9
9
9
9
9
9
9
9
9
9
9
9
9
9
9
9
9
9
9
9
9
9
9
9
9
9
9
9
9
9
9
9
9
9
9
9
9
9
9
9
9
9
9
9
9
9
9
9
9
9
9
9
9
9
9
9
9
9
9
9
9
9
9
9
9
9
9
9
9
9
9
9
9
9
9
9
9
9
9
9
9
9
9
9
9
9
9
9
9
9
9
9
9
9
9
9
9
9
9
9
9
9
9
9
9
9
9
9
9
9
9
9
9
9
9
9
9
9
9
9
9
9
9
9
9
9
9
9
9
9
9
9
9
9
9
9
9
9
9
9
9
9
9
9
9
9
9
9
9
9
9
9
9
9
9
9
9
9
9
9
9
9
9
9
9
9
9
9
9
9
9
9
9
9
9
9
9
9
9
9
9
9
9
9
9
9
9
9
9
9
9
9
9
9
9
9
9
9
9
9
9
9
9
9
9
9
9
9
9
9
9
9
9
9
9
9
9
9
9
9
9
9
9
9
9
9
9
9
9
9
9
9
9
9
9
9
9
9
9
9
9
9
9
9
9
9
9
9
9
9
9
9
9
9
9
9
9
9
9
9
9
9
9
9
9
9
9
9
9
9
9
9
9
9
9
9
9
9
9
9
9
9
9
9
9
9
9
9
9
9
9
9
9
9
9
9
9
9
9
9
9
9
9
9
9
9
9
9
9
9
9
9
9
9
9
9
9
9
9
9
9
9
9
9
9
9
9
9
9
9
9
9
9
9
9
9
9
9
9
9
9
9
9
9
9
9
9
9
9
9
9
9
9
9
9
9
9
9
9
9
9
9
9
9
9
9
9
9
9
9
9
9
9
9
9
9
9
9
9
9
9
9
9
9
9
9
9
9
9
9
9
9
9
9
9
9
9
9
9
9
9
9
9
9
9
9
9
9
9
9
9
9
9
9
9
9
9
9
9
9
9
9
9
9
9
9
9
9
9
9
9
9
9
9
9
9
9
9
9
9
9
9
9
9
9
9
9
9
9
9
9
9
9
9
9
9
9
9
9
9
9
9
9
9
9
9
9
9
9
9
9
9
9
9
9
9
9
9
9
9
9
9
9
9
9
9
9
9
9
9
9
9
9
9
9
9
9
9
9
9
9
9
9
9
9
9
9
9
9
9
9
9
9
9
9
9
9
9
9
9
9
9
9
9
9
9
9
9
9
9
9
9
9
9
9
9
9
9
9
9
9
9
9
9
9
9
9
9
9
9
9
9
9
9
9
9
9
9
9
9
9
9
9
9
9
9
9
9
9
9
9
9
9
9
9
9
9
9
9
9
9
9
9
9
9
9
9
9
9
9
9
9
9
9
9
9
9
9
9
9
9
9
9
9
9
9
9
9
9
9
9
9
9
9
9
9
9
9
9
9
9
9
9
9
9
9
9
9
9
9
9
9
9
9
9
9
9
9
9
9
9
9
9
9
9
9
9
9
9
9
9
9
9
9
9
9
9
9
9
9
9
9
9
9
9
9
9
9
9
9
9
9
9
9
9
9
9
9
9
9
9
9
9
9
9
9
9
9
9
9
9
9
9
9
9
9
9
9
9
9
9
9
9
9
9
9
9
9
9
9
9
9
9
9
9
9
9
9
9
9
9
9
9
9
9
9
9
9
9
9
9
9
9
9
9
9
9
9
9
9
9
9
9
9
9
9
9
9
9
9
9
9
9
9
9
9
9
9
9
9
9
9
9
9
9
9
9
9
9
9
9
9
9
9
9
9
9
9
9
9
9
9
9
9
9
9
9
9
9
9
9
9
9
9
9
9
9
9
9
9
9
9
9
9
9
9
9
9
9
9
9
9
9
9
9
9
9
9
9
9
9
9
9
9
9
9
9
9
9
9
9
9
9
9
9
9
9
9
9
9
9
9
9
9
9
9
9
9
9
9
9
9
9
9
9
9
9
9
9
9
9
9
9
9
9
9
9
9
9
9
9
9
9
9
9
9
9
9
9
9
9
9
9
9
9
9
9
9
9
9
9
9
9
9
9
9
9
9
9
9
9
9
9
9
9
9
9
9
9
9
9
9
9
9
9
9
9
9
9
9
9
9
9
9
9
9
9
9
9
9
9
9
9
9
9
9
9
9
9
9
9
9
9
9
9
9
9
9
9
9
9
9
9
9
9
9
9
9
9
9
9
9
9
9
9
9
9
9
9
9
9
9
9
9
9
9
9
9
9
9
9
9
9
9
9
9
9
9
9
9
9
9
9
9
9
9
9
9
9
9
9
9
9
9
9
9
9
9
9
9
9
9
9
9
9
9
9
9
9
9
9
9
9
9
9
9
9
9
9
9
9
9
9
9
9
9
9
9
9
9
9
9
9
9
9
9
9
9
9
9
9
9
9
9
9
9
9
9
9
9
9
9
9
9
9
9
9
9
9
9
9
9
9
9
9
9
9
9
9
9
9
9
9
9
9
9
9
9
9
9
9
9
9
9
9
9
9
9
9
9
9
9
9
9
9
9
9
9
9
9
9
9
9
9
9
9
9
9
9
9
9
9
9
9
9
9
9
9
9
9
9
9
9
9
9
9
9
9
9
9
9
9
9
9
9
9
9
9
9
9
9
9
9
9
9
9
9
9
9
9
9
9
9
9
9
9
9
9
9
9
9
9
9
9
9
9
9
9
9
9
9
9
9
9
9
9
9
9
9
9
9
9
9
9
9
9
9
9
9
9
9
9
9
9
9
9
9
9
9
9
9
9
9
9
9
9
9
9
9
9
9
9
9
9
9
9
9
9
9
9
9
9
9
9
9
9
9
9
9
9
9
9
9
9
9
9
9
9
9
9
9
9
9
9
9
9
9
9
9
9
9
9
9
9
9
9
9
9
9
9
9
9
9
9
9
9
9
9
9
9
9
9
9
9
9
9
9
9
9
9
9
9
9
9
9
9
9
9
9
9
9
9
9
9
9
9
9
9
9
9
9
9
9
9
9
9
9
9
9
9
9
9
9
9
9
9
9
9
9
9
9
9
9
9
9
9
9
9
9
9
9
9
9
9
9
9
9
9
9
9
9
9
9
9
9
9
9
9
9
9
9
9
9
9
9
9
9
9
9
9
9
9
9
9
9
9
9
9
9
9
9
9
9
9
9
9
9
9
9
9
9
9
9
9
9
9
9
9
9
9
9
9
9
9
9
9
9
9
9
9
9
9
9
9
9
9
9
9
9
9
9
9
9
9
9
9
9
9
9
9
9
9
9
9
9
9
9
9
9
9
9
9
9
9
9
9
9
9
9
9
9
9
9
9
9
9
9
9
9
9
9
9
9
9
9
9
9
9
9
9
9
9
9
9
9
9
9
9
9
9
9
9
9
9
9
9
9
9
9
9
9
9
9
9
9
9
9
9
9
9
9
9
9
9
9
9
9
9
9
9
9
9
9
9
9
9
9
9
9
9
9
9
9
9
9
9
9
9
9
9
9
9
9
9
9
9
9
9
9
9
9
9
9
9
9
9
9
9
9
9
9
9
9
9
9
9
9
9
9
9
9
9
9
9
9
9
9
9
9
9
9
9
9
9
9
9
9
9
9
9
9
9
9
9
9
9
9
9
9
9
9
9
9
9
9
9
9
9
9
9
9
9
9
9
9
9
9
9
9
9
9
9
9
9
9
9
9
9
9
9
9
9
9
9
9
9
9
9
9
9
9
9
9
9
9
9
9
9
9
9
9
9
9
9
9
9
9
9
9
9
9
9
9
9
9
9
9
9
9
9
9
9
9
9
9
9
9
9
9
9
9
9
9
9
9
9
9
9
9
9
9
9
9
9
9
9
9
9
9
9
9
9
9
9
9
9
9
9
9
9
9
9
9
9
9
9
9
9
9
9
9
9
9
9
9
9
9
9
9
9
9
9
9
9
9
9
9
9
9
9
9
9
9
9
9
9
9
9
9
9
9
9
9
9
9
9
9
9
9
9
9
9
9
9
9
9
9
9
9
9
9
9
9
9
9
9
9
9
9
9
9
9
9
9
9
9
9
9
9
9
9
9
9
9
9
9
9
9
9
9
9
9
9
9
9
9
9
9
9
9
9
9
9
9
9
9
9
9
9
9
9
9
9
9
9
9
9
9
9
9
9
9
9
9
9
9
9
9
9
9
9
9
9
9
9
9
9
9
9
9
9
9
9
9
9
9
9
9
9
9
9
9
9
9
9
9
9
9
9
9
9
9
9
9
9
9
9
9
9
9
9
9
9
9
9
9
9
9
9
9
9
9
9
9
9
9
9
9
9
9
9
9
9
9
9
9
9
9
9
9
9
9
9
9
9
9
9
9
9
9
9
9
9
9
9
9
9
9
9
9
9
9
9
9
9
9
9
9
9
9
9
9
9
9
9
9
9
9
9
9
9
9
9
9
9
9
9
9
9
9
9
9
9
9
9
9
9
9
9
9
9
9
9
9
9
9
9
9
9
9
9
9
9
9
9
9
9
9
9
9
9
9
9
9
9
9
9
9
9
9
9
9
9
9
9
9
9
9
9
9
9
9
9
9
9
9
9
9
9
9
9
9
9
9
9
9
9
9
9
9
9
9
9
9
9
9
9
9
9
9
9
9
9
9
9
9
9
9
9
9
9
9
9
9
9
9
9
9
9
9
9
9
9
9
9
9
9
9
9
9
9
9
9
9
9
9
9
9
9
9
9
9
9
9
9
9
9
9
9
9
9
9
9
9
9
9
9
9
9
9
9
9
9
9
9
9
9
9
9
9
9
9
9
9
9
9
9
9
9
9
9
9
9
9
9
9
9
9
9
9
9
9
9
9
9
9
9
9
9
9
9
9
9
9
9
9
9
9
9
9
9
9
9
9
9
9
9
9
9
9
9
9
9
9
9
9
9
9
9
9
9
9
9
9
9
9
9
9
9
9
9
9
9
9
9
9
9
9
9
9
9
9
9
9
9
9
9
9
9
9
9
9
9
9
9
9
9
9
9
9
9
9
9
9
9
9
9
9
9
9
9
9
9
9
9
9
9
9
9
9
9
9
9
9
9
9
9
9
9
9
9
9
9
9
9
9
9
9
9
9
9
9
9
9
9
9
9
9
9
9
9
9
9
9
9
9
9
9
9
9
9
9
9
9
9
9
9
9
9
9
9
9
9
9
9
9
9
9
9
9
9
9
9
9
9
9
9
9
9
9
9
9
9
9
9
9
9
9
9
9
9
9
9
9
9
9
9
9
9
9
9
9
9
9
9
9
9
9
9
9
9
9
9
9
9
9
9
9
9
9
9
9
9
9
9
9
9
9
9
9
9
9
9
9
9
9
9
9
9
9
9
9
9
9
9
9
9
9
9
9
9
9
9
9
9
9
9
9
9
9
9
9
9
9
9
9
9
9
9
9
9
9
9
9
9
9
9
9
9
9
9
9
9
9
9
9
9
9
9
9
9
9
9
9
9
9
9
9
9
9
9
9
9
9
9
9
9
9
9
9
9
9
9
9
9
9
9
9
9
9
9
9
9
9
9
9
9
9
9
9
9
9
9
9
9
9
9
9
9
9
9
9
9
9
9
9
9
9
9
9
9
9
9
9
9
9
9
9
9
9
9
9
9
9
9
9
9
9
9
9
9
9
9
9
9
9
9
9
9
9
9
9
9
9
9
9
9
9
9
9
9
9
9
9
9
9
9
9
9
9
9
9
9
9
9
9
9
9
9
9
9
9
9
9
9
9
9
9
9
9
9
9
9
9
9
9
9
9
9
9
9
9
9
9
9
9
9
9
9
9
9
9
9
9
9
9
9
9
9
9
9
9
9
9
9
9
9
9
9
9
9
9
9
9
9
9
9
9
9
9
9
9
9
9
9
9
9
9
9
9
9
9
9
9
9
9
9
9
9
9
9
9
9
9
9
9
9
9
9
9
9
9
9
9
9
9
9
9
9
9
9
9
9
9
9
9
9
9
9
9
9
9
9
9
9
9
9
9
9
9
9
9
9
9
9
9
9
9
9
9
9
9
9
9
9
9
9
9
9
9
9
9
9
9
9
9
9
9
9
9
9
9
9
9
9
9
9
9
9
9
9
9
9
9
9
9
9
9
9
9
9
9
9
9
9
9
9
9
9
9
9
9
9
9
9
9
9
9
9
9
9
9
9
9
9
9
9
9
9
9
9
9
9
9
9
9
9
9
9
9
9
9
9
9
9
9
9
9
9
9
9
9
9
9
9
9
9
9
9
9
9
9
9
9
9
9
9
9
9
9
9
9
9
9
9
9
9
9
9
9
9
9
9
9
9
9
9
9
9
9
9
9
9
9
9
9
9
9
9
9
9
9
9
9
9
9
9
9
9
9
9
9
9
9
9
9
9
9
9
9
9
9
9
9
9
9
9
9
9
9
9
9
9
9
9
9
9
9
9
9
9
9
9
9
9
9
9
9
9
9
9
9
9
9
9
9
9
9
9
9
9
9
9
9
9
9
9
9
9
9
9
9
9
9
9
9
9
9
9
9
9
9
9
9
9
9
9
9
9
9
9
9
9
9
9
9
9
9
9
9
9
9
9
9
9
9
9
9
9
9
9
9
9
9
9
9
9
9
9
9
9
9
9
9
9
9
9
9
9
9
9
9
9
9
9
9
9
9
9
9
9
9
9
9
9
9
9
9
9
9
9
9
9
9
9
9
9
9
9
9
9
9
9
9
9
9
9
9
9
9
9
9
9
9
9
9
9
9
9
9
9
9
9
9
9
9
9
9
9
9
9
9
9
9
9
9
9
9
9
9
9
9
9
9
9
9
9
9
9
9
9
9
9
9
9
9
9
9
9
9
9
9
9
9
9
9
9
9
9
9
9
9
9
9
9
9
9
9
9
9
9
9
9
9
9
9
9
9
9
9
9
9
9
9
9
9
9
9
9
9
9
9
9
9
9
9
9
9
9
9
9
9
9
9
9
9
9
9
9
9
9
9
9
9
9
9
9
9
9
9
9
9
9
9
9
9
9
9
9
9
9
9
9
9
9
9
9
9
9
9
9
9
9
9
9
9
9
9
9
9
9
9
9
9
9
9
9
9
9
9
9
9
9
9
9
9
9
9
9
9
9
9
9
9
9
9
9
9
9
9
9
9
9
9
9
9
9
9
9
9
9
9
9
9
9
9
9
9
9
9
9
9
9
9
9
9
9
9
9
9
9
9
9
9
9
9
9
9
9
9
9
9
9
9
9
9
9
9
9
9
9
9
9
9
9
9
9
9
9
9
9
9
9
9
9
9
9
9
9
9
9
9
9
9
9
9
9
9
9
9
9
9
9
9
9
9
9
9
9
9
9
9
9
9
9
9
9
9
9
9
9
9
9
9
9
9
9
9
9
9
9
9
9
9
9
9
9
9
9
9
9
9
9
9
9
9
9
9
9
9
9
9
9
9
9
9
9
9
9
9
9
9
9
9
9
9
9
9
9
9
9
9
9
9
9
9
9
9
9
9
9
9
9
9
9
9
9
9
9
9
9
9
9
9
9
9
9
9
9
9
9
9
9
9
9
9
9
9
9
9
9
9
9
9
9
9
9
9
9
9
9
9
9
9
9
9
9
9
9
9
9
9
9
9
9
9
9
9
9
9
9
9
9
9
9
9
9
9
9
9
9
9
9
9
9
9
9
9
9
9
9
9
9
9
9
9
9
9
9
9
9
9
9
9
9
9
9
9
9
9
9
9
9
9
9
9
9
9
9
9
9
9
9
9
9
9
9
9
9
9
9
9
9
9
9
9
9
9
9
9
9
9
9
9
9
9
9
9
9
9
9
9
9
9
9
9
9
9
9
9
9
9
9
9
9
9
9
9
9
9
9
9
9
9
9
9
9
9
9
9
9
9
9
9
9
9
9
9
9
9
9
9
9
9
9
9
9
9
9
9
9
9
9
9
9
9
9
9
9
9
9
9
9
9
9
9
9
9
9
9
9
9
9
9
9
9
9
9
9
9
9
9
9
9
9
9
9
9
9
9
9
9
9
9
9
9
9
9
9
9
9
9
9
9
9
9
9
9
9
9
9
9
9
9
9
9
9
9
9
9
9
9
9
9
9
9
9
9
9
9
9
9
9
9
9
9
9
9
9
9
9
9
9
9
9
9
9
9
9
9
9
9
9
9
9
9
9
9
9
9
9
9
9
9
9
9
9
9
9
9
9
9
9
9
9
9
9
9
9
9
9
9
9
9
9
9
9
9
9
9
9
9
9
9
9
9
9
9
9
9
9
9
9
9
9
9
9
9
9
9
9
9
9
9
9
9
9
9
9
9
9
9
9
9
9
9
9
9
9
9
9
9
9
9
9
9
9
9
9
9
9
9
9
9
9
9
9
9
9
9
9
9
9
9
9
9
9
9
9
9
9
9
9
9
9
9
9
9
9
9
9
9
9
9
9
9
9
9
9
9
9
9
9
9
9
9
9
9
9
9
9
9
9
9
9
9
9
9
9
9
9
9
9
9
9
9
9
9
9
9
9
9
9
9
9
9
9
9
9
9
9
9
9
9
9
9
9
9
9
9
9
9
9
9
9
9
9
9
9
9
9
9
9
9
9
9
9
9
9
9
9
9
9
9
9
9
9
9
9
9
9
9
9
9
9
9
9
9
9
9
9
9
9
9
9
9
9
9
9
9
9
9
9
9
9
9
9
9
9
9
9
9
9
9
9
9
9
9
9
9
9
9
9
9
9
9
9
9
9
9
9
9
9
9
9
9
9
9
9
9
9
9
9
9
9
9
9
9
9
9
9
9
9
9
9
9
9
9
9
9
9
9
9
9
9
9
9
9
9
9
9
9
9
9
9
9
9
9
9
9
9
9
9
9
9
9
9
9
9
9
9
9
9
9
9
9
9
9
9
9
9
9
9
9
9
9
9
9
9
9
9
9
9
9
9
9
9
9
9
9
9
9
9
9
9
9
9
9
9
9
9
9
9
9
9
9
9
9
9
9
9
9
9
9
9
9
9
9
9
9
9
9
9
9
9
9
9
9
9
9
9
9
9
9
9
9
9
9
9
9
9
9
9
9
9
9
9
9
9
9
9
9
9
9
9
9
9
9
9
9
9
9
9
9
9
9
9
9
9
9
9
9
9
9
9
9
9
9
9
9
9
9
9
9
9
9
9
9
9
9
9
9
9
9
9
9
9
9
9
9
9
9
9
9
9
9
9
9
9
9
9
9
9
9
9
9
9
9
9
9
9
9
9
9
9
9
9
9
9
9
9
9
9
9
9
9
9
9
9
9
9
9
9
9
9
9
9
9
9
9
9
9
9
9
9
9
9
9
9
9
9
9
9
9
9
9
9
9
9
9
9
9
9
9
9
9
9
9
9
9
9
9
9
9
9
9
9
9
9
9
9
9
9
9
9
9
9
9
9
9
9
9
9
9
9
9
9
9
9
9
9
9
9
9
9
9
9
9
9
9
9
9
9
9
9
9
9
9
9
9
9
9
9
9
9
9
9
9
9
9
9
9
9
9
9
9
9
9
9
9
9
9
9
9
9
9
9
9
9
9
9
9
9
9
9
9
9
9
9
9
9
9
9
9
9
9
9
9
9
9
9
9
9
9
9
9
9
9
9
9
9
9
9
9
9
9
9
9
9
9
9
9
9
9
9
9
9
9
9
9
9
9
9
9
9
9
9
9
9
9
9
9
9
9
9
9
9
9
9
9
9
9
9
9
9
9
9
9
9
9
9
9
9
9
9
9
9
9
9
9
9
9
9
9
9
9
9
9
9
9
9
9
9
9
9
9
9
9
9
9
9
9
9
9
9
9
9
9
9
9
9
9
9
9
9
9
9
9
9
9
9
9
9
9
9
9
9
9
9
9
9
9
9
9
9
9
9
9
9
9
9
9
9
9
9
9
9
9
9
9
9
9
9
9
9
9
9
9
9
9
9
9
9
9
9
9
9
9
9
9
9
9
9
9
9
9
9
9
9
9
9
9
9
9
9
9
9
9
9
9
9
9
9
9
9
9
9
9
9
9
9
9
9
9
9
9
9
9
9
9
9
9
9
9
9
9
9
9
9
9
9
9
9
9
9
9
9
9
9
9
9
9
9
9
9
9
9
9
9
9
9
9
9
9
9
9
9
9
9
9
9
9
9
9
9
9
9
9
9
9
9
9
9
9
9
9
9
9
9
9
9
9
9
9
9
9
9
9
9
9
9
9
9
9
9
9
9
9
9
9
9
9
9
9
9
9
9
9
9
9
9
9
9
9
9
9
9
9
9
9
9
9
9
9
9
9
9
9
9
9
9
9
9
9
9
9
9
9
9
9
9
9
9
9
9
9
9
9
9
9
9
9
9
9
9
9
9
9
9
9
9
9
9
9
9
9
9
9
9
9
9
9
9
9
9
9
9
9
9
9
9
9
9
9
9
9
9
9
9
9
9
9
9
9
9
9
9
9
9
9
9
9
9
9
9
9
9
9
9
9
9
9
9
9
9
9
9
9
9
9
9
9
9
9
9
9
9
9
9
9
9
9
9
9
9
9
9
9
9
9
9
9
9
9
9
9
9
9
9
9
9
9
9
9
9
9
9
9
9
9
9
9
9
9
9
9
9
9
9
9
9
9
9
9
9
9
9
9
9
9
9
9
9
9
9
9
9
9
9
9
9
9
9
9
9
9
9
9
9
9
9
9
9
9
9
9
9
9
9
9
9
9
9
9
9
9
9
9
9
9
9
9
9
9
9
9
9
9
9
9
9
9
9
9
9
9
9
9
9
9
9
9
9
9
9
9
9
9
9
9
9
9
9
9
9
9
9
9
9
9
9
9
9
9
9
9
9
9
9
9
9
9
9
9
9
9
9
9
9
9
9
9
9
9
9
9
9
9
9
9
9
9
9
9
9
9
9
9
9
9
9
9
9
9
9
9
9
9
9
9
9
9
9
9
9
9
9
9
9
9
9
9
9
9
9
9
9
9
9
9
9
9
9
9
9
9
9
9
9
9
9
9
9
9
9
9
9
9
9
9
9
9
9
9
9
9
9
9
9
9
9
9
9
9
9
9
9
9
9
9
9
9
9
9
9
9
9
9
9
9
9
9
9
9
9
9
9
9
9
9
9
9
9
9
9
9
9
9
9
9
9
9
9
9
9
9
9
9
9
9
9
9
9
9
9
9
9
9
9
9
9
9
9
9
9
9
9
9
9
9
9
9
9
9
9
9
9
9
9
9
9
9
9
9
9
9
9
9
9
9
9
9
9
9
9
9
9
9
9
9
9
9
9
9
9
9
9
9
9
9
9
9
9
9
9
9
9
9
9
9
9
9
9
9
9
9
9
9
9
9
9
9
9
9
9
9
9
9
9
9
9
9
9
9
9
9
9
9
9
9
9
9
9
9
9
9
9
9
9
9
9
9
9
9
9
9
9
9
9
9
9
9
9
9
9
9
9
9
9
9
9
9
9
9
9
9
9
9
9
9
9
9
9
9
9
9
9
9
9
9
9
9
9
9
9
9
9
9
9
9
9
9
9
9
9
9
9
9
9
9
9
9
9
9
9
9
9
9
9
9
9
9
9
9
9
9
9
9
9
9
9
9
9
9
9
9
9
9
9
9
9
9
9
9
9
9
9
9
9
9
9
9
9
9
9
9
9
9
9
9
9
9
9
9
9
9
9
9
9
9
9
9
9
9
9
9
9
9
9
9
9
9
9
9
9
9
9
9
9
9
9
9
9
9
9
9
9
9
9
9
9
9
9
9
9
9
9
9
9
9
9
9
9
9
9
9
9
9
9
9
9
9
9
9
9
9
9
9
9
9
9
9
9
9
9
9
9
9
9
9
9
9
9
9
9
9
9
9
9
9
9
9
9
9
9
9
9
9
9
9
9
9
9
9
9
9
9
9
9
9
9
9
9
9
9
9
9
9
9
9
9
9
9
9
9
9
9
9
9
9
9
9
9
9
9
9
9
9
9
9
9
9
9
9
9
9
9
9
9
9
9
9
9
9
9
9
9
9
9
9
9
9
9
9
9
9
9
9
9
9
9
9
9
9
9
9
9
9
9
9
9
9
9
9
9
9
9
9
9
9
9
9
9
9
9
9
9
9
9
9
9
9
9
9
9
9
9
9
9
9
9
9
9
9
9
9
9
9
9
9
9
9
9
9
9
9
9
9
9
9
9
9
9
9
9
9
9
9
9
9
9
9
9
9
9
9
9
9
9
9
9
9
9
9
9
9
9
9
9
9
9
9
9
9
9
9
9
9
9
9
9
9
9
9
9
9
9
9
9
9
9
9
9
9
9
9
9
9
9
9
9
9
9
9
9
9
9
9
9
9
9
9
9
9
9
9
9
9
9
9
9
9
9
9
9
9
9
9
9
9
9
9
9
9
9
9
9
9
9
9
9
9
9
9
9
9
9
9
9
9
9
9
9
9
9
9
9
9
9
9
9
9
9
9
9
9
9
9
9
9
9
9
9
9
9
9
9
9
9
9
9
9
9
9
9
9
9
9
9
9
9
9
9
9
9
9
9
9
9
9
9
9
9
9
9
9
9
9
9
9
9
9
9
9
9
9
9
9
9
9
9
9
9
9
9
9
9
9
9
9
9
9
9
9
9
9
9
9
9
9
9
9
9
9
9
9
9
9
9
9
9
9
9
9
9
9
9
9
9
9
9
9
9
9
9
9
9
9
9
9
9
9
9
9
9
9
9
9
9
9
9
9
9
9
9
9
9
9
9
9
9
9
9
9
9
9
9
9
9
9
9
9
9
9
9
9
9
9
9
9
9
9
9
9
9
9
9
9
9
9
9
9
9
9
9
9
9
9
9
9
9
9
9
9
9
9
9
9
9
9
9
9
9
9
9
9
9
9
9
9
9
9
9
9
9
9
9
9
9
9
9
9
9
9
9
9
9
9
9
9
9
9
9
9
9
9
9
9
9
9
9
9
9
9
9
9
9
9
9
9
9
9
9
9
9
9
9
9
9
9
9
9
9
9
9
9
9
9
9
9
9
9
9
9
9
9
9
9
9
9
9
9
9
9
9
9
9
9
9
9
9
9
9
9
9
9
9
9
9
9
9
9
9
9
9
9
9
9
9
9
9
9
9
9
9
9
9
9
9
9
9
9
9
9
9
9
9
9
9
9
9
9
9
9
9
9
9
9
9
9
9
9
9
9
9
9
9
9
9
9
9
9
9
9
9
9
9
9
9
9
9
9
9
9
9
9
9
9
9
9
9
9
9
9
9
9
9
9
9
9
9
9
9
9
9
9
9
9
9
9
9
9
9
9
9
9
9
9
9
9
9
9
9
9
9
9
9
9
9
9
9
9
9
9
9
9
9
9
9
9
9
9
9
9
9
9
9
9
9
9
9
9
9
9
9
9
9
9
9
9
9
9
9
9
9
9
9
9
9
9
9
9
9
9
9
9
9
9
9
9
9
9
9
9
9
9
9
9
9
9
9
9
9
9
9
9
9
9
9
9
9
9
9
9
9
9
9
9
9
9
9
9
9
9
9
9
9
9
9
9
9
9
9
9
9
9
9
9
9
9
9
9
9
9
9
9
9
9
9
9
9
9
9
9
9
9
9
9
9
9
9
9
9
9
9
9
9
9
9
9
9
9
9
9
9
9
9
9
9
9
9
9
9
9
9
9
9
9
9
9
9
9
9
9
9
9
9
9
9
9
9
9
9
9
9
9
9
9
9
9
9
9
9
9
9
9
9
9
9
9
9
9
9
9
9
9
9
9
9
9
9
9
9
9
9
9
9
9
9
9
9
9
9
9
9
9
9
9
9
9
9
9
9
9
9
9
9
9
9
9
9
9
9
9
9
9
9
9
9
9
9
9
9
9
9
9
9
9
9
9
9
9
9
9
9
9
9
9
9
9
9
9
9
9
9
9
9
9
9
9
9
9
9
9
9
9
9
9
9
9
9
9
9
9
9
9
9
9
9
9
9
9
9
9
9
9
9
9
9
9
9
9
9
9
9
9
9
9
9
9
9
9
9
9
9
9
9
9
9
9
9
9
9
9
9
9
9
9
9
9
9
9
9
9
9
9
9
9
9
9
9
9
9
9
9
9
9
9
9
9
9
9
9
9
9
9
9
9
9
9
9
9
9
9
9
9
9
9
9
9
9
9
9
9
9
9
9
9
9
9
9
9
9
9
9
9
9
9
9
9
9
9
9
9
9
9
9
9
9
9
9
9
9
9
9
9
9
9
9
9
9
9
9
9
9
9
9
9
9
9
9
9
9
9
9
9
9
9
9
9
9
9
9
9
9
9
9
9
9
9
9
9
9
9
9
9
9
9
9
9
9
9
9
9
9
9
9
9
9
9
9
9
9
9
9
9
9
9
9
9
9
9
9
9
9
9
9
9
9
9
9
9
9
9
9
9
9
9
9
9
9
9
9
9
9
9
9
9
9
9
9
9
9
9
9
9
9
9
9
9
9
9
9
9
9
9
9
9
9
9
9
9
9
9
9
9
9
9
9
9
9
9
9
9
9
9
9
9
9
9
9
9
9
9
9
9
9
9
9
9
9
9
9
9
9
9
9
9
9
9
9
9
9
9
9
9
9
9
9
9
9
9
9
9
9
9
9
9
9
9
9
9
9
9
9
9
9
9
9
9
9
9
9
9
9
9
9
9
9
9
9
9
9
9
9
9
9
9
9
9
9
9
9
9
9
9
9
9
9
9
9
9
9
9
9
9
9
9
9
9
9
9
9
9
9
9
9
9
9
9
9
9
9
9
9
9
9
9
9
9
9
9
9
9
9
9
9
9
9
9
9
9
9
9
9
9
9
9
9
9
9
9
9
9
9
9
9
9
9
9
9
9
9
9
9
9
9
9
9
9
9
9
9
9
9
9
9
9
9
9
9
9
9
9
9
9
9
9
9
9
9
9
9
9
9
9
9
9
9
9
9
9
9
9
9
9
9
9
9
9
9
9
9
9
9
9
9
9
9
9
9
9
9
9
9
9
9
9
9
9
9
9
9
9
9
9
9
9
9
9
9
9
9
9
9
9
9
9
9
9
9
9
9
9
9
9
9
9
9
9
9
9
9
9
9
9
9
9
9
9
9
9
9
9
9
9
9
9
9
9
9
9
9
9
9
9
9
9
9
9
9
9
9
9
9
9
9
9
9
9
9
9
9
9
9
9
9
9
9
9
9
9
9
9
9
9
9
9
9
9
9
9
9
9
9
9
9
9
9
9
9
9
9
9
9
9
9
9
9
9
9
9
9
9
9
9
9
9
9
9
9
9
9
9
9
9
9
9
9
9
9
9
9
9
9
9
9
9
9
9
9
9
9
9
9
9
9
9
9
9
9
9
9
9
9
9
9
9
9
9
9
9
9
9
9
9
9
9
9
9
9
9
9
9
9
9
9
9
9
9
9
9
9
9
9
9
9
9
9
9
9
9
9
9
9
9
9
9
9
9
9
9
9
9
9
9
9
9
9
9
9
9
9
9
9
9
9
9
9
9
9
9
9
9
9
9
9
9
9
9
9
9
9
9
9
9
9
9
9
9
9
9
9
9
9
9
9
9
9
9
9
9
9
9
9
9
9
9
9
9
9
9
9
9
9
9
9
9
9
9
9
9
9
9
9
9
9
9
9
9
9
9
9
9
9
9
9
9
9
9
9
9
9
9
9
9
9
9
9
9
9
9
9
9
9
9
9
9
9
9
9
9
9
9
9
9
9
9
9
9
9
9
9
9
9
9
9
9
9
9
9
9
9
9
9
9
9
9
9
9
9
9
9
9
9
9
9
9
9
9
9
9
9
9
9
9
9
9
9
9
9
9
9
9
9
9
9
9
9
9
9
9
9
9
9
9
9
9
9
9
9
9
9
9
9
9
9
9
9
9
9
9
9
9
9
9
9
9
9
9
9
9
9
9
9
9
9
9
9
9
9
9
9
9
9
9
9
9
9
9
9
9
9
9
9
9
9
9
9
9
9
9
9
9
9
9
9
9
9
9
9
9
9
9
9
9
9
9
9
9
9
9
9
9
9
9
9
9
9
9
9
9
9
9
9
9
9
9
9
9
9
9
9
9
9
9
9
9
9
9
9
9
9
9
9
9
9
9
9
9
9
9
9
9
9
9
9
9
9
9
9
9
9
9
9
9
9
9
9
9
9
9
9
9
9
9
9
9
9
9
9
9
9
9
9
9
9
9
9
9
9
9
9
9
9
9
9
9
9
9
9
9
9
9
9
9
9
9
9
9
9
9
9
9
9
9
9
9
9
9
9
9
9
9
9
9
9
9
9
9
9
9
9
9
9
9
9
9
9
9
9
9
9
9
9
9
9
9
9
9
9
9
9
9
9
9
9
9
9
9
9
9
9
9
9
9
9
9
9
9
9
9
9
9
9
9
9
9
9
9
9
9
9
9
9
9
9
9
9
9
9
9
9
9
9
9
9
9
9
9
9
9
9
9
9
9
9
9
9
9
9
9
9
9
9
9
9
9
9
9
9
9
9
9
9
9
9
9
9
9
9
9
9
9
9
9
9
9
9
9
9
9
9
9
9
9
9
9
9
9
9
9
9
9
9
9
9
9
9
9
9
9
9
9
9
9
9
9
9
9
9
9
9
9
9
9
9
9
9
9
9
9
9
9
9
9
9
9
9
9
9
9
9
9
9
9
9
9
9
9
9
9
9
9
9
9
9
9
9
9
9
9
9
9
9
9
9
9
9
9
9
9
9
9
9
9
9
9
9
9
9
9
9
9
9
9
9
9
9
9
9
9
9
9
9
9
9
9
9
9
9
9
9
9
9
9
9
9
9
9
9
9
9
9
9
9
9
9
9
9
9
9
9
9
9
9
9
9
9
9
9
9
9
9
9
9
9
9
9
9
9
9
9
9
9
9
9
9
9
9
9
9
9
9
9
9
9
9
9
9
9
9
9
9
9
9
9
9
9
9
9
9
9
9
9
9
9
9
9
9
9
9
9
9
9
9
9
9
9
9
9
9
9
9
9
9
9
9
9
9
9
9
9
9
9
9
9
9
9
9
9
9
9
9
9
9
9
9
9
9
9
9
9
9
9
9
9
9
9
9
9
9
9
9
9
9
9
9
9
9
9
9
9
9
9
9
9
9
9
9
9
9
9
9
9
9
9
9
9
9
9
9
9
9
9
9
9
9
9
9
9
9
9
9
9
9
9
9
9
9
9
9
9
9
9
9
9
9
9
9
9
9
9
9
9
9
9
9
9
9
9
9
9
9
9
9
9
9
9
9
9
9
9
9
9
9
9
9
9
9
9
9
9
9
9
9
9
9
9
9
9
9
9
9
9
9
9
9
9
9
9
9
9
9
9
9
9
9
9
9
9
9
9
9
9
9
9
9
9
9
9
9
9
9
9
9
9
9
9
9
9
9
9
9
9
9
9
9
9
9
9
9
9
9
9
9
9
9
9
9
9
9
9
9
9
9
9
9
9
9
9
9
9
9
9
9
9
9
9
9
9
9
9
9
9
9
9
9
9
9
9
9
9
9
9
9
9
9
9
9
9
9
9
9
9
9
9
9
9
9
9
9
9
9
9
9
9
9
9
9
9
9
9
9
9
9
9
9
9
9
9
9
9
9
9
9
9
9
9
9
9
9
9
9
9
9
9
9
9
9
9
9
9
9
9
9
9
9
9
9
9
9
9
9
9
9
9
9
9
9
9
9
9
9
9
9
9
9
9
9
9
9
9
9
9
9
9
9
9
9
9
9
9
9
9
9
9
9
9
9
9
9
9
9
9
9
9
9
9
9
9
9
9
9
9
9
9
9
9
9
9
9
9
9
9
9
9
9
9
9
9
9
9
9
9
9
9
9
9
9
9
9
9
9
9
9
9
9
9
9
9
9
9
9
9
9
9
9
9
9
9
9
9
9
9
9
9
9
9
9
9
9
9
9
9
9
9
9
9
9
9
9
9
9
9
9
9
9
9
9
9
9
9
9
9
9
9
9
9
9
9
9
9
9
9
9
9
9
9
9
9
9
9
9
9
9
9
9
9
9
9
9
9
9
9
9
9
9
9
9
9
9
9
9
9
9
9
9
9
9
9
9
9
9
9
9
9
9
9
9
9
9
9
9
9
9
9
9
9
9
9
9
9
9
9
9
9
9
9
9
9
9
9
9
9
9
9
9
9
9
9
9
9
9
9
9
9
9
9
9
9
9
9
9
9
9
9
9
9
9
9
9
9
9
9
9
9
9
9
9
9
9
9
9
9
9
9
9
9
9
9
9
9
9
9
9
9
9
9
9
9
9
9
9
9
9
9
9
9
9
9
9
9
9
9
9
9
9
9
9
9
9
9
9
9
9
9
9
9
9
9
9
9
9
9
9
9
9
9
9
9
9
9
9
9
9
9
9
9
9
9
9
9
9
9
9
9
9
9
9
9
9
9
9
9
9
9
9
9
9
9
9
9
9
9
9
9
9
9
9
9
9
9
9
9
9
9
9
9
9
9
9
9
9
9
9
9
9
9
9
9
9
9
9
9
9
9
9
9
9
9
9
9
9
9
9
9
9
9
9
9
9
9
9
9
9
9
9
9
9
9
9
9
9
9
9
9
9
9
9
9
9
9
9
9
9
9
9
9
9
9
9
9
9
9
9
9
9
9
9
9
9
9
9
9
9
9
9
9
9
9
9
9
9
9
9
9
9
9
9
9
9
9
9
9
9
9
9
9
9
9
9
9
9
9
9
9
9
9
9
9
9
9
9
9
9
9
9
9
9
9
9
9
9
9
9
9
9
9
9
9
9
9
9
9
9
9
9
9
9
9
9
9
9
9
9
9
9
9
9
9
9
9
9
9
9
9
9
9
9
9
9
9
9
9
9
9
9
9
9
9
9
9
9
9
9
9
9
9
9
9
9
9
9
9
9
9
9
9
9
9
9
9
9
9
9
9
9
9
9
9
9
9
9
9
9
9
9
9
9
9
9
9
9
9
9
9
9
9
9
9
9
9
9
9
9
9
9
9
9
9
9
9
9
9
9
9
9
9
9
9
9
9
9
9
9
9
9
9
9
9
9
9
9
9
9
9
9
9
9
9
9
9
9
9
9
9
9
9
9
9
9
9
9
9
9
9
9
9
9
9
9
9
9
9
9
9
9
9
9
9
9
9
9
9
9
9
9
9
9
9
9
9
9
9
9
9
9
9
9
9
9
9
9
9
9
9
9
9
9
9
9
9
9
9
9
9
9
9
9
9
9
9
9
9
9
9
9
9
9
9
9
9
9
9
9
9
9
9
9
9
9
9
9
9
9
9
9
9
9
9
9
9
9
9
9
9
9
9
9
9
9
9
9
9
9
9
9
9
9
9
9
9
9
9
9
9
9
9
9
9
9
9
9
9
9
9
9
9
9
9
9
9
9
9
9
9
9
9
9
9
9
9
9
9
9
9
9
9
9
9
9
9
9
9
9
9
9
9
9
9
9
9
9
9
9
9
9
9
9
9
9
9
9
9
9
9
9
9
9
9
9
9
9
9
9
9
9
9
9
9
9
9
9
9
9
9
9
9
9
9
9
9
9
9
9
9
9
9
9
9
9
9
9
9
9
9
9
9
9
9
9
9
9
9
9
9
9
9
9
9
9
9
9
9
9
9
9
9
9
9
9
9
9
9
9
9
9
9
9
9
9
9
9
9
9
9
9
9
9
9
9
9
9
9
9
9
9
9
9
9
9
9
9
9
9
9
9
9
9
9
9
9
9
9
9
9
9
9
9
9
9
9
9
9
9
9
9
9
9
9
9
9
9
9
9
9
9
9
9
9
9
9
9
9
9
9
9
9
9
9
9
9
9
9
9
9
9
9
9
9
9
9
9
9
9
9
9
9
9
9
9
9
9
9
9
9
9
9
9
9
9
9
9
9
9
9
9
9
9
9
9
9
9
9
9
9
9
9
9
9
9
9
9
9
9
9
9
9
9
9
9
9
9
9
9
9
9
9
9
9
9
9
9
9
9
9
9
9
9
9
9
9
9
9
9
9
9
9
9
9
9
9
9
9
9
9
9
9
9
9
9
9
9
9
9
9
9
9
9
9
9
9
9
9
9
9
9
9
9
9
9
9
9
9
9
9
9
9
9
9
9
9
9
9
9
9
9
9
9
9
9
9
9
9
9
9
9
9
9
9
9
9
9
9
9
9
9
9
9
9
9
9
9
9
9
9
9
9
9
9
9
9
9
9
9
9
9
9
9
9
9
9
9
9
9
9
9
9
9
9
9
9
9
9
9
9
9
9
9
9
9
9
9
9
9
9
9
9
9
9
9
9
9
9
9
9
9
9
9
9
9
9
9
9
9
9
9
9
9
9
9
9
9
9
9
9
9
9
9
9
9
9
9
9
9
9
9
9
9
9
9
9
9
9
9
9
9
9
9
9
9
9
9
9
9
9
9
9
9
9
9
9
9
9
9
9
9
9
9
9
9
9
9
9
9
9
9
9
9
9
9
9
9
9
9
9
9
9
9
9
9
9
9
9
9
9
9
9
9
9
9
9
9
9
9
9
9
9
9
9
9
9
9
9
9
9
9
9
9
9
9
9
9
9
9
9
9
9
9
9
9
9
9
9
9
9
9
9
9
9
9
9
9
9
9
9
9
9
9
9
9
9
9
9
9
9
9
9
9
9
9
9
9
9
9
9
9
9
9
9
9
9
9
9
9
9
9
9
9
9
9
9
9
9
9
9
9
9
9
9
9
9
9
9
9
9
9
9
9
9
9
9
9
9
9
9
9
9
9
9
9
9
9
9
9
9
9
9
9
9
9
9
9
9
9
9
9
9
9
9
9
9
9
9
9
9
9
9
9
9
9
9
9
9
9
9
9
9
9
9
9
9
9
9
9
9
9
9
9
9
9
9
9
9
9
9
9
9
9
9
9
9
9
9
9
9
9
9
9
9
9
9
9
9
9
9
9
9
9
9
9
9
9
9
9
9
9
9
9
9
9
9
9
9
9
9
9
9
9
9
9
9
9
9
9
9
9
9
9
9
9
9
9
9
9
9
9
9
9
9
9
9
9
9
9
9
9
9
9
9
9
9
9
9
9
9
9
9
9
9
9
9
9
9
9
9
9
9
9
9
9
9
9
9
9
9
9
9
9
9
9
9
9
9
9
9
9
9
9
9
9
9
9
9
9
9
9
9
9
9
9
9
9
9
9
9
9
9
9
9
9
9
9
9
9
9
9
9
9
9
9
9
9
9
9
9
9
9
9
9
9
9
9
9
9
9
9
9
9
9
9
9
9
9
9
9
9
9
9
9
9
9
9
9
9
9
9
9
9
9
9
9
9
9
9
9
9
9
9
9
9
9
9
9
9
9
9
9
9
9
9
9
9
9
9
9
9
9
9
9
9
9
9
9
9
9
9
9
9
9
9
9
9
9
9
9
9
9
9
9
9
9
9
9
9
9
9
9
9
9
9
9
9
9
9
9
9
9
9
9
9
9
9
9
9
9
9
9
9
9
9
9
9
9
9
9
9
9
9
9
9
9
9
9
9
9
9
9
9
9
9
9
9
9
9
9
9
9
9
9
9
9
9
9
9
9
9
9
9
9
9
9
9
9
9
9
9
9
9
9
9
9
9
9
9
9
9
9
9
9
9
9
9
9
9
9
9
9
9
9
9
9
9
9
9
9
9
9
9
9
9
9
9
9
9
9
9
9
9
9
9
9
9
9
9
9
9
9
9
9
9
9
9
9
9
9
9
9
9
9
9
9
9
9
9
9
9
9
9
9
9
9
9
9
9
9
9
9
9
9
9
9
9
9
9
9
9
9
9
9
9
9
9
9
9
9
9
9
9
9
9
9
9
9
9
9
9
9
9
9
9
9
9
9
9
9
9
9
9
9
9
9
9
9
9
9
9
9
9
9
9
9
9
9
9
9
9
9
9
9
9
9
9
9
9
9
9
9
9
9
9
9
9
9
9
9
9
9
9
9
9
9
9
9
9
9
9
9
9
9
9
9
9
9
9
9
9
9
9
9
9
9
9
9
9
9
9
9
9
9
9
9
9
9
9
9
9
9
9
9
9
9
9
9
9
9
9
9
9
9
9
9
9
9
9
9
9
9
9
9
9
9
9
9
9
9
9
9
9
9
9
9
9
9
9
9
9
9
9
9
9
9
9
9
9
9
9
9
9
9
9
9
9
9
9
9
9
9
9
9
9
9
9
9
9
9
9
9
9
9
9
9
9
9
9
9
9
9
9
9
9
9
9
9
9
9
9
9
9
9
9
9
9
9
9
9
9
9
9
9
9
9
9
9
9
9
9
9
9
9
9
9
9
9
9
9
9
9
9
9
9
9
9
9
9
9
9
9
9
9
9
9
9
9
9
9
9
9
9
9
9
9
9
9
9
9
9
9
9
9
9
9
9
9
9
9
9
9
9
9
9
9
9
9
9
9
9
9
9
9
9
9
9
9
9
9
9
9
9
9
9
9
9
9
9
9
9
9
9
9
9
9
9
9
9
9
9
9
9
9
9
9
9
9
9
9
9
9
9
9
9
9
9
9
9
9
9
9
9
9
9
9
9
9
9
9
9
9
9
9
9
9
9
9
9
9
9
9
9
9
9
9
9
9
9
9
9
9
9
9
9
9
9
9
9
9
9
9
9
9
9
9
9
9
9
9
9
9
9
9
9
9
9
9
9
9
9
9
9
9
9
9
9
9
9
9
9
9
9
9
9
9
9
9
9
9
9
9
9
9
9
9
9
9
9
9
9
9
9
9
9
9
9
9
9
9
9
9
9
9
9
9
9
9
9
9
9
9
9
9
9
9
9
9
9
9
9
9
9
9
9
9
9
9
9
9
9
9
9
9
9
9
9
9
9
9
9
9
9
9
9
9
9
9
9
9
9
9
9
9
9
9
9
9
9
9
9
9
9
9
9
9
9
9
9
9
9
9
9
9
9
9
9
9
9
9
9
9
9
9
9
9
9
9
9
9
9
9
9
9
9
9
9
9
9
9
9
9
9
9
9
9
9
9
9
9
9
9
9
9
9
9
9
9
9
9
9
9
9
9
9
9
9
9
9
9
9
9
9
9
9
9
9
9
9
9
9
9
9
9
9
9
9
9
9
9
9
9
9
9
9
9
9
9
9
9
9
9
9
9
9
9
9
9
9
9
9
9
9
9
9
9
9
9
9
9
9
9
9
9
9
9
9
9
9
9
9
9
9
9
9
9
9
9
9
9
9
9
9
9
9
9
9
9
9
9
9
9
9
9
9
9
9
9
9
9
9
9
9
9
9
9
9
9
9
9
9
9
9
9
9
9
9
9
9
9
9
9
9
9
9
9
9
9
9
9
9
9
9
9
9
9
9
9
9
9
9
9
9
9
9
9
9
9
9
9
9
9
9
9
9
9
9
9
9
9
9
9
9
9
9
9
9
9
9
9
9
9
9
9
9
9
9
9
9
9
9
9
9
9
9
9
9
9
9
9
9
9
9
9
9
9
9
9
9
9
9
9
9
9
9
9
9
9
9
9
9
9
9
9
9
9
9
9
9
9
9
9
9
9
9
9
9
9
9
9
9
9
9
9
9
9
9
9
9
9
9
9
9
9
9
9
9
9
9
9
9
9
9
9
9
9
9
9
9
9
9
9
9
9
9
9
9
9
9
9
9
9
9
9
9
9
9
9
9
9
9
9
9
9
9
9
9
9
9
9
9
9
9
9
9
9
9
9
9
9
9
9
9
9
9
9
9
9
9
9
9
9
9
9
9
9
9
9
9
9
9
9
9
9
9
9
9
9
9
9
9
9
9
9
9
9
9
9
9
9
9
9
9
9
9
9
9
9
9
9
9
9
9
9
9
9
9
9
9
9
9
9
9
9
9
9
9
9
9
9
9
9
9
9
9
9
9
9
9
9
9
9
9
9
9
9
9
9
9
9
9
9
9
9
9
9
9
9
9
9
9
9
9
9
9
9
9
9
9
9
9
9
9
9
9
9
9
9
9
9
9
9
9
9
9
9
9
9
9
9
9
9
9
9
9
9
9
9
9
9
9
9
9
9
9
9
9
9
9
9
9
9
9
9
9
9
9
9
9
9
9
9
9
9
9
9
9
9
9
9
9
9
9
9
9
9
9
9
9
9
9
9
9
9
9
9
9
9
9
9
9
9
9
9
9
9
9
9
9
9
9
9
9
9
9
9
9
9
9
9
9
9
9
9
9
9
9
9
9
9
9
9
9
9
9
9
9
9
9
9
9
9
9
9
9
9
9
9
9
9
9
9
9
9
9
9
9
9
9
9
9
9
9
9
9
9
9
9
9
9
9
9
9
9
9
9
9
9
9
9
9
9
9
9
9
9
9
9
9
9
9
9
9
9
9
9
9
9
9
9
9
9
9
9
9
9
9
9
9
9
9
9
9
9
9
9
9
9
9
9
9
9
9
9
9
9
9
9
9
9
9
9
9
9
9
9
9
9
9
9
9
9
9
9
9
9
9
9
9
9
9
9
9
9
9
9
9
9
9
9
9
9
9
9
9
9
9
9
9
9
9
9
9
9
9
9
9
9
9
9
9
9
9
9
9
9
9
9
9
9
9
9
9
9
9
9
9
9
9
9
9
9
9
9
9
9
9
9
9
9
9
9
9
9
9
9
9
9
9
9
9
9
9
9
9
9
9
9
9
9
9
9
9
9
9
9
9
9
9
9
9
9
9
9
9
9
9
9
9
9
9
9
9
9
9
9
9
9
9
9
9
9
9
9
9
9
9
9
9
9
9
9
9
9
9
9
9
9
9
9
9
9
9
9
9
9
9
9
9
9
9
9
9
9
9
9
9
9
9
9
9
9
9
9
9
9
9
9
9
9
9
9
9
9
9
9
9
9
9
9
9
9
9
9
9
9
9
9
9
9
9
9
9
9
9
9
9
9
9
9
9
9
9
9
9
9
9
9
9
9
9
9
9
9
9
9
9
9
9
9
9
9
9
9
9
9
9
9
9
9
9
9
9
9
9
9
9
9
9
9
9
9
9
9
9
9
9
9
9
9
9
9
9
9
9
9
9
9
9
9
9
9
9
9
9
9
9
9
9
9
9
9
9
9
9
9
9
9
9
9
9
9
9
9
9
9
9
9
9
9
9
9
9
9
9
9
9
9
9
9
9
9
9
9
9
9
9
9
9
9
9
9
9
9
9
9
9
9
9
9
9
9
9
9
9
9
9
9
9
9
9
9
9
9
9
9
9
9
9
9
9
9
9
9
9
9
9
9
9
9
9
9
9
9
9
9
9
9
9
9
9
9
9
9
9
9
9
9
9
9
9
9
9
9
9
9
9
9
9
9
9
9
9
9
9
9
9
9
9
9
9
9
9
9
9
9
9
9
9
9
9
9
9
9
9
9
9
9
9
9
9
9
9
9
9
9
9
9
9
9
9
9
9
9
9
9
9
9
9
9
9
9
9
9
9
9
9
9
9
9
9
9
9
9
9
9
9
9
9
9
9
9
9
9
9
9
9
9
9
9
9
9
9
9
9
9
9
9
9
9
9
9
9
9
9
9
9
9
9
9
9
9
9
9
9
9
9
9
9
9
9
9
9
9
9
9
9
9
9
9
9
9
9
9
9
9
9
9
9
9
9
9
9
9
9
9
9
9
9
9
9
9
9
9
9
9
9
9
9
9
9
9
9
9
9
9
9
9
9
9
9
9
9
9
9
9
9
9
9
9
9
9
9
9
9
9
9
9
9
9
9
9
9
9
9
9
9
9
9
9
9
9
9
9
9
9
9
9
9
9
9
9
9
9
9
9
9
9
9
9
9
9
9
9
9
9
9
9
9
9
9
9
9
9
9
9
9
9
9
9
9
9
9
9
9
9
9
9
9
9
9
9
9
9
9
9
9
9
9
9
9
9
9
9
9
9
9
9
9
9
9
9
9
9
9
9
9
9
9
9
9
9
9
9
9
9
9
9
9
9
9
9
9
9
9
9
9
9
9
9
9
9
9
9
9
9
9
9
9
9
9
9
9
9
9
9
9
9
9
9
9
9
9
9
9
9
9
9
9
9
9
9
9
9
9
9
9
9
9
9
9
9
9
9
9
9
9
9
9
9
9
9
9
9
9
9
9
9
9
9
9
9
9
9
9
9
9
9
9
9
9
9
9
9
9
9
9
9
9
9
9
9
9
9
9
9
9
9
9
9
9
9
9
9
9
9
9
9
9
9
9
9
9
9
9
9
9
9
9
9
9
9
9
9
9
9
9
9
9
9
9
9
9
9
9
9
9
9
9
9
9
9
9
9
9
9
9
9
9
9
9
9
9
9
9
9
9
9
9
9
9
9
9
9
9
9
9
9
9
9
9
9
9
9
9
9
9
9
9
9
9
9
9
9
9
9
9
9
9
9
9
9
9
9
9
9
9
9
9
9
9
9
9
9
9
9
9
9
9
9
9
9
9
9
9
9
9
9
9
9
9
9
9
9
9
9
9
9
9
9
9
9
9
9
9
9
9
9
9
9
9
9
9
9
9
9
9
9
9
9
9
9
9
9
9
9
9
9
9
9
9
9
9
9
9
9
9
9
9
9
9
9
9
9
9
9
9
9
9
9
9
9
9
9
9
9
9
9
9
9
9
9
9
9
9
9
9
9
9
9
9
9
9
9
9
9
9
9
9
9
9
9
9
9
9
9
9
9
9
9
9
9
9
9
9
9
9
9
9
9
9
9
9
9
9
9
9
9
9
9
9
9
9
9
9
9
9
9
9
9
9
9
9
9
9
9
9
9
9
9
9
9
9
9
9
9
9
9
9
9
9
9
9
9
9
9
9
9
9
9
9
9
9
9
9
9
9
9
9
9
9
9
9
9
9
9
9
9
9
9
9
9
9
9
9
9
9
9
9
9
9
9
9
9
9
9
9
9
9
9
9
9
9
9
9
9
9
9
9
9
9
9
9
9
9
9
9
9
9
9
9
9
9
9
9
9
9
9
9
9
9
9
9
9
9
9
9
9
9
9
9
9
9
9
9
9
9
9
9
9
9
9
9
9
9
9
9
9
9
9
9
9
9
9
9
9
9
9
9
9
9
9
9
9
9
9
9
9
9
9
9
9
9
9
9
9
9
9
9
9
9
9
9
9
9
9
9
9
9
9
9
9
9
9
9
9
9
9
9
9
9
9
9
9
9
9
9
9
9
9
9
9
9
9
9
9
9
9
9
9
9
9
9
9
9
9
9
9
9
9
9
9
9
9
9
9
9
9
9
9
9
9
9
9
9
9
9
9
9
9
9
9
9
9
9
9
9
9
9
9
9
9
9
9
9
9
9
9
9
9
9
9
9
9
9
9
9
9
9
9
9
9
9
9
9
9
9
9
9
9
9
9
9
9
9
9
9
9
9
9
9
9
9
9
9
9
9
9
9
9
9
9
9
9
9
9
9
9
9
9
9
9
9
9
9
9
9
9
9
9
9
9
9
9
9
9
9
9
9
9
9
9
9
9
9
9
9
9
9
9
9
9
9
9
9
9
9
9
9
9
9
9
9
9
9
9
9
9
9
9
9
9
9
9
9
9
9
9
9
9
9
9
9
9
9
9
9
9
9
9
9
9
9
9
9
9
9
9
9
9
9
9
9
9
9
9
9
9
9
9
9
9
9
9
9
9
9
9
9
9
9
9
9
9
9
9
9
9
9
9
9
9
9
9
9
9
9
9
9
9
9
9
9
9
9
9
9
9
9
9
9
9
9
9
9
9
9
9
9
9
9
9
9
9
9
9
9
9
9
9
9
9
9
9
9
9
9
9
9
9
9
9
9
9
9
9
9
9
9
9
9
9
9
9
9
9
9
9
9
9
9
9
9
9
9
9
9
9
9
9
9
9
9
9
9
9
9
9
9
9
9
9
9
9
9
9
9
9
9
9
9
9
9
9
9
9
9
9
9
9
9
9
9
9
9
9
9
9
9
9
9
9
9
9
9
9
9
9
9
9
9
9
9
9
9
9
9
9
9
9
9
9
9
9
9
9
9
9
9
9
9
9
9
9
9
9
9
9
9
9
9
9
9
9
9
9
9
9
9
9
9
9
9
9
9
9
9
9
9
9
9
9
9
9
9
9
9
9
9
9
9
9
9
9
9
9
9
9
9
9
9
9
9
9
9
9
9
9
9
9
9
9
9
9
9
9
9
9
9
9
9
9
9
9
9
9
9
9
9
9
9
9
9
9
9
9
9
9
9
9
9
9
9
9
9
9
9
9
9
9
9
9
9
9
9
9
9
9
9
9
9
9
9
9
9
9
9
9
9
9
9
9
9
9
9
9
9
9
9
9
9
9
9
9
9
9
9
9
9
9
9
9
9
9
9
9
9
9
9
9
9
9
9
9
9
9
9
9
9
9
9
9
9
9
9
9
9
9
9
9
9
9
9
9
9
9
9
9
9
9
9
9
9
9
9
9
9
9
9
9
9
9
9
9
9
9
9
9
9
9
9
9
9
9
9
9
9
9
9
9
9
9
9
9
9
9
9
9
9
9
9
9
9
9
9
9
9
9
9
9
9
9
9
9
9
9
9
9
9
9
9
9
9
9
9
9
9
9
9
9
9
9
9
9
9
9
9
9
9
9
9
9
9
9
9
9
9
9
9
9
9
9
9
9
9
9
9
9
9
9
9
9
9
9
9
9
9
9
9
9
9
9
9
9
9
9
9
9
9
9
9
9
9
9
9
9
9
9
9
9
9
9
9
9
9
9
9
9
9
9
9
9
9
9
9
9
9
9
9
9
9
9
9
9
9
9
9
9
9
9
9
9
9
9
9
9
9
9
9
9
9
9
9
9
9
9
9
9
9
9
9
9
9
9
9
9
9
9
9
9
9
9
9
9
9
9
9
9
9
9
9
9
9
9
9
9
9
9
9
9
9
9
9
9
9
9
9
9
9
9
9
9
9
9
9
9
9
9
9
9
9
9
9
9
9
9
9
9
9
9
9
9
9
9
9
9
9
9
9
9
9
9
9
9
9
9
9
9
9
9
9
9
9
9
9
9
9
9
9
9
9
9
9
9
9
9
9
9
9
9
9
9
9
9
9
9
9
9
9
9
9
9
9
9
9
9
9
9
9
9
9
9
9
9
9
9
9
9
9
9
9
9
9
9
9
9
9
9
9
9
9
9
9
9
9
9
9
9
9
9
9
9
9
9
9
9
9
9
9
9
9
9
9
9
9
9
9
9
9
9
9
9
9
9
9
9
9
9
9
9
9
9
9
9
9
9
9
9
9
9
9
9
9
9
9
9
9
9
9
9
9
9
9
9
9
9
9
9
9
9
9
9
9
9
9
9
9
9
9
9
9
9
9
9
9
9
9
9
9
9
9
9
9
9
9
9
9
9
9
9
9
9
9
9
9
9
9
9
9
9
9
9
9
9
9
9
9
9
9
9
9
9
9
9
9
9
9
9
9
9
9
9
9
9
9
9
9
9
9
9
9
9
9
9
9
9
9
9
9
9
9
9
9
9
9
9
9
9
9
9
9
9
9
9
9
9
9
9
9
9
9
9
9
9
9
9
9
9
9
9
9
9
9
9
9
9
9
9
9
9
9
9
9
9
9
9
9
9
9
9
9
9
9
9
9
9
9
9
9
9
9
9
9
9
9
9
9
9
9
9
9
9
9
9
9
9
9
9
9
9
9
9
9
9
9
9
9
9
9
9
9
9
9
9
9
9
9
9
9
9
9
9
9
9
9
9
9
9
9
9
9
9
9
9
9
9
9
9
9
9
9
9
9
9
9
9
9
9
9
9
9
9
9
9
9
9
9
9
9
9
9
9
9
9
9
9
9
9
9
9
9
9
9
9
9
9
9
9
9
9
9
9
9
9
9
9
9
9
9
9
9
9
9
9
9
9
9
9
9
9
9
9
9
9
9
9
9
9
9
9
9
9
9
9
9
9
9
9
9
9
9
9
9
9
9
9
9
9
9
9
9
9
9
9
9
9
9
9
9
9
9
9
9
9
9
9
9
9
9
9
9
9
9
9
9
9
9
9
9
9
9
9
9
9
9
9
9
9
9
9
9
9
9
9
9
9
9
9
9
9
9
9
9
9
9
9
9
9
9
9
9
9
9
9
9
9
9
9
9
9
9
9
9
9
9
9
9
9
9
9
9
9
9
9
9
9

POINT_DATA 6849
VECTORS displacement float
-439.585512 0.000000 0.000000
0.000000 1307.824991 0.000000
0.000000 8776.314698 0.000000
-3665.170577 8644.125231 0.000000
-3779.773340 0.000000 0.000000
-439.433403 26.038139 0.000000
-439.177064 52.073591 0.000000
-438.756168 78.025806 0.000000
-438.164183 103.969136 0.000000
-437.353148 129.737077 0.000000
-436.332840 155.677838 0.000000
-435.287502 181.419955 0.000000
-433.998766 207.125328 0.000000
-432.458972 232.817919 0.000000
-430.798189 258.234699 0.000000
-429.050288 283.700648 0.000000
-427.032775 309.105406 0.000000
-424.885192 334.358094 0.000000
-422.606041 359.392567 0.000000
-420.103423 384.205045 0.000000
-417.430903 408.966010 0.000000
-414.628894 433.592600 0.000000
-411.637679 458.026401 0.000000
-408.565167 482.321921 0.000000
-405.205319 506.398156 0.000000
-401.786464 530.283498 0.000000
-398.138653 554.008367 0.000000
-394.336733 577.363873 0.000000
-390.434222 600.600618 0.000000
-386.317121 623.624476 0.000000
-382.073115 646.368359 0.000000
-377.734030 668.813928 0.000000
-373.144164 691.081752 0.000000
-368.443658 712.993305 0.000000
-363.608715 734.664499 0.000000
-358.588839 756.035171 0.000000
-353.474022 777.092110 0.000000
-348.226870 797.851517 0.000000
-342.831237 818.300971 0.000000
-337.290149 838.415025 0.000000
-331.612720 858.203870 0.000000
-325.795497 877.658367 0.000000
-319.867643 896.757888 0.000000
-313.801049 915.511160 0.000000
-307.648528 933.834736 0.000000
-301.333821 951.920604 0.000000
-294.873584 969.624122 0.000000
-288.354508 986.851281 0.000000
-281.678470 1003.743201 0.000000
-274.937040 1020.181294 0.000000
-268.085455 1036.244776 0.000000
-261.094545 1051.909285 0.000000
-254.010681 1067.135833 0.000000
-246.826575 1081.939215 0.000000
-239.535714 1096.351697 0.000000
-232.172130 1110.323961 0.000000
-224.676417 1123.855327 0.000000
-217.150366 1136.920755 0.000000
-209.510470 1149.547108 0.000000
-201.774790 1161.728054 0.000000
-193.965373 1173.441321 0.000000
-186.117789 1184.674178 0.000000
-178.146585 1195.484187 0.000000
-170.180481 1205.728449 0.000000
-162.001814 1215.604375 0.000000
-153.847161 1224.944081 0.000000
-145.696864 1233.805793 0.000000
-137.400648 1242.175878 0.000000
-129.069605 1250.034807 0.000000
-120.688183 1257.471135 0.000000
-112.269315 1264.375597 0.000000
-103.815609 1270.768215 0.000000
-95.307888 1276.639995 0.000000
-86.707876 1282.010902 0.000000
-78.199341 1286.928525 0.000000
-69.600809 1291.294144 0.000000
-60.961125 1295.156108 0.000000
-52.288789 1298.511034 0.000000
-43.606181 1301.345906 0.000000
-34.910717 1303.669046 0.000000
-26.205651 1305.486700 0.000000
-17.493379 1306.791494 0.000000
-8.755262 1307.495596 0.000000
0.000000 8347.685685 0.000000
0.000000 7918.829602 0.000000
0.000000 7489.954752 0.000000
0.000000 7061.194202 0.000000
0.000000 6632.721533 0.000000
0.000000 6204.761780 0.000000
0.000000 5777.504620 0.000000
0.000000 5351.323035 0.000000
0.000000 4926.153577 0.000000
0.000000 4502.657739 0.000000
0.000000 4114.655438 0.000000
0.000000 3835.681365 0.000000
0.000000 3637.276851 0.000000
0.000000 3471.291995 0.000000
0.000000 3306.127308 0.000000
0.000000 3141.912600 0.000000
0.000000 2978.853314 0.000000
0.000000 2817.220618 0.000000
0.000000 2657.218015 0.000000
0.000000 2499.119666 0.000000
0.000000 2343.648082 0.000000
0.000000 2207.599129 0.000000
0.000000 2110.240919 0.000000
0.000000 2042.253132 0.000000
0.000000 1987.756106 0.000000
0.000000 1934.235168 0.000000
0.000000 1881.599166 0.000000
0.000000 1829.975492 0.000000
0.000000 1779.508890 0.000000
0.000000 1730.307565 0.000000
0.000000 1682.580951 0.000000
0.000000 1636.523540 0.000000
0.000000 1592.334087 0.000000
0.000000 1550.308593 0.000000
0.000000 1510.794579 0.000000
0.000000 1477.782676 0.000000
0.000000 1452.091907 0.000000
0.000000 1435.572840 0.000000
0.000000 1423.888722 0.000000
0.000000 1414.281404 0.000000
0.000000 1405.106908 0.000000
0.000000 1396.430136 0.000000
0.000000 1388.248014 0.000000
0.000000 1380.612612 0.000000
0.000000 1373.490459 0.000000
0.000000 1366.906213 0.000000
0.000000 1360.896210 0.000000
0.000000 1356.192188 0.000000
0.000000 1352.927610 0.000000
0.000000 1350.702743 0.000000
0.000000 1348.854079 0.000000
0.000000 1347.083381 0.000000
0.000000 1345.391088 0.000000
0.000000 1343.780843 0.000000
0.000000 1342.243187 0.000000
0.000000 1340.766592 0.000000
0.000000 1339.349356 0.000000
0.000000 1337.987001 0.000000
0.000000 1336.672563 0.000000
0.000000 1335.392616 0.000000
0.000000 1334.143404 0.000000
0.000000 1332.903098 0.000000
0.000000 1331.671782 0.000000
0.000000 1330.410920 0.000000
0.000000 1329.125204 0.000000
0.000000 1327.783977 0.000000
0.000000 1326.391587 0.000000
0.000000 1324.825225 0.000000
0.000000 1323.147352 0.000000
0.000000 1321.321388 0.000000
0.000000 1319.270855 0.000000
0.000000 1316.897419 0.000000
0.000000 1314.265155 0.000000
0.000000 1311.253080 0.000000
-3479.449624 8651.249029 0.000000
-3293.709437 8658.384915 0.000000
-3107.941960 8665.586981 0.000000
-2922.188881 8672.889498 0.000000
-2736.470016 8680.348261 0.000000
-2550.852960 8687.950792 0.000000
-2365.374979 8695.749297 0.000000
-2180.129137 8703.721467 0.000000
-1995.203072 8711.850149 0.000000
-1810.691202 8720.088434 0.000000
-1626.673879 8728.343478 0.000000
-1443.271284 8736.416447 0.000000
-1260.575319 8744.448667 0.000000
-1078.581568 8751.793843 0.000000
-897.403491 8758.694619 0.000000
-716.899416 8764.657371 0.000000
-536.949598 8769.498542 0.000000
-357.616929 8773.145383 0.000000
-178.685729 8775.373318 0.000000
-3779.037542 429.623320 0.000000
-3777.281250 859.414945 0.000000
-3774.399603 1289.484878 0.000000
-3770.515829 1719.893419 0.000000
-3765.773398 2150.737134 0.000000
-3760.258273 2582.033991 0.000000
-3754.327529 3013.776304 0.000000
-3747.979184 3445.927198 0.000000
-3741.406155 3878.495957 0.000000
-3734.655947 4311.318007 0.000000
-3727.878179 4744.381387 0.000000
-3721.070086 5177.598804 0.000000
-3714.224527 5610.900070 0.000000
-3707.358410 6044.238526 0.000000
-3700.462649 6477.576992 0.000000
-3693.517832 6910.895946 0.000000
-3686.506583 7344.196388 0.000000
-3679.428616 7777.491631 0.000000
-3672.306758 8210.798900 0.000000
-450.179741 0.000000 0.000000
-459.936172 0.000000 0.000000
-468.851188 0.000000 0.000000
-477.025974 0.000000 0.000000
-484.534061 0.000000 0.000000
-491.457490 0.000000 0.000000
-497.853247 0.000000 0.000000
-503.768981 0.000000 0.000000
-509.271108 0.000000 0.000000
-514.397297 0.000000 0.000000
-519.180837 0.000000 0.000000
-523.656281 0.000000 0.000000
-527.860585 0.000000 0.000000
-531.830786 0.000000 0.000000
-535.586411 0.000000 0.000000
-539.139574 0.000000 0.000000
-542.513042 0.000000 0.000000
-545.730729 0.000000 0.000000
-548.786122 0.000000 0.000000
-551.712983 0.000000 0.000000
-554.551796 0.000000 0.000000
-557.283227 0.000000 0.000000
-559.921879 0.000000 0.000000
-562.474901 0.000000 0.000000
-564.965165 0.000000 0.000000
-567.773817 0.000000 0.000000
-571.475638 0.000000 0.000000
-576.309771 0.000000 0.000000
-581.719572 0.000000 0.000000
-587.028707 0.000000 0.000000
-592.262002 0.000000 0.000000
-597.447789 0.000000 0.000000
-602.600082 0.000000 0.000000
-607.754010 0.000000 0.000000
-612.949347 0.000000 0.000000
-618.181427 0.000000 0.000000
-624.343735 0.000000 0.000000
-632.725707 0.000000 0.000000
-645.084134 0.000000 0.000000
-660.754084 0.000000 0.000000
-678.625190 0.000000 0.000000
-697.352201 0.000000 0.000000
-716.793371 0.000000 0.000000
-736.914561 0.000000 0.000000
-757.562455 0.000000 0.000000
-778.782227 0.000000 0.000000
-800.445354 0.000000 0.000000
-822.537541 0.000000 0.000000
-845.090146 0.000000 0.000000
-868.017590 0.000000 0.000000
-891.321262 0.000000 0.000000
-920.411782 0.000000 0.000000
-962.199864 0.000000 0.000000
-1020.369181 0.000000 0.000000
-1086.931388 0.000000 0.000000
-1154.727726 0.000000 0.000000
-1223.227115 0.000000 0.000000
-1292.475725 0.000000 0.000000
-1362.369724 0.000000 0.000000
-1432.804652 0.000000 0.000000
-1503.681190 0.000000 0.000000
-1574.925921 0.000000 0.000000
-1660.064561 0.000000 0.000000
-1779.807032 0.000000 0.000000
-1946.376035 0.000000 0.000000
-2128.219387 0.000000 0.000000
-2310.881416 0.000000 0.000000
-2493.824836 0.000000 0.000000
-2677.233290 0.000000 0.000000
-2860.985639 0.000000 0.000000
-3044.675121 0.000000 0.000000
-3228.581467 0.000000 0.000000
-3412.458852 0.000000 0.000000
-3596.230048 0.000000 0.000000
-2.497869 1418.785416 0.000000
-615.524164 21.475348 0.000000
-161.815642 1198.703693 0.000000
-406.128297 505.519482 0.000000
-566.210245 12.513535 0.000000
-1.537962 1351.529039 0.000000
-878.972014 61.617214 0.000000
-19.771476 2013.522975 0.000000
-1.562633 1339.759180 0.000000
-547.331610 11.925981 0.000000
-124.965494 1245.498888 0.000000
-424.281597 385.381304 0.000000
-15.571632 1707.029858 0.000000
-1538.006270 164.852577 0.000000
-744.726554 59.664014 0.000000
-67.982323 3554.089076 0.000000
-2.481862 1369.307239 0.000000
-584.091558 20.727123 0.000000
-1.949283 1333.372243 0.000000
-529.770035 13.064678 0.000000
-1198.922853 163.535561 0.000000
-49.212212 2412.614496 0.000000
-8.735916 1491.217267 0.000000
-651.522985 48.503654 0.000000
-85.494122 1280.301150 0.000000
-437.089032 264.379592 0.000000
-195.409330 1150.646779 0.000000
-388.618394 599.414963 0.000000
-1734.697867 8314.256136 0.000000
-3590.975151 4151.314375 0.000000
-3.205227 1328.311172 0.000000
-511.839668 14.338080 0.000000
-149.746619 4712.543415 0.000000
-2043.477332 335.143003 0.000000
-989.734348 110.617382 0.000000
-52.548547 1299.260507 0.000000
-444.035163 164.209163 0.000000
-2464.655302 8316.648456 0.000000
-147.059015 6011.122068 0.000000
-599.501093 24.848320 0.000000
-2.796284 1392.118707 0.000000
-2585.021708 346.300636 0.000000
-61.446449 2884.304372 0.000000
-3550.004947 5832.647054 0.000000
-1177.929334 8400.565622 0.000000
-3596.572802 2837.995345 0.000000
-4.027703 1323.599374 0.000000
-494.786516 15.640759 0.000000
-555.557688 9.587973 0.000000
-1.204955 1344.446366 0.000000
-17.955966 1854.782418 0.000000
-810.770745 56.530343 0.000000
-28.403661 1307.458112 0.000000
-447.133276 86.383751 0.000000
-3619.121484 1483.164861 0.000000
-649.719349 8345.065413 0.000000
-3031.024866 8255.245629 0.000000
-686.436500 54.030840 0.000000
-12.305301 1571.447466 0.000000
-573.254278 17.698684 0.000000
-2.200413 1357.237300 0.000000
-25.060317 2155.757326 0.000000
-1719.208057 213.847751 0.000000
-86.055542 3963.902553 0.000000
-627.996243 24.061781 0.000000
-4.977905 1441.923259 0.000000
-4.863966 1317.697686 0.000000
-473.082699 19.600475 0.000000
-101.073656 1267.885393 0.000000
-432.304356 313.118085 0.000000
-441.001514 213.395637 0.000000
-67.954581 1291.369723 0.000000
-139.684664 1227.133151 0.000000
-417.404137 434.061863 0.000000
-398.105114 549.584777 0.000000
-179.170370 1175.115824 0.000000
-169.814136 7303.557432 0.000000
-3146.466002 390.126039 0.000000
-3527.991726 7130.350387 0.000000
-2093.416534 8338.445827 0.000000
-3559.426995 4952.356873 0.000000
-521.371685 13.476435 0.000000
-1330.058499 143.256717 0.000000
-2.610400 1330.761825 0.000000
-537.291798 12.376089 0.000000
-1.714813 1335.828140 0.000000
-561.087084 10.266484 0.000000
-56.510288 3222.599445 0.000000
-1.169187 1347.740184 0.000000
-12.556812 1310.144843 0.000000
-447.297906 38.399600 0.000000
-277.070220 8411.472929 0.000000
-3622.867159 663.172875 0.000000
-3374.839429 8258.815450 0.000000
-946.673192 117.688674 0.000000
-960.882907 211.510561 0.000000
-1006.617837 231.940485 0.000000
-974.140400 325.197199 0.000000
-928.614779 305.596348 0.000000
-939.485392 423.337018 0.000000
-891.292177 402.950290 0.000000
-893.490379 519.555875 0.000000
-853.580104 530.623291 0.000000
-847.568131 628.436039 0.000000
-807.622377 619.334558 0.000000
-816.957510 717.054432 0.000000
-787.857005 697.034566 0.000000
-859.157034 745.881663 0.000000
-823.645004 845.996575 0.000000
-883.330593 870.165078 0.000000
-830.357477 991.295261 0.000000
-898.922731 1023.218182 0.000000
-829.345132 1170.443851 0.000000
-910.347076 1191.965384 0.000000
-850.161739 1345.758223 0.000000
-923.028683 1365.792811 0.000000
-860.402219 1509.244938 0.000000
-936.954339 1534.927195 0.000000
-862.535587 1688.748996 0.000000
-951.106541 1706.016319 0.000000
-891.007593 1848.371352 0.000000
-970.920874 1873.066536 0.000000
-1029.686654 1732.880919 0.000000
-1047.938612 1901.184597 0.000000
-990.057386 2041.064602 0.000000
-1066.962325 2069.175605 0.000000
-1010.007247 2208.594095 0.000000
-1086.759912 2236.735974 0.000000
-1030.653181 2375.642537 0.000000
-1107.216670 2403.867187 0.000000
-1051.863448 2542.253549 0.000000
-1128.211732 2570.604892 0.000000
-1073.522222 2708.484254 0.000000
-1150.357862 2738.419107 0.000000
-1095.651437 2874.619104 0.000000
-1172.402346 2903.988609 0.000000
-1120.150309 3038.350044 0.000000
-1195.104296 3068.866109 0.000000
-1144.602616 3202.002141 0.000000
-1216.706420 3233.814025 0.000000
-1268.922587 3098.257667 0.000000
-1290.012780 3264.756776 0.000000
-1233.660845 3443.001045 0.000000
-1322.681645 3411.115002 0.000000
-1377.048968 3264.618508 0.000000
-1387.791387 3416.932104 0.000000
-1339.983736 3594.840244 0.000000
-1439.427393 3340.755268 0.000000
-1454.031263 3514.502772 0.000000
-1513.119333 3338.434451 0.000000
-1571.968639 3579.141492 0.000000
-1037.134446 3030.660757 0.000000
-767.535366 1316.790746 0.000000
-815.646014 1851.631828 0.000000
-1163.055103 2265.860115 0.000000
-1648.862719 3303.330469 0.000000
-1713.277399 3622.266425 0.000000
-1624.478211 3879.648443 0.000000
-1771.921583 3917.044925 0.000000
-1683.674422 4198.682483 0.000000
-1831.085137 4226.348849 0.000000
-1860.929024 3635.811174 0.000000
-1741.284229 4513.704110 0.000000
-1891.977264 4540.534051 0.000000
-1106.142808 1762.198419 0.000000
-975.200073 2514.856931 0.000000
-1800.103299 4833.221177 0.000000
-1953.213819 4862.860383 0.000000
-2044.682401 4557.773528 0.000000
-1647.593211 4804.888010 0.000000
-2108.695558 4891.110105 0.000000
-809.678518 540.626728 0.000000
-1205.201838 3714.555497 0.000000
-1707.127536 5130.904155 0.000000
-1548.488424 5097.392529 0.000000
-2202.608132 4577.356082 0.000000
-2267.674626 4916.759029 0.000000
-2170.569469 5228.522865 0.000000
-2332.579403 5255.413560 0.000000
-986.912089 1224.513339 0.000000
-1612.615472 5433.504405 0.000000
-1450.000601 5398.067126 0.000000
-2364.519813 4606.543186 0.000000
-1511.885654 5733.517011 0.000000
-1353.346841 5707.774917 0.000000
-2233.456604 5571.526265 0.000000
-2398.466098 5599.613645 0.000000
-995.327255 447.263149 0.000000
-2297.129757 5921.890444 0.000000
-2464.002300 5952.114446 0.000000
-1394.582370 6043.969302 0.000000
-1254.721794 6020.431687 0.000000
-1192.836220 5674.350359 0.000000
-1092.335897 5989.923998 0.000000
-1028.789677 5639.480086 0.000000
-2565.173959 5625.351265 0.000000
-2632.886829 5982.306125 0.000000
-763.289223 962.453201 0.000000
-2361.241111 6277.236933 0.000000
-2193.321012 6246.069119 0.000000
-2298.652809 4264.435663 0.000000
-2460.261242 4290.994652 0.000000
-2397.462299 3955.639022 0.000000
-2558.880775 3976.638457 0.000000
-2493.746603 3628.531888 0.000000
-2659.791593 3659.682836 0.000000
-2593.640935 3307.226586 0.000000
-2728.616171 3979.069819 0.000000
-1151.720549 6334.799002 0.000000
-990.073293 6307.781052 0.000000
-2762.031246 3341.962941 0.000000
-2695.131893 2983.250174 0.000000
-2526.427726 2954.770826 0.000000
-2626.739302 2628.609690 0.000000
-2458.624552 2606.316224 0.000000
-2797.348737 2652.777340 0.000000
-2727.142849 2294.320598 0.000000
-2736.229396 5648.283526 0.000000
-2804.323708 6012.141287 0.000000
-1546.843741 3085.547336 0.000000
-1660.077454 2964.002779 0.000000
-1529.950973 2774.347077 0.000000
-1681.466091 2644.609899 0.000000
-1569.196800 2433.397194 0.000000
-1719.650563 2324.326790 0.000000
-1615.699448 2117.457519 0.000000
-1756.093357 2005.792049 0.000000
-1666.052350 1799.931902 0.000000
-1126.697078 5328.110621 0.000000
-964.201523 5293.424935 0.000000
-866.384848 5602.106017 0.000000
-802.277851 5256.254541 0.000000
-2899.492422 2318.415739 0.000000
-834.230648 1994.502316 0.000000
-753.577986 1974.260400 0.000000
-776.894248 2132.383315 0.000000
-697.421736 2117.024170 0.000000
-720.575791 2276.666294 0.000000
-645.479675 2260.438410 0.000000
-666.593418 2419.307610 0.000000
-624.060521 2115.753526 0.000000
-581.806349 2395.464329 0.000000
-612.290501 2559.548263 0.000000
-535.078321 2547.547960 0.000000
-561.688788 2701.154954 0.000000
-486.757919 2680.767475 0.000000
-512.354192 2838.424498 0.000000
-587.118889 2860.407200 0.000000
-537.440830 2997.879799 0.000000
-611.920572 3021.219085 0.000000
-562.356641 3157.885049 0.000000
-636.619298 3182.308087 0.000000
-587.122581 3318.330935 0.000000
-461.872778 2520.889460 0.000000
-513.577553 3293.243176 0.000000
-538.315299 3453.187767 0.000000
-465.492970 3427.221797 0.000000
-613.523204 3482.591425 0.000000
-555.549242 3660.721073 0.000000
-438.385684 2817.184462 0.000000
-652.089823 3689.290005 0.000000
-686.906351 3045.219103 0.000000
-578.871249 3906.193341 0.000000
-702.954383 3928.643736 0.000000
-1205.067601 2601.449882 0.000000
-1056.033225 6668.464428 0.000000
-887.315877 6632.799998 0.000000
-1226.891485 6605.466637 0.000000
-731.724753 1804.066086 0.000000
-2699.057671 6346.523586 0.000000
-2828.396170 1954.903209 0.000000
-2655.569736 1931.952186 0.000000
-1793.278837 1690.639641 0.000000
-1693.953177 1472.187087 0.000000
-1897.103716 1899.611940 0.000000
-2257.084978 6605.171921 0.000000
-2086.811571 6574.463231 0.000000
-2872.897505 6378.903922 0.000000
-2766.829965 6718.221376 0.000000
-2907.961859 5674.322894 0.000000
-956.709918 879.748746 0.000000
-1814.285093 2571.829433 0.000000
-954.709804 7000.310863 0.000000
-1559.716554 1602.370917 0.000000
-1580.428145 1287.846047 0.000000
-2970.076619 2681.616661 0.000000
-1488.811258 4768.487154 0.000000
-625.401874 4195.383742 0.000000
-1931.027832 1570.852888 0.000000
-2039.759370 1787.109385 0.000000
-1487.256206 1395.035178 0.000000
-1533.646820 1125.457440 0.000000
-1435.232943 1232.793375 0.000000
-1061.903915 4988.383089 0.000000
-784.824376 6961.567856 0.000000
-2076.349593 1438.081875 0.000000
-724.649163 6602.009116 0.000000
-3073.927367 2343.023107 0.000000
-2359.375346 2928.961679 0.000000
-2935.770246 6758.130088 0.000000
-704.718056 5564.716937 0.000000
-2839.802773 5310.395511 0.000000
-641.854958 5198.788169 0.000000
-2152.334696 6936.535067 0.000000
-1980.923267 6905.760685 0.000000
-1606.317276 1016.245511 0.000000
-1657.271796 5765.239657 0.000000
-2755.977953 1588.768487 0.000000
-2929.916859 1612.276261 0.000000
-2832.900129 7096.018093 0.000000
-2583.992306 1577.675156 0.000000
-1089.045150 1593.496512 0.000000
-1164.312353 1624.299057 0.000000
-1147.794551 1455.702349 0.000000
-743.660285 2440.461559 0.000000
-1181.791591 1792.642559 0.000000
-1239.091981 1655.823844 0.000000
-1256.926251 1823.842606 0.000000
-440.690538 3268.254970 0.000000
-393.207835 3401.305877 0.000000
-368.550981 3243.244158 0.000000
-321.634149 3375.086000 0.000000
-297.252688 3217.851015 0.000000
-349.645414 3540.339602 0.000000
-1558.995715 865.244798 0.000000
-3013.105667 5336.002832 0.000000
-3011.779872 7126.676079 0.000000
-2657.776449 7061.245000 0.000000
-755.911324 4222.696546 0.000000
-271.512261 3510.263654 0.000000
-2944.619881 4970.031720 0.000000
-3060.514416 6433.973441 0.000000
-771.001207 3625.048245 0.000000
-490.175492 4148.093149 0.000000
-851.634437 7334.667152 0.000000
-677.291751 7287.024757 0.000000
-1308.764997 3913.627820 0.000000
-1171.262927 4027.206145 0.000000
-1024.034927 7371.687820 0.000000
-2856.082991 1243.907402 0.000000
-2294.140855 2585.677461 0.000000
-2197.569482 2900.128434 0.000000
-299.348492 3698.036257 0.000000
-1313.492481 1687.903326 0.000000
-3144.886279 2711.500406 0.000000
-3250.216678 2368.592387 0.000000
-872.996100 287.550813 0.000000
-2047.028823 7270.601205 0.000000
-1875.845760 7239.131355 0.000000
-1809.064724 6872.937534 0.000000
-1704.489253 7205.574999 0.000000
-2216.583770 7300.069093 0.000000
-2526.910488 4615.289209 0.000000
-2235.660617 3931.499747 0.000000
-3027.926393 1271.547551 0.000000
-2724.200811 7439.192053 0.000000
-3114.114335 4988.361843 0.000000
-3049.186836 4627.589679 0.000000
-543.101576 5523.287610 0.000000
-1331.660354 1855.606594 0.000000
-1295.933962 1520.066117 0.000000
-537.722257 4455.627908 0.000000
-1962.987727 1208.534265 0.000000
-919.180599 7711.259951 0.000000
-1637.929859 6838.704512 0.000000
-1529.997966 7170.913586 0.000000
-2112.433532 1068.712487 0.000000
-2071.346524 5538.703965 0.000000
-2182.109677 1667.701219 0.000000
-478.798216 5177.867458 0.000000
-1626.266698 769.115120 0.000000
-3208.716673 5375.754273 0.000000
-3219.643136 4645.377574 0.000000
-3155.841305 4284.507486 0.000000
-1448.200111 952.367571 0.000000
-1598.851476 7540.280696 0.000000
-1414.335463 7494.449465 0.000000
-1282.316699 4228.285378 0.000000
-1563.797168 608.789157 0.000000
-1493.213688 671.644971 0.000000
-2389.690357 2259.783748 0.000000
-2022.763535 6212.687673 0.000000
-1940.807184 7605.741151 0.000000
-855.024739 2157.056854 0.000000
-1275.465641 1991.622239 0.000000
-1350.406382 2023.113737 0.000000
-1294.655499 2159.131555 0.000000
-343.812795 3086.014554 0.000000
-272.815775 3061.588040 0.000000
-226.846533 3191.643424 0.000000
-202.888663 3036.204096 0.000000
-248.312718 2906.493423 0.000000
-2140.162591 2575.361361 0.000000
-1723.474844 926.019765 0.000000
-1070.886766 3812.771319 0.000000
-1032.261266 4121.381195 0.000000
-3039.572819 3053.272505 0.000000
-3215.954985 3081.804268 0.000000
-3110.185247 3426.166822 0.000000
-3287.039775 3454.050255 0.000000
-2040.955473 2876.403988 0.000000
-2101.083255 3205.710144 0.000000
-1490.809643 7875.498392 0.000000
-3177.744233 1999.244427 0.000000
-605.573712 5863.064440 0.000000
-1742.801683 6510.451930 0.000000
-2549.028534 7404.358722 0.000000
-745.665181 4886.777922 0.000000
-780.876253 828.498402 0.000000
-180.095182 2880.921718 0.000000
-224.027490 2752.579121 0.000000
-156.616679 2728.161791 0.000000
-199.693956 2600.533052 0.000000
-268.973984 2621.025201 0.000000
-243.790958 2469.174530 0.000000
-315.987373 2483.529942 0.000000
-289.470644 2333.161939 0.000000
-218.240107 2319.505605 0.000000
-265.021275 2187.047939 0.000000
-333.310218 2189.490546 0.000000
-297.798003 2030.987763 0.000000
-240.527195 2051.965289 0.000000
-281.436851 1935.074092 0.000000
-225.850217 1957.576339 0.000000
-335.067791 1938.175336 0.000000
-318.876674 1869.142082 0.000000
-1783.811972 3090.623713 0.000000
-1451.718943 2544.645091 0.000000
-1369.748172 2190.415739 0.000000
-1314.421723 2326.372943 0.000000
-1737.982251 678.306358 0.000000
-381.887008 5483.997832 0.000000
-387.783171 4355.540829 0.000000
-3355.375922 2025.833712 0.000000
-3291.284388 1578.764132 0.000000
-1221.060089 5020.928900 0.000000
-2878.736321 4609.742568 0.000000
-1537.031147 4172.351963 0.000000
-214.769417 3663.608693 0.000000
-256.661058 3921.104107 0.000000
-1072.937118 1425.899622 0.000000
-1132.310757 1286.941430 0.000000
-1205.809899 1319.333610 0.000000
-1191.051782 1150.536614 0.000000
-1262.966676 1184.213206 0.000000
-1247.299223 1016.489326 0.000000
-1176.452566 982.294572 0.000000
-1231.978835 849.018453 0.000000
-1162.366735 814.334802 0.000000
-1216.751316 681.944091 0.000000
-1286.231613 716.567926 0.000000
-1148.292694 646.918301 0.000000
-1269.748534 550.187169 0.000000
-1335.336052 587.793208 0.000000
-1106.674064 943.993075 0.000000
-1318.738607 1050.467446 0.000000
-1351.677104 754.753109 0.000000
-340.550880 2639.103478 0.000000
-711.322660 3207.255478 0.000000
-762.245146 3069.971809 0.000000
-738.132256 2907.122932 0.000000
-814.051035 2931.914255 0.000000
-837.802052 3095.524783 0.000000
-890.052571 2957.682727 0.000000
-910.283383 3115.832374 0.000000
-866.818560 2793.247281 0.000000
-943.193721 2819.356435 0.000000
-2423.817496 6642.633481 0.000000
-1367.836380 1554.265244 0.000000
-1105.881032 7739.877142 0.000000
-2949.882336 902.988484 0.000000
-1839.463482 822.023024 0.000000
-2793.645675 819.127900 0.000000
-392.514239 3724.313885 0.000000
-131.791775 2584.270417 0.000000
-783.118457 1480.262375 0.000000
-639.701370 53.855141 0.000000
-797.073832 1652.475029 0.000000
-717.478763 1630.207308 0.000000
-1319.944858 424.649318 0.000000
-1390.444504 472.348508 0.000000
-1251.716436 389.529091 0.000000
-8.923233 1466.879316 0.000000
-16.053032 1472.809434 0.000000
-18.252958 1495.680277 0.000000
-24.896965 1475.265515 0.000000
-22.062171 1453.753063 0.000000
-31.542541 1452.465539 0.000000
-315.737560 874.134940 0.000000
-352.125229 752.589571 0.000000
-275.374214 986.708222 0.000000
-239.919075 1066.150223 0.000000
-334.535743 814.692423 0.000000
-296.905595 932.803879 0.000000
-368.727681 688.365483 0.000000
-217.650453 1110.285262 0.000000
-28.718158 1431.478979 0.000000
-38.361903 1426.596853 0.000000
-42.518200 1449.208664 0.000000
-50.723970 1418.905963 0.000000
-55.524684 1445.977182 0.000000
-65.469073 1409.853096 0.000000
-60.036482 1384.117253 0.000000
-76.463232 1368.316337 0.000000
-68.761639 1337.795709 0.000000
-88.330037 1321.021965 0.000000
-84.220599 1288.526552 0.000000
-102.619296 1279.472438 0.000000
-96.643083 1355.190600 0.000000
-68.108798 1308.816784 0.000000
-254.423632 1034.685342 0.000000
-71.275077 1442.056461 0.000000
-60.463123 1477.367053 0.000000
-76.970469 1479.056089 0.000000
-61.639204 1520.111407 0.000000
-83.507149 1520.579349 0.000000
-68.942370 1564.744841 0.000000
-90.053470 1566.486830 0.000000
-106.003235 1518.409172 0.000000
-112.837132 1566.784174 0.000000
-130.001440 1515.725096 0.000000
-137.027989 1566.748252 0.000000
-155.667345 1513.363049 0.000000
-162.535917 1567.105014 0.000000
-182.497662 1512.548793 0.000000
-143.992818 1619.059900 0.000000
-189.098472 1568.382148 0.000000
-210.255511 1513.072360 0.000000
-204.138691 1455.531638 0.000000
-233.047089 1455.723754 0.000000
-227.654218 1396.342215 0.000000
-257.663432 1396.492293 0.000000
-253.423269 1335.005573 0.000000
-284.237559 1335.825990 0.000000
-281.669830 1273.192002 0.000000
-312.760672 1274.284192 0.000000
-311.411808 1209.149156 0.000000
-342.980344 1212.066663 0.000000
-343.419231 1145.731925 0.000000
-374.813558 1149.947413 0.000000
-376.498822 1081.279552 0.000000
-374.436673 1217.570587 0.000000
-346.227657 1065.294784 0.000000
-382.213179 1016.247551 0.000000
-350.247852 1003.326877 0.000000
-411.553640 1018.974785 0.000000
-410.174830 953.084182 0.000000
-445.719010 957.305095 0.000000
-450.707388 887.022622 0.000000
-481.988537 896.543524 0.000000
-489.693157 824.557175 0.000000
-458.101717 814.776110 0.000000
-499.015556 752.059524 0.000000
-469.677974 740.405940 0.000000
-510.507238 678.900447 0.000000
-484.258990 665.682527 0.000000
-536.795492 693.549759 0.000000
-287.994002 1398.727520 0.000000
-548.496283 621.076897 0.000000
-572.995441 637.819554 0.000000
-476.378235 967.517105 0.000000
-511.377245 909.116775 0.000000
-506.057951 979.945263 0.000000
-248.423420 1270.772867 0.000000
-584.452295 566.186233 0.000000
-540.027441 923.356536 0.000000
-535.173426 993.864075 0.000000
-607.537329 584.505076 0.000000
-617.375309 516.618158 0.000000
-596.801776 494.769199 0.000000
-437.940102 734.162055 0.000000
-454.454807 665.582272 0.000000
-417.598453 720.144943 0.000000
-568.238211 938.789586 0.000000
-563.874095 1008.940040 0.000000
-640.115315 533.847123 0.000000
-216.514757 1570.719317 0.000000
-646.456287 469.288421 0.000000
-531.545838 1063.890504 0.000000
-560.603057 1078.688091 0.000000
-529.036703 1133.418246 0.000000
-558.339802 1148.007973 0.000000
-527.546585 1202.432824 0.000000
-557.000139 1216.882971 0.000000
-526.967624 1270.938042 0.000000
-556.492706 1285.311247 0.000000
-527.194165 1338.950586 0.000000
-556.727891 1353.302161 0.000000
-528.127277 1406.494423 0.000000
-498.385688 1393.019414 0.000000
-500.043005 1460.003943 0.000000
-529.675964 1473.598159 0.000000
-470.197096 1447.362277 0.000000
-472.582122 1513.685562 0.000000
-442.741152 1501.806380 0.000000
-586.139286 1232.236034 0.000000
-445.834553 1567.380579 0.000000
-416.107584 1556.169603 0.000000
-670.460858 485.246422 0.000000
-662.358195 553.720940 0.000000
-596.117123 955.170528 0.000000
-675.205371 410.913076 0.000000
-699.214493 436.166376 0.000000
-419.868820 1620.926760 0.000000
-449.345426 1632.562679 0.000000
-390.362999 1610.260973 0.000000
-706.455275 368.037155 0.000000
-727.009557 390.387308 0.000000
-688.673079 344.955582 0.000000
-601.025155 885.086164 0.000000
-628.049588 902.647723 0.000000
-412.760248 1491.019183 0.000000
-96.764505 1614.813674 0.000000
-149.784638 1462.042749 0.000000
-195.726240 1624.554822 0.000000
-222.861617 1628.514347 0.000000
-202.349516 1681.076841 0.000000
-229.253114 1686.487754 0.000000
-250.635076 1633.457602 0.000000
-623.723193 972.335546 0.000000
-633.297339 832.790557 0.000000
-497.130899 1257.567967 0.000000
-720.947291 458.195103 0.000000
-732.893394 323.416503 0.000000
-747.753935 412.407446 0.000000
-659.477472 851.387048 0.000000
-664.864561 781.880943 0.000000
-394.735074 1674.145507 0.000000
-365.550111 1663.895246 0.000000
-360.880235 1600.664621 0.000000
-34.832434 1405.682572 0.000000
-25.483734 1411.127090 0.000000
-32.119450 1386.931701 0.000000
-23.505051 1394.542310 0.000000
-28.057394 1379.019942 0.000000
-208.945004 1737.946948 0.000000
-182.906234 1731.814441 0.000000
-235.661979 1744.657010 0.000000
-189.563812 1787.752274 0.000000
-164.353684 1780.679521 0.000000
-170.951226 1835.862171 0.000000
-146.512142 1827.681192 0.000000
-152.954173 1882.270523 0.000000
-129.196358 1872.923062 0.000000
-122.893869 1819.453510 0.000000
-106.203583 1863.297259 0.000000
-100.139882 1810.881212 0.000000
-135.418679 1927.117064 0.000000
-499.369495 1119.910307 0.000000
-606.982129 814.779499 0.000000
-742.251920 479.753545 0.000000
-336.470430 1654.684055 0.000000
-331.474382 1592.217535 0.000000
-499.590411 591.296892 0.000000
-478.797925 573.400804 0.000000
-516.843131 515.152221 0.000000
-496.245202 504.011038 0.000000
-84.014730 1853.025298 0.000000
-89.704195 1905.451193 0.000000
-78.305288 1801.624421 0.000000
-690.240719 801.358120 0.000000
-695.578397 732.296841 0.000000
-685.557464 870.476713 0.000000
-768.755102 434.194424 0.000000
-773.186527 367.646629 0.000000
-159.389377 1937.491615 0.000000
-140.350888 1970.971014 0.000000
-18.170909 1414.619366 0.000000
-17.399824 1398.882297 0.000000
-28.011052 1499.311636 0.000000
-94.026606 1759.458112 0.000000
-72.576964 1751.339872 0.000000
-406.103492 1156.992845 0.000000
-405.606640 1225.120421 0.000000
-375.247067 1284.507373 0.000000
-406.198208 1292.535763 0.000000
-377.005556 1350.749464 0.000000
-670.985922 712.399792 0.000000
-597.473291 655.463515 0.000000
-701.462860 663.356593 0.000000
-67.929689 1893.431457 0.000000
-73.282622 1946.034106 0.000000
-370.472381 1726.872768 0.000000
-399.365837 1737.751561 0.000000
-50.148313 1563.460861 0.000000
-55.423403 1606.128207 0.000000
-715.607257 821.225781 0.000000
-711.554352 889.985258 0.000000
-725.322133 683.946935 0.000000
-57.387472 1791.326907 0.000000
-764.225202 500.778308 0.000000
-51.816852 1932.246495 0.000000
-198.999026 1399.347966 0.000000
-157.664944 1726.113384 0.000000
-307.558081 1646.536358 0.000000
-313.071448 1707.948579 0.000000
-302.221507 1584.973904 0.000000
-326.753218 1529.475241 0.000000
-436.458322 1234.469292 0.000000
-436.881709 1302.180953 0.000000
-589.319388 1094.428518 0.000000
-297.123787 1523.202746 0.000000
-472.214902 1037.866662 0.000000
-546.222428 852.391512 0.000000
-95.327601 1958.757184 0.000000
-681.558018 939.557862 0.000000
-322.390091 1466.388183 0.000000
-352.529318 1473.189109 0.000000
-714.346316 526.217613 0.000000
-76.680785 2000.732653 0.000000
-102.004202 2016.638295 0.000000
-707.915461 958.827255 0.000000
-678.249605 1008.552125 0.000000
-705.079654 1027.493729 0.000000
-675.655056 1077.388160 0.000000
-703.050696 1095.952294 0.000000
-673.789326 1146.008832 0.000000
-701.508669 1164.324548 0.000000
-672.558282 1214.417154 0.000000
-730.338144 1114.928367 0.000000
-700.508274 1232.510214 0.000000
-671.930629 1282.577757 0.000000
-700.062449 1300.478544 0.000000
-671.870760 1350.477379 0.000000
-700.132636 1368.224322 0.000000
-672.342626 1418.109833 0.000000
-643.785927 1400.978795 0.000000
-644.705990 1468.424788 0.000000
-673.310946 1485.473475 0.000000
-646.102925 1535.579858 0.000000
-617.298142 1519.108794 0.000000
-619.150483 1585.983483 0.000000
-590.201284 1570.085911 0.000000
-592.521751 1636.611934 0.000000
-621.396988 1652.566077 0.000000
-595.206435 1702.834484 0.000000
-566.281254 1687.398547 0.000000
-623.993901 1718.874739 0.000000
-569.403091 1753.231871 0.000000
-540.473960 1738.253550 0.000000
-543.314884 1790.603590 0.000000
-566.087146 1840.173348 0.000000
-515.089024 1786.797711 0.000000
-524.433542 1851.974773 0.000000
-496.393674 1828.679524 0.000000
-483.539653 1912.782772 0.000000
-537.224395 1672.582373 0.000000
-487.284073 1772.937606 0.000000
-457.902559 1842.751791 0.000000
-528.690961 1970.212398 0.000000
-429.002708 1943.058976 0.000000
-650.122080 1669.072983 0.000000
-652.646350 1735.443305 0.000000
-626.892613 1784.911934 0.000000
-654.898983 1788.393852 0.000000
-681.115739 1750.219735 0.000000
-645.877030 1128.197395 0.000000
-643.580399 1265.181223 0.000000
-588.298919 1503.237700 0.000000
-561.072213 1554.833301 0.000000
-456.877005 1764.345312 0.000000
-431.160728 1804.437961 0.000000
-482.388365 1710.284439 0.000000
-52.191392 1742.058291 0.000000
-66.844642 1702.328264 0.000000
-40.264841 1376.896202 0.000000
-36.762076 1367.618083 0.000000
-196.165307 1844.167953 0.000000
-595.900540 1940.762212 0.000000
-793.982579 389.641916 0.000000
-797.268377 323.661231 0.000000
-776.970092 301.453800 0.000000
-799.746518 257.985980 0.000000
-779.826021 235.671693 0.000000
-801.220238 192.669480 0.000000
-781.436925 170.271695 0.000000
-760.423136 213.399888 0.000000
-821.420612 215.017988 0.000000
-674.729769 1552.585799 0.000000
-38.495984 1598.431818 0.000000
-41.851417 1642.184370 0.000000
-684.157986 1833.420334 0.000000
-727.956122 1250.082378 0.000000
-36.541200 1776.839650 0.000000
-375.584233 1789.634209 0.000000
-91.676024 1436.561923 0.000000
-284.728721 1699.876138 0.000000
-290.521354 1759.980323 0.000000
-346.156685 1343.870769 0.000000
-538.939136 531.655149 0.000000
-554.373345 459.493482 0.000000
-677.746949 643.043480 0.000000
-646.445797 692.896206 0.000000
-468.394382 1380.565476 0.000000
-730.814071 615.574814 0.000000
-753.888638 635.870910 0.000000
-77.863719 2067.689476 0.000000
-111.104506 2095.534006 0.000000
-159.518280 2001.445476 0.000000
-763.920494 142.008154 0.000000
-740.905840 186.435302 0.000000
-821.722217 151.937912 0.000000
-842.204972 172.747675 0.000000
-839.753816 109.864326 0.000000
-537.743493 440.932486 0.000000
-569.463235 391.559719 0.000000
-550.701103 380.195954 0.000000
-582.439834 330.244566 0.000000
-567.099360 313.606531 0.000000
-543.056424 359.164515 0.000000
-557.366700 306.912622 0.000000
-595.050823 271.701376 0.000000
-608.203473 286.259471 0.000000
-616.938948 234.080507 0.000000
-631.882659 242.801077 0.000000
-605.090983 218.162929 0.000000
-622.697224 300.368004 0.000000
-647.397679 255.357824 0.000000
-637.701491 192.058871 0.000000
-638.298301 318.127683 0.000000
-663.677672 272.529998 0.000000
-670.292928 208.491909 0.000000
-687.058870 225.589748 0.000000
-690.388821 163.775279 0.000000
-674.373138 148.657047 0.000000
-585.536826 410.525169 0.000000
-707.967357 178.687055 0.000000
-708.018761 116.064116 0.000000
-704.667519 241.640725 0.000000
-385.651059 939.188226 0.000000
-432.755494 643.445312 0.000000
-183.087628 1947.939394 0.000000
-20.505488 1522.327716 0.000000
-31.592770 1526.954739 0.000000
-324.795689 5163.146054 0.000000
-735.019083 909.504168 0.000000
-850.769386 390.971136 0.000000
-817.588723 343.665387 0.000000
-671.124599 50.878054 0.000000
-347.587856 1775.699553 0.000000
-781.274546 107.147522 0.000000
-47.630238 1882.143181 0.000000
-2002.213142 2125.819972 0.000000
-654.038970 339.868333 0.000000
-1425.013350 2055.042974 0.000000
-1443.823638 2220.624574 0.000000
-83.021710 2148.882448 0.000000
-121.584528 2191.937007 0.000000
-2615.997660 7766.977734 0.000000
-2781.039220 7861.373294 0.000000
-2445.173290 7697.045369 0.000000
-1162.545304 4700.769457 0.000000
-1015.952559 4665.270946 0.000000
-32.175349 1920.525192 0.000000
-629.611527 386.732917 0.000000
-1470.804299 6816.752272 0.000000
-2.485015 1363.976641 0.000000
-4.774422 1364.680970 0.000000
-4.976212 1370.050397 0.000000
-7.312849 1363.805345 0.000000
-7.675175 1369.371134 0.000000
-10.099157 1361.932723 0.000000
-9.677958 1356.441018 0.000000
-12.753388 1353.134239 0.000000
-12.263101 1347.817209 0.000000
-15.658706 1342.885925 0.000000
-15.263947 1337.693067 0.000000
-18.938382 1331.021431 0.000000
-18.626955 1326.602221 0.000000
-22.733393 1317.543810 0.000000
-22.892247 1312.005509 0.000000
-27.328730 1301.882691 0.000000
-27.717192 1296.482921 0.000000
-27.119924 1308.152138 0.000000
-31.702522 1292.109492 0.000000
-31.816730 1298.316147 0.000000
-36.868260 1279.999949 0.000000
-36.997893 1287.663398 0.000000
-42.917423 1265.384733 0.000000
-41.405371 1262.709086 0.000000
-49.723488 1243.968372 0.000000
-49.097670 1238.505740 0.000000
-48.710840 1255.063767 0.000000
-55.161945 1233.197264 0.000000
-55.040203 1243.618969 0.000000
-61.878247 1220.648043 0.000000
-18.850636 1321.190651 0.000000
-61.984370 1231.734597 0.000000
-69.240234 1207.936699 0.000000
-69.372980 1196.192796 0.000000
-77.253179 1182.786025 0.000000
-78.095948 1170.734024 0.000000
-86.806330 1155.432079 0.000000
-86.782331 1145.049575 0.000000
-85.633279 1169.544644 0.000000
-95.131087 1142.894462 0.000000
-94.293494 1157.109101 0.000000
-103.869528 1129.995247 0.000000
-103.273619 1145.132755 0.000000
-113.252673 1117.666936 0.000000
-114.802722 1100.058041 0.000000
-124.224782 1089.810777 0.000000
-125.469233 1072.755051 0.000000
-135.064687 1062.033466 0.000000
-136.988286 1044.559674 0.000000
-133.834693 1077.788833 0.000000
-144.139560 1051.146534 0.000000
-144.353106 1065.625868 0.000000
-156.228711 1032.380770 0.000000
-155.663257 1052.519793 0.000000
-167.519641 1023.180911 0.000000
-166.987790 1041.512766 0.000000
-178.871416 1012.819857 0.000000
-180.056616 994.245090 0.000000
-178.277536 1031.398830 0.000000
-190.392821 986.454917 0.000000
-193.234814 964.251138 0.000000
-166.873777 1059.508791 0.000000
-178.252142 1049.632497 0.000000
-167.117452 1077.324642 0.000000
-178.445426 1068.007571 0.000000
-189.730203 1040.726638 0.000000
-189.890447 1059.403182 0.000000
-201.341393 1032.318919 0.000000
-201.436590 1051.437598 0.000000
-213.111633 1024.268746 0.000000
-213.070413 1044.062378 0.000000
-224.871429 1017.118776 0.000000
-201.760756 1070.732147 0.000000
-224.750745 1037.341414 0.000000
-236.646864 1010.662515 0.000000
-237.141158 989.977990 0.000000
-248.976302 983.842484 0.000000
-249.849494 962.720884 0.000000
-236.457534 1031.237244 0.000000
-261.715033 956.939428 0.000000
-262.975149 935.395905 0.000000
-274.839647 930.002604 0.000000
-276.489203 908.055736 0.000000
-273.546955 951.801489 0.000000
-286.652534 925.257086 0.000000
-167.668757 1095.167529 0.000000
-285.331990 947.277146 0.000000
-298.404598 921.121086 0.000000
-297.061397 943.333944 0.000000
-310.088828 917.561757 0.000000
-311.770030 895.037341 0.000000
-323.381364 891.882829 0.000000
-325.393863 869.071800 0.000000
-156.569241 1104.574693 0.000000
-157.481661 1121.849314 0.000000
-146.641446 1131.263065 0.000000
-264.602077 913.711913 0.000000
-278.921583 883.697432 0.000000
-265.532139 895.601222 0.000000
-280.394841 863.254147 0.000000
-336.905262 866.340290 0.000000
-55.437726 1254.258409 0.000000
-94.120303 1171.564272 0.000000
-148.405338 1147.048944 0.000000
-321.698849 914.546209 0.000000
-339.238726 843.270071 0.000000
-32.245167 1305.644201 0.000000
-139.097253 1157.149730 0.000000
-13.349053 1359.382451 0.000000
-350.623972 840.975716 0.000000
-158.715620 1139.019451 0.000000
-149.918578 1163.729219 0.000000
-160.096057 1156.334875 0.000000
-151.405921 1180.869747 0.000000
-161.628768 1173.774851 0.000000
-62.498464 1243.121021 0.000000
-56.225321 1265.108764 0.000000
-284.330536 969.154810 0.000000
-157.659615 1018.498033 0.000000
-353.261924 817.673759 0.000000
-341.933903 820.052869 0.000000
-356.206002 794.306678 0.000000
-344.994505 796.693884 0.000000
-359.242950 771.083587 0.000000
-348.390989 773.260426 0.000000
-363.020423 747.358962 0.000000
-352.260891 749.600458 0.000000
-366.662389 724.070058 0.000000
-356.436552 725.962232 0.000000
-372.258797 698.995955 0.000000
-361.324891 701.890875 0.000000
-377.449501 675.434402 0.000000
-366.676837 677.741459 0.000000
-382.385931 651.722325 0.000000
-372.453278 653.281091 0.000000
-355.982297 681.085298 0.000000
-362.053098 656.563551 0.000000
-347.938930 680.142104 0.000000
-352.855843 657.738927 0.000000
-368.415150 632.424811 0.000000
-357.253791 637.295780 0.000000
-340.582424 666.109147 0.000000
-375.140529 609.806102 0.000000
-365.358849 612.417872 0.000000
-377.664720 592.880147 0.000000
-374.218941 589.362621 0.000000
-391.425982 580.751919 0.000000
-396.093076 557.922608 0.000000
-408.131850 550.545610 0.000000
-413.134034 529.613234 0.000000
-424.572594 521.578837 0.000000
-429.672399 500.242358 0.000000
-419.072635 507.559817 0.000000
-435.258530 478.695940 0.000000
-424.190216 487.246823 0.000000
-441.070529 457.372345 0.000000
-432.767005 462.377265 0.000000
-447.684773 435.284433 0.000000
-436.042330 446.972635 0.000000
-452.549686 415.766693 0.000000
-445.176579 420.535242 0.000000
-419.266176 476.432711 0.000000
-463.709189 406.480196 0.000000
-470.517812 384.232483 0.000000
-479.597528 377.780507 0.000000
-486.438521 355.152603 0.000000
-440.705813 492.983526 0.000000
-494.931174 349.597020 0.000000
-501.019942 327.556828 0.000000
-492.960057 332.960719 0.000000
-507.155000 305.464529 0.000000
-498.953433 311.587322 0.000000
-513.204690 283.348098 0.000000
-507.232069 286.061647 0.000000
-520.858414 278.273842 0.000000
-519.464129 260.324126 0.000000
-511.476826 268.204876 0.000000
-497.552891 295.865838 0.000000
-524.854344 238.250890 0.000000
-517.247162 243.736726 0.000000
-435.873825 514.468266 0.000000
-451.546311 486.589765 0.000000
-341.020438 752.917597 0.000000
-488.740255 371.906785 0.000000
-503.515862 344.628952 0.000000
-497.715830 366.882419 0.000000
-446.950239 508.166241 0.000000
-462.191714 480.965849 0.000000
-154.990053 1192.788271 0.000000
-163.357986 1186.771432 0.000000
-511.938789 340.528807 0.000000
-116.594128 1085.577338 0.000000
-506.540005 362.612482 0.000000
-103.198556 1160.386830 0.000000
-94.391602 1186.159195 0.000000
-12.026970 1342.967224 0.000000
-63.348082 1254.802573 0.000000
-333.606417 799.779774 0.000000
-531.995648 233.305085 0.000000
-537.017766 210.569857 0.000000
-543.686158 206.789841 0.000000
-548.228049 183.362841 0.000000
-554.556656 180.437413 0.000000
-541.578883 187.481564 0.000000
-552.122000 159.650388 0.000000
-547.103349 160.540854 0.000000
-555.199110 138.281208 0.000000
-549.402889 139.496082 0.000000
-541.789364 162.694445 0.000000
-555.403930 122.858417 0.000000
-551.995903 120.304469 0.000000
-561.889435 114.559714 0.000000
-550.250139 203.591739 0.000000
-560.551960 178.722276 0.000000
-556.651328 201.141042 0.000000
-566.620965 177.028869 0.000000
-562.995573 199.207679 0.000000
-572.652795 175.699315 0.000000
-569.314721 197.620023 0.000000
-578.663730 174.696959 0.000000
-575.565813 196.461505 0.000000
-575.551983 153.935401 0.000000
-565.669355 219.447427 0.000000
-572.191991 218.134002 0.000000
-561.744786 241.284527 0.000000
-457.829077 502.601499 0.000000
-472.652714 476.031630 0.000000
-172.388547 1166.056925 0.000000
-174.243627 1186.959499 0.000000
-183.018042 1156.503532 0.000000
-213.064755 1005.113279 0.000000
-348.324182 864.132798 0.000000
-361.912579 839.192122 0.000000
-224.911758 1057.482432 0.000000
-236.545712 1051.709852 0.000000
-225.330403 1077.547913 0.000000
-236.879091 1072.081460 0.000000
-225.959197 1097.524846 0.000000
-237.442113 1092.366585 0.000000
-228.942268 1112.437014 0.000000
-238.468293 1107.552608 0.000000
-248.974633 1086.808625 0.000000
-246.138541 1115.976388 0.000000
-259.905390 1088.131198 0.000000
-296.026894 965.404891 0.000000
-442.729974 529.682222 0.000000
-57.305184 1276.290501 0.000000
-50.562153 1285.836136 0.000000
-70.372981 1185.031574 0.000000
-484.099377 340.319447 0.000000
-140.436159 1189.898124 0.000000
-393.140458 648.446968 0.000000
-584.656211 174.013670 0.000000
-587.159107 152.331201 0.000000
-592.925846 152.083098 0.000000
-594.802185 130.490331 0.000000
-590.658182 173.584632 0.000000
-51.823364 1296.594001 0.000000
-45.448584 1305.308249 0.000000
-406.052444 519.073728 0.000000
-359.644522 862.410488 0.000000
-453.818908 524.183326 0.000000
-103.673060 1175.533346 0.000000
-95.034676 1200.869689 0.000000
-600.837637 147.707736 0.000000
-520.294145 336.956955 0.000000
-562.064866 96.353690 0.000000
-554.912525 242.971944 0.000000
-567.679166 90.587711 0.000000
-104.284734 1191.108857 0.000000
-477.101734 454.311708 0.000000
-487.138454 449.987520 0.000000
-567.784204 108.973423 0.000000
-515.239741 358.970372 0.000000
-375.725936 722.373408 0.000000
-134.337639 1147.113532 0.000000
-456.508462 464.960839 0.000000
-283.623373 990.897232 0.000000
-295.278437 987.341334 0.000000
-438.858248 551.201404 0.000000
-450.163623 545.702423 0.000000
-64.472907 1266.789199 0.000000
-95.939910 1215.770536 0.000000
-104.945283 1207.006050 0.000000
-366.734107 794.121088 0.000000
-388.428230 627.161887 0.000000
-568.612190 239.761859 0.000000
-557.733613 262.986051 0.000000
-113.404934 1148.873351 0.000000
-19.401440 1336.918708 0.000000
-517.569320 317.970609 0.000000
-339.633995 706.259231 0.000000
-326.592176 717.266981 0.000000
-324.417029 734.740906 0.000000
-314.366976 740.227764 0.000000
-313.794731 872.363538 0.000000
-252.503795 920.694394 0.000000
-255.811108 899.178102 0.000000
-240.739653 927.226805 0.000000
-242.426381 905.961689 0.000000
-482.940447 471.718649 0.000000
-497.017526 446.236618 0.000000
-501.230386 424.478595 0.000000
-46.842859 1315.717324 0.000000
-40.820656 1323.549118 0.000000
-573.382001 84.477200 0.000000
-573.692824 103.248386 0.000000
-435.418585 572.596556 0.000000
-579.291765 78.039195 0.000000
-579.795207 96.238664 0.000000
-585.088437 71.870978 0.000000
-585.931880 90.372886 0.000000
-373.095180 837.871007 0.000000
-370.866849 861.136203 0.000000
-357.689589 885.490552 0.000000
-528.496994 334.074668 0.000000
-510.705369 421.266939 0.000000
-506.749390 442.995635 0.000000
-566.950015 73.971892 0.000000
-561.128101 79.160449 0.000000
-368.942013 884.271436 0.000000
-356.028747 908.437843 0.000000
-381.990544 860.276252 0.000000
-501.343684 384.541105 0.000000
-144.405123 1081.833547 0.000000
-482.872158 393.872717 0.000000
-39.504233 1313.852601 0.000000
-35.215656 1331.104541 0.000000
-214.526458 1103.193555 0.000000
-181.821661 1140.816084 0.000000
-87.214889 1225.058267 0.000000
-85.675727 1196.996990 0.000000
-283.189251 1012.509476 0.000000
-294.795433 1009.150139 0.000000
-306.882784 984.285234 0.000000
-306.358237 1006.264649 0.000000
-318.429735 981.698270 0.000000
-294.559210 1030.838628 0.000000
-306.076168 1028.125285 0.000000
-294.545443 1052.458077 0.000000
-306.018217 1045.528126 0.000000
-297.562389 1070.818001 0.000000
-248.169129 1025.719373 0.000000
-97.037247 1230.855710 0.000000
-106.026705 1222.686541 0.000000
-53.285959 1307.727575 0.000000
-48.410185 1326.532946 0.000000
-427.288634 557.465897 0.000000
-565.812347 58.356646 0.000000
-561.483256 63.229827 0.000000
-557.146247 82.392821 0.000000
-557.753250 68.956669 0.000000
-523.817240 355.908673 0.000000
-317.543705 1025.082047 0.000000
-351.124207 637.827794 0.000000
-4.786392 1360.018345 0.000000
-564.908896 261.349975 0.000000
-553.731295 284.556001 0.000000
-546.155405 286.770678 0.000000
-5.286438 1376.483764 0.000000
-8.233068 1375.607986 0.000000
-573.383166 121.610111 0.000000
-380.114734 883.469325 0.000000
-390.427114 864.552505 0.000000
-398.627678 832.917375 0.000000
-114.220570 1198.635976 0.000000
-115.268850 1214.876272 0.000000
-545.712911 226.007056 0.000000
-403.671887 571.961042 0.000000
-514.861619 399.512600 0.000000
-98.372559 1246.041082 0.000000
-33.996812 1322.102544 0.000000
-30.028507 1338.276772 0.000000
-31.315680 1347.133232 0.000000
-26.417497 1353.196300 0.000000
-25.251117 1344.929480 0.000000
-21.918189 1358.657949 0.000000
-23.102436 1366.922231 0.000000
-18.841816 1371.179697 0.000000
-451.548446 449.831011 0.000000
-38.398920 1304.618579 0.000000
-464.713649 519.323507 0.000000
-461.242839 540.872759 0.000000
-589.256042 130.534058 0.000000
-596.370747 108.605430 0.000000
-601.711213 109.063080 0.000000
-602.509039 87.419378 0.000000
-607.794541 88.113629 0.000000
-597.321980 86.693486 0.000000
-602.751035 65.611423 0.000000
-578.583035 218.442011 0.000000
-70.898809 1244.643986 0.000000
-72.050386 1257.432768 0.000000
-65.827590 1279.072933 0.000000
-73.420144 1270.490123 0.000000
-319.242511 959.448421 0.000000
-330.749406 957.183006 0.000000
-344.672281 910.015694 0.000000
-607.311685 105.280688 0.000000
-613.338956 88.536397 0.000000
-611.229112 117.078907 0.000000
-290.417852 880.395288 0.000000
-169.580154 1130.841968 0.000000
-239.123009 948.363518 0.000000
-226.871453 956.304323 0.000000
-259.990304 1062.721401 0.000000
-271.543213 1016.377565 0.000000
-375.641407 814.468521 0.000000
-329.912021 979.557026 0.000000
-342.183347 955.356230 0.000000
-386.685847 813.545701 0.000000
-389.444021 789.994789 0.000000
-20.882980 1350.897798 0.000000
-24.259248 1337.193280 0.000000
-609.490020 147.678954 0.000000
-621.111432 117.425755 0.000000
-282.560147 1078.543447 0.000000
-592.169211 64.128435 0.000000
-89.751320 1253.679148 0.000000
-589.598009 44.984665 0.000000
-570.717904 53.324525 0.000000
-613.226589 66.554435 0.000000
-54.847043 1319.190059 0.000000
-50.076773 1337.724272 0.000000
-334.410773 691.606922 0.000000
-577.762945 61.213930 0.000000
-536.846437 331.169201 0.000000
-563.568472 44.880616 0.000000
-388.510039 884.082800 0.000000
-402.293662 861.561390 0.000000
-341.257483 977.701767 0.000000
-353.530517 953.915125 0.000000
-378.011871 906.731637 0.000000
-334.440096 731.982465 0.000000
-318.956706 759.135263 0.000000
-505.682255 402.687431 0.000000
-192.930425 1133.988082 0.000000
-191.105518 1161.483724 0.000000
-191.852216 1115.837448 0.000000
-271.436193 1059.575995 0.000000
-56.412075 1331.333178 0.000000
-52.039057 1350.639325 0.000000
-474.982581 515.570873 0.000000
-471.601157 537.241558 0.000000
-458.141714 562.393743 0.000000
-19.971386 1379.283535 0.000000
-15.961844 1382.394763 0.000000
-14.908816 1374.509791 0.000000
-12.168577 1384.712285 0.000000
-13.173270 1392.982415 0.000000
-9.474403 1394.023686 0.000000
-10.381249 1402.570140 0.000000
-6.557686 1402.093763 0.000000
-534.081274 193.321564 0.000000
-314.579437 1057.832413 0.000000
-560.264956 46.959515 0.000000
-523.206254 397.665798 0.000000
-618.713653 150.863159 0.000000
-630.452152 120.296669 0.000000
-32.054676 1285.601317 0.000000
-413.666382 495.870663 0.000000
-55.618417 1223.816330 0.000000
-463.868342 387.697404 0.000000
-62.447148 1209.016551 0.000000
-63.137326 1200.128636 0.000000
-228.897751 935.665948 0.000000
-214.965041 964.005897 0.000000
-218.993119 940.071093 0.000000
-230.478622 915.157382 0.000000
-293.822421 856.934388 0.000000
-304.715531 853.306262 0.000000
-307.562686 830.515231 0.000000
-297.347220 834.925153 0.000000
-311.344833 808.777219 0.000000
-297.464579 814.789478 0.000000
-284.147307 841.203107 0.000000
-96.808732 1126.243760 0.000000
-104.105896 1116.163023 0.000000
-108.274525 1100.143090 0.000000
-269.053909 868.329226 0.000000
-530.772722 214.128069 0.000000
-400.284245 789.494297 0.000000
-403.104248 766.408501 0.000000
-390.734088 767.706179 0.000000
-532.227962 352.785208 0.000000
-557.766814 97.696643 0.000000
-554.448444 97.314699 0.000000
-44.237114 1343.573177 0.000000
-579.405094 21.601286 0.000000
-3133.530127 886.410882 0.000000
-348.946534 1847.829711 0.000000
-380.417716 1852.507525 0.000000
-328.495970 1025.831443 0.000000
-160.482610 3166.257101 0.000000
-182.156451 3322.095618 0.000000
-986.971172 8089.639317 0.000000
-7.652165 1410.760998 0.000000
-11.323454 1411.390462 0.000000
-8.908975 1418.518285 0.000000
-27.162735 1629.352978 0.000000
-3322.531046 4357.467171 0.000000
-1347.609483 1388.881171 0.000000
-562.932098 29.284061 0.000000
-559.950907 32.812673 0.000000
-123.179991 1191.601482 0.000000
-124.244520 1208.401925 0.000000
-116.449633 1231.380549 0.000000
-125.387704 1225.292126 0.000000
-116.184977 1259.571676 0.000000
-131.331540 1238.912683 0.000000
-147.966480 1224.060376 0.000000
-165.738417 1241.173523 0.000000
-227.805603 1137.261937 0.000000
-240.739572 1163.250978 0.000000
-283.132394 1103.743883 0.000000
-301.359263 1104.897523 0.000000
-141.064791 1288.219749 0.000000
-161.384886 1300.352563 0.000000
-135.251349 1349.123011 0.000000
-154.458744 1365.012743 0.000000
-180.462444 1327.960480 0.000000
-130.157712 1404.739592 0.000000
-12.449873 1421.925426 0.000000
-16.501703 1430.216287 0.000000
-861.862342 119.639083 0.000000
-1222.058874 7435.307752 0.000000
-861.045077 3258.011010 0.000000
-949.319337 3294.672708 0.000000
-8.200948 1385.516828 0.000000
-727.768231 132.500533 0.000000
-3422.544151 2383.195224 0.000000
-413.616083 4643.400898 0.000000
-945.945367 3906.758389 0.000000
-1314.363966 7829.553481 0.000000
-93.617382 2725.764608 0.000000
-123.020545 1173.687235 0.000000
-627.439425 156.097253 0.000000
-640.780511 123.136750 0.000000
-3541.919602 2080.048767 0.000000
-1110.817628 3519.247167 0.000000
-981.969077 3575.866551 0.000000
-753.832937 705.601388 0.000000
-618.492535 68.566072 0.000000
-1840.456038 535.793740 0.000000
-213.183625 5427.325061 0.000000
-155.361555 4368.350289 0.000000
-3421.040420 3074.340321 0.000000
-3451.725304 3455.020642 0.000000
-210.369294 1200.192167 0.000000
-565.661025 150.826028 0.000000
-1347.187839 8149.044836 0.000000
-38.870351 1501.445374 0.000000
-811.371283 8051.688382 0.000000
-135.527663 1218.062769 0.000000
-597.689286 65.473855 0.000000
-352.287661 977.075343 0.000000
-1416.835102 2854.965759 0.000000
-1371.840676 2671.625928 0.000000
-1404.506528 3092.531362 0.000000
-1963.042093 650.642922 0.000000
-270.506912 1162.716448 0.000000
-84.860820 2248.046904 0.000000
-125.012600 2303.969685 0.000000
-2643.592681 8233.770187 0.000000
-701.737150 1503.007986 0.000000
-2878.420277 522.051078 0.000000
-153.841453 2102.791836 0.000000
-1.822721 1353.965566 0.000000
-3.326981 1351.136947 0.000000
-3.956372 1353.536405 0.000000
-5.376440 1349.258861 0.000000
-4.462038 1347.966975 0.000000
-6.780969 1345.615101 0.000000
-5.659655 1345.538914 0.000000
-5.860546 1352.271619 0.000000
-569.699582 17.798631 0.000000
-568.812351 38.977423 0.000000
-2120.755725 665.834326 0.000000
-2254.017175 894.949927 0.000000
-2279.856448 485.346860 0.000000
-2402.136943 735.577168 0.000000
-2378.115198 1175.905882 0.000000
-2530.952146 952.287413 0.000000
-602.344486 43.644351 0.000000
-607.362579 44.574773 0.000000
-672.906945 1974.949662 0.000000
-310.689361 789.518666 0.000000
-589.192327 21.930653 0.000000
-876.062662 3474.881404 0.000000
-427.222220 807.541808 0.000000
-3180.722901 3788.987392 0.000000
-3003.065038 3743.207728 0.000000
-1320.258581 4747.331854 0.000000
-372.989441 2040.284705 0.000000
-405.814804 2178.917142 0.000000
-843.190046 240.746025 0.000000
-133.087157 1183.842063 0.000000
-386.611603 602.017506 0.000000
-397.998337 597.874162 0.000000
-47.003443 1694.157617 0.000000
-704.443452 56.326285 0.000000
-1665.201064 7914.186434 0.000000
-9.171185 1351.426747 0.000000
-1467.612894 3798.152045 0.000000
-48.536645 2037.745357 0.000000
-5.848861 1382.251119 0.000000
-362.343661 2333.741169 0.000000
-446.888841 2345.385445 0.000000
-482.765012 2169.945904 0.000000
-143.898822 1041.279397 0.000000
-67.159711 1292.343909 0.000000
-74.885932 1284.116053 0.000000
-583.265738 55.012518 0.000000
-594.892425 40.289443 0.000000
-3398.150039 4708.648159 0.000000
-818.762667 406.865698 0.000000
-15.082689 1333.001615 0.000000
-11.702261 1339.824515 0.000000
-15.098111 1330.207356 0.000000
-12.274945 1335.174143 0.000000
-9.616856 1346.116870 0.000000
-641.443878 86.144577 0.000000
-560.733189 134.401751 0.000000
-572.338181 68.061410 0.000000
-576.048223 43.318573 0.000000
-560.734980 4839.689423 0.000000
-188.882995 1202.989483 0.000000
-584.402188 254.459095 0.000000
-594.487646 208.171140 0.000000
-1828.812138 1083.328433 0.000000
-75.971365 1301.906107 0.000000
-1925.006572 3223.293317 0.000000
-1344.200373 7132.835348 0.000000
-631.478477 84.299776 0.000000
-35.944224 1971.270898 0.000000
-231.634151 1226.282504 0.000000
-703.094742 1577.827638 0.000000
-61.050202 1653.177014 0.000000
-904.564617 62.207205 0.000000
-20.246989 2071.268856 0.000000
-85.085267 3759.393190 0.000000
-544.873684 328.821131 0.000000
-1619.751096 195.118079 0.000000
-1559.126830 338.720005 0.000000
-1491.366379 311.822658 0.000000
-1638.607330 374.739084 0.000000
-1502.723963 486.346475 0.000000
-360.280534 4073.725490 0.000000
-561.165764 283.301542 0.000000
-1441.593346 584.427262 0.000000
-304.401636 789.588661 0.000000
-919.659586 207.181027 0.000000
-581.320235 39.452007 0.000000
-525.329725 2292.540478 0.000000
-2486.335944 1921.212051 0.000000
-2429.558872 1567.485510 0.000000
-330.329736 1053.389807 0.000000
-533.372109 312.004382 0.000000
-906.108383 4950.032859 0.000000
-858.642532 4556.319060 0.000000
-651.917733 90.093635 0.000000
-651.813576 127.399076 0.000000
-621.283154 21.937470 0.000000
-3.348658 1428.349822 0.000000
-927.769304 740.233566 0.000000
-1008.595786 721.381997 0.000000
-1033.554287 909.050462 0.000000
-972.899634 1053.776735 0.000000
-1385.926932 5065.994862 0.000000
-1410.479491 4432.455393 0.000000
-655.274816 191.118360 0.000000
-38.879236 2263.227652 0.000000
-2426.917494 3276.089491 0.000000
-11.246092 1376.096999 0.000000
-14.019643 1366.444889 0.000000
-313.928536 756.085036 0.000000
-549.446168 306.863747 0.000000
-551.980345 329.320042 0.000000
-1911.107728 8337.260055 0.000000
-591.983078 86.933514 0.000000
-585.438228 109.944216 0.000000
-1914.849053 6541.648875 0.000000
-1855.575686 6174.472061 0.000000
-1970.852654 5845.376176 0.000000
-36.419227 1305.277756 0.000000
-30.096418 1308.893777 0.000000
-37.486070 1306.337176 0.000000
-31.303602 1309.846624 0.000000
-38.010432 1306.978122 0.000000
-32.094871 1310.389403 0.000000
-38.149867 1307.240090 0.000000
-32.576658 1310.556406 0.000000
-38.125819 1307.084022 0.000000
-32.829636 1310.376378 0.000000
-37.926778 1306.590164 0.000000
-32.896915 1309.894406 0.000000
-37.589539 1305.808204 0.000000
-32.815452 1309.156509 0.000000
-37.152767 1304.784180 0.000000
-32.625847 1308.200638 0.000000
-36.650590 1303.558199 0.000000
-32.361685 1307.062051 0.000000
-36.112710 1302.165961 0.000000
-32.050955 1305.773628 0.000000
-35.563618 1300.640343 0.000000
-31.717914 1304.365028 0.000000
-35.024136 1299.011051 0.000000
-31.382931 1302.863609 0.000000
-34.511125 1297.305899 0.000000
-38.328926 1293.166618 0.000000
-37.648193 1291.270108 0.000000
-41.631909 1286.838625 0.000000
-40.794899 1284.764101 0.000000
-44.933215 1280.036106 0.000000
-43.952516 1277.797536 0.000000
-48.234094 1272.768207 0.000000
-47.122656 1270.381604 0.000000
-51.536801 1265.045944 0.000000
-50.308596 1262.527203 0.000000
-54.844352 1256.881771 0.000000
-53.513732 1254.247585 0.000000
-58.161046 1248.288210 0.000000
-56.742098 1245.557275 0.000000
-61.491455 1239.280222 0.000000
-59.998739 1236.470662 0.000000
-64.840805 1229.874122 0.000000
-63.288582 1227.005004 0.000000
-68.215337 1220.085996 0.000000
-66.617554 1217.176823 0.000000
-71.621298 1209.934451 0.000000
-69.991439 1207.005038 0.000000
-75.065277 1199.439271 0.000000
-73.416219 1196.509599 0.000000
-78.554773 1188.619520 0.000000
-76.898640 1185.709600 0.000000
-82.096083 1177.497832 0.000000
-80.444346 1174.627004 0.000000
-85.696747 1166.095005 0.000000
-84.059453 1163.283983 0.000000
-89.363430 1154.434343 0.000000
-87.750128 1151.701771 0.000000
-93.102492 1142.539791 0.000000
-91.521713 1139.903705 0.000000
-96.920416 1130.433990 0.000000
-95.379121 1127.913475 0.000000
-100.822677 1118.141587 0.000000
-99.327315 1115.753195 0.000000
-104.814198 1105.687440 0.000000
-103.369993 1103.447366 0.000000
-108.899822 1093.094569 0.000000
-107.511004 1091.018037 0.000000
-113.083181 1080.387678 0.000000
-111.753006 1078.488835 0.000000
-117.367417 1067.590911 0.000000
-116.097992 1065.883076 0.000000
-121.754874 1054.727080 0.000000
-120.548111 1053.221481 0.000000
-126.247236 1041.819427 0.000000
-125.103602 1040.527033 0.000000
-130.845219 1028.890880 0.000000
-129.764657 1027.821107 0.000000
-135.549457 1015.961777 0.000000
-134.531268 1015.122841 0.000000
-140.359015 1003.054133 0.000000
-139.402133 1002.452404 0.000000
-145.273181 990.186591 0.000000
-144.375356 989.829086 0.000000
-150.289928 977.378708 0.000000
-149.449170 977.269447 0.000000
-155.406624 964.649019 0.000000
-154.620591 964.790893 0.000000
-160.620822 952.013182 0.000000
-159.886150 952.409803 0.000000
-165.928843 939.487615 0.000000
-165.242687 940.139769 0.000000
-171.326794 927.087151 0.000000
-170.685876 927.995234 0.000000
-176.810488 914.825090 0.000000
-177.587848 913.873700 0.000000
-183.106724 901.500766 0.000000
-182.375303 902.714071 0.000000
-188.705858 889.291586 0.000000
-188.016115 890.766027 0.000000
-194.379877 877.257839 0.000000
-195.199104 875.723717 0.000000
-200.901119 863.611612 0.000000
-200.123198 865.410007 0.000000
-206.671153 851.697760 0.000000
-207.575390 849.829790 0.000000
-213.366642 837.858314 0.000000
-214.396570 835.917228 0.000000
-220.204595 823.894557 0.000000
-205.930875 853.755806 0.000000
-221.358725 821.877262 0.000000
-227.178284 809.811762 0.000000
-228.455642 807.712833 0.000000
-234.281784 795.612627 0.000000
-235.678922 793.430306 0.000000
-241.506789 781.303768 0.000000
-243.021535 779.032339 0.000000
-248.846076 766.888751 0.000000
-250.474609 764.524555 0.000000
-256.291729 752.371768 0.000000
-258.029906 749.910403 0.000000
-263.834566 737.758874 0.000000
-265.677704 735.195783 0.000000
-240.163203 783.770814 0.000000
-271.466132 723.053999 0.000000
-273.408994 720.384434 0.000000
-279.176529 708.263486 0.000000
-281.213390 705.482549 0.000000
-286.956649 693.391590 0.000000
-289.081290 690.494206 0.000000
-294.796055 678.444962 0.000000
-297.002165 675.425362 0.000000
-277.301594 711.236035 0.000000
-237.256493 791.455941 0.000000
-302.685485 663.427641 0.000000
-304.965144 660.282173 0.000000
-310.613531 648.347752 0.000000
-312.960209 645.069294 0.000000
-151.348560 977.736183 0.000000
-318.570640 633.209746 0.000000
-320.976170 629.793892 0.000000
-316.299036 636.798957 0.000000
-326.545861 618.020996 0.000000
-329.002876 614.461102 0.000000
-334.528978 602.787500 0.000000
-337.029174 599.078572 0.000000
-275.522968 717.922873 0.000000
-342.509807 587.515465 0.000000
-345.045004 583.652005 0.000000
-350.477439 572.212960 0.000000
-353.039416 568.189584 0.000000
-358.422083 556.886167 0.000000
-361.002595 552.697637 0.000000
-366.333058 541.543615 0.000000
-368.923924 537.184917 0.000000
-374.201142 526.191423 0.000000
-376.794258 521.657800 0.000000
-132.176298 1030.224995 0.000000
-307.394785 657.331523 0.000000
-382.015348 510.839801 0.000000
-384.602763 506.126846 0.000000
-339.645330 595.540321 0.000000
-348.015922 576.380576 0.000000
-389.766801 495.495397 0.000000
-392.340494 490.599576 0.000000
-379.448931 517.245976 0.000000
-114.691238 1082.549727 0.000000
-397.445560 480.167617 0.000000
-399.998426 475.084394 0.000000
-159.338774 953.029427 0.000000
-106.383621 1089.192473 0.000000
-128.915713 1027.003421 0.000000
-405.042829 464.864198 0.000000
-407.567066 459.591455 0.000000
-65.254616 1214.400078 0.000000
-379.487249 515.658080 0.000000
-79.058108 1171.949955 0.000000
-412.549120 449.594876 0.000000
-415.038093 444.129191 0.000000
-410.106317 454.387888 0.000000
-417.530249 438.719130 0.000000
-412.646726 449.253030 0.000000
-420.010995 433.362739 0.000000
-424.840957 423.089405 0.000000
-427.256168 417.508137 0.000000
-422.464599 428.055556 0.000000
-429.631355 411.959155 0.000000
-434.374228 401.701518 0.000000
-436.665579 395.909123 0.000000
-441.358552 385.952761 0.000000
-443.561073 379.916352 0.000000
-448.201003 370.275646 0.000000
-450.310135 363.995678 0.000000
-98.754317 1133.192773 0.000000
-445.680173 373.867814 0.000000
-452.324882 357.684342 0.000000
-456.906918 348.158186 0.000000
-458.813463 341.586841 0.000000
-463.344622 332.417207 0.000000
-465.140321 325.588115 0.000000
-469.617216 316.784657 0.000000
-471.299111 309.702468 0.000000
-37.033410 1289.339102 0.000000
-475.718816 301.272165 0.000000
-477.284413 293.942233 0.000000
-472.837121 302.517897 0.000000
-478.698516 286.492526 0.000000
-410.076048 455.117722 0.000000
-52.358188 1251.673129 0.000000
-483.090075 278.320822 0.000000
-484.378827 270.613436 0.000000
-447.695023 367.794331 0.000000
-479.939685 278.902256 0.000000
-485.488842 262.747955 0.000000
-489.872717 254.893417 0.000000
-490.850903 246.762975 0.000000
-495.174897 239.344486 0.000000
-496.020754 230.960008 0.000000
-84.033195 1180.558086 0.000000
-491.624861 238.433443 0.000000
-496.659095 222.361721 0.000000
-500.992668 215.351290 0.000000
-501.495508 206.497687 0.000000
-505.761294 199.948817 0.000000
-497.070050 213.521888 0.000000
-501.769845 197.389211 0.000000
-474.021839 308.501072 0.000000
-497.234184 204.409163 0.000000
-501.797192 187.995317 0.000000
-70.061393 1223.116369 0.000000
-497.131540 194.989540 0.000000
-492.510840 211.957473 0.000000
-446.017044 376.535774 0.000000
-90.212226 1137.494441 0.000000
-215.603148 834.180296 0.000000
-143.686951 989.712740 0.000000
-59.779251 1251.080537 0.000000
-501.559010 178.283163 0.000000
-506.158059 171.836715 0.000000
-496.742140 185.228141 0.000000
-49.479035 1275.154554 0.000000
-505.786623 161.851135 0.000000
-510.311101 155.943464 0.000000
-28.264058 1307.935491 0.000000
-28.105520 1306.565542 0.000000
-25.165608 1311.356295 0.000000
-25.158301 1310.122412 0.000000
-41.444174 1299.884120 0.000000
-417.514588 440.072092 0.000000
-415.090144 445.822663 0.000000
-422.455382 431.000958 0.000000
-420.077432 436.958985 0.000000
-427.365242 422.358857 0.000000
-425.032201 428.505614 0.000000
-432.238569 414.124519 0.000000
-429.949285 420.442726 0.000000
-422.727596 434.682806 0.000000
-437.069837 406.279234 0.000000
-434.823513 412.752954 0.000000
-441.855884 398.802192 0.000000
-22.388327 1314.633936 0.000000
-22.510495 1313.539820 0.000000
-509.807090 145.705792 0.000000
-514.249874 140.325523 0.000000
-444.081618 392.197576 0.000000
-424.872707 422.793245 0.000000
-448.777336 384.938870 0.000000
-450.976027 378.204789 0.000000
-439.652018 405.416763 0.000000
-19.900588 1317.775751 0.000000
-20.132947 1316.825064 0.000000
-22.626056 1312.396510 0.000000
-20.354360 1315.829685 0.000000
-22.748155 1311.221580 0.000000
-20.577708 1314.805676 0.000000
-22.887925 1310.031117 0.000000
-18.310220 1319.140400 0.000000
-20.813675 1313.768383 0.000000
-23.054694 1308.839762 0.000000
-22.243899 1315.659967 0.000000
-513.614249 129.856295 0.000000
-509.028243 135.097535 0.000000
-517.968944 124.990229 0.000000
-518.482278 135.323657 0.000000
-522.112127 120.464599 0.000000
-522.521094 130.666391 0.000000
-526.061452 116.248793 0.000000
-526.382475 126.322830 0.000000
-529.833191 112.315232 0.000000
-530.080826 122.265626 0.000000
-533.442873 108.638654 0.000000
-533.629509 118.470011 0.000000
-530.124644 131.964638 0.000000
-533.622889 128.068132 0.000000
-529.976584 141.433208 0.000000
-455.580270 371.168197 0.000000
-457.745557 364.306441 0.000000
-28.573901 1312.318556 0.000000
-21.071547 1312.731139 0.000000
-23.256286 1307.660550 0.000000
-25.346272 1303.491756 0.000000
-25.496032 1302.184612 0.000000
-27.691725 1297.733513 0.000000
-27.794783 1296.311982 0.000000
-30.094478 1291.574961 0.000000
-30.156269 1290.052674 0.000000
-32.558332 1285.025856 0.000000
-32.584097 1283.417491 0.000000
-35.086724 1278.097606 0.000000
-35.082082 1276.417035 0.000000
-37.683055 1270.802552 0.000000
-37.653406 1269.064028 0.000000
-40.351062 1263.152753 0.000000
-40.301662 1261.370664 0.000000
-43.094207 1255.162024 0.000000
-43.030267 1253.350996 0.000000
-40.362739 1259.694170 0.000000
-43.084142 1251.655942 0.000000
-45.842372 1245.020347 0.000000
-45.893674 1243.320620 0.000000
-48.741691 1236.392898 0.000000
-48.794370 1234.703442 0.000000
-51.731288 1227.484705 0.000000
-51.789433 1225.819122 0.000000
-54.814081 1218.312430 0.000000
-54.881380 1216.684564 0.000000
-57.993284 1208.891801 0.000000
-58.073159 1207.315242 0.000000
-61.271481 1199.240197 0.000000
-61.367093 1197.728188 0.000000
-64.651005 1189.375294 0.000000
-64.765202 1187.940607 0.000000
-68.134365 1179.313494 0.000000
-68.269617 1177.968369 0.000000
-71.723054 1169.073249 0.000000
-71.881562 1167.828844 0.000000
-75.418978 1158.670878 0.000000
-75.601872 1157.539575 0.000000
-79.222816 1148.125048 0.000000
-79.431670 1147.116382 0.000000
-83.135232 1137.453652 0.000000
-83.370924 1136.577410 0.000000
-87.157010 1126.673207 0.000000
-87.419644 1125.939852 0.000000
-91.288033 1115.801566 0.000000
-91.578003 1115.219373 0.000000
-95.527826 1104.856314 0.000000
-95.845040 1104.433338 0.000000
-99.876136 1093.853084 0.000000
-100.220218 1093.596632 0.000000
-104.331707 1082.808661 0.000000
-104.701977 1082.725253 0.000000
-108.892874 1071.739377 0.000000
-109.288359 1071.834769 0.000000
-113.558243 1060.659508 0.000000
-113.977724 1060.938749 0.000000
-118.325185 1049.584942 0.000000
-118.767451 1050.051860 0.000000
-123.191810 1038.528522 0.000000
-123.654783 1039.187838 0.000000
-128.154837 1027.505259 0.000000
-128.637027 1028.359465 0.000000
-133.211116 1016.528358 0.000000
-133.710923 1017.579263 0.000000
-138.357840 1005.609176 0.000000
-138.872843 1006.859462 0.000000
-143.591220 994.759957 0.000000
-144.119674 996.210130 0.000000
-148.907244 983.992247 0.000000
-149.447356 985.642212 0.000000
-154.302474 973.315388 0.000000
-154.851647 975.165996 0.000000
-159.772535 962.739589 0.000000
-160.328949 964.789679 0.000000
-165.312934 952.274343 0.000000
-165.874519 954.522766 0.000000
-170.919876 941.927001 0.000000
-171.484621 944.372168 0.000000
-176.588857 931.705222 0.000000
-177.154808 934.345104 0.000000
-182.314860 921.617375 0.000000
-182.880146 924.449531 0.000000
-188.094116 911.668339 0.000000
-188.656952 914.689963 0.000000
-193.921586 901.864684 0.000000
-194.480550 905.072188 0.000000
-199.793362 892.210518 0.000000
-200.346287 895.601356 0.000000
-205.704719 882.710726 0.000000
-206.250393 886.280751 0.000000
-211.650984 873.369567 0.000000
-212.188303 877.114420 0.000000
-217.628410 864.189452 0.000000
-218.155531 868.105840 0.000000
-223.632466 855.173576 0.000000
-223.196316 851.178558 0.000000
-229.233210 842.161555 0.000000
-229.658724 846.324569 0.000000
-235.289745 833.316977 0.000000
-234.956275 829.072517 0.000000
-241.038276 820.240009 0.000000
-240.798142 815.912586 0.000000
-235.703729 837.643390 0.000000
-246.902349 807.096661 0.000000
-246.756324 802.685265 0.000000
-252.878318 793.892211 0.000000
-252.827828 789.394727 0.000000
-258.963357 780.630513 0.000000
-259.008415 776.046536 0.000000
-265.153144 767.317123 0.000000
-265.294683 762.644762 0.000000
-271.443890 753.956572 0.000000
-271.681708 749.195230 0.000000
-259.006581 785.291248 0.000000
-277.831490 740.553492 0.000000
-278.165403 735.702281 0.000000
-284.310628 727.113810 0.000000
-284.740182 722.171954 0.000000
-290.876856 713.641984 0.000000
-291.401540 708.608240 0.000000
-297.524473 700.143534 0.000000
-298.142799 695.018474 0.000000
-304.247956 686.624222 0.000000
-304.958823 681.406828 0.000000
-292.023996 703.647947 0.000000
-259.146296 771.542848 0.000000
-283.975432 732.125380 0.000000
-311.041016 673.089680 0.000000
-311.842815 667.779619 0.000000
-317.898009 659.544669 0.000000
-318.788563 654.142095 0.000000
-205.245146 879.244916 0.000000
-312.743628 662.535968 0.000000
-319.778169 648.803315 0.000000
-325.789627 640.499532 0.000000
-326.865602 635.065396 0.000000
-320.868972 643.532723 0.000000
-328.041934 629.696915 0.000000
-333.998141 621.328743 0.000000
-335.256983 615.862112 0.000000
-341.168920 607.598385 0.000000
-342.506666 602.033821 0.000000
-195.124639 908.390384 0.000000
-348.369771 593.880802 0.000000
-349.783327 588.217530 0.000000
-322.063300 638.334633 0.000000
-303.633134 691.906133 0.000000
-343.943665 596.532825 0.000000
-351.293692 582.615053 0.000000
-212.804878 880.953635 0.000000
-357.078561 574.419253 0.000000
-358.658064 568.715269 0.000000
-177.812863 937.112438 0.000000
-347.052111 599.601341 0.000000
-240.644919 811.669720 0.000000
-352.901561 577.077091 0.000000
-360.332251 563.072232 0.000000
-366.028224 554.839923 0.000000
-367.763736 549.092122 0.000000
-187.624333 908.768164 0.000000
-373.395312 540.995142 0.000000
-375.187762 535.141916 0.000000
-160.985435 966.983227 0.000000
-134.325027 1018.798912 0.000000
-46.064335 1241.751575 0.000000
-380.751205 527.186182 0.000000
-382.594972 521.228440 0.000000
-378.991713 533.193442 0.000000
-377.067408 529.344771 0.000000
-109.813013 1072.114794 0.000000
-388.086740 513.419623 0.000000
-87.821519 1125.395579 0.000000
-389.977056 507.356983 0.000000
-395.393537 499.700916 0.000000
-354.607082 571.607933 0.000000
-170.456227 939.620673 0.000000
-61.600604 1196.383208 0.000000
-533.434536 137.452179 0.000000
-529.648730 150.691253 0.000000
-512.708069 119.012253 0.000000
-507.960755 124.082993 0.000000
-536.904397 105.195942 0.000000
-397.324715 493.534175 0.000000
-402.663293 486.035381 0.000000
-75.926752 1156.591870 0.000000
-25.698129 1300.914209 0.000000
-536.572754 95.244483 0.000000
-525.513653 105.879008 0.000000
-462.256468 357.496434 0.000000
-464.382151 350.509127 0.000000
-539.947307 92.143991 0.000000
-404.629679 479.765123 0.000000
-399.329711 487.409576 0.000000
-153.863426 971.620436 0.000000
-104.102712 1083.086137 0.000000
-83.050658 1138.521668 0.000000
-58.056970 1210.628281 0.000000
-409.886955 472.429165 0.000000
-511.519204 107.759248 0.000000
-506.592340 112.624159 0.000000
-533.075780 146.640704 0.000000
-529.153295 159.757513 0.000000
-32.694103 1281.881983 0.000000
-539.468906 82.084031 0.000000
-542.757942 79.312123 0.000000
-137.962619 1004.529756 0.000000
-122.858427 1038.052451 0.000000
-71.716244 1170.500320 0.000000
-459.908749 357.435554 0.000000
-466.498497 343.504337 0.000000
-470.878744 336.818274 0.000000
-472.942023 329.682445 0.000000
-468.595095 336.476111 0.000000
-474.977915 322.514676 0.000000
-479.232778 315.975034 0.000000
-481.202218 308.670944 0.000000
-485.363698 302.388089 0.000000
-487.261139 294.951298 0.000000
-491.329107 288.925554 0.000000
-493.148936 281.360302 0.000000
-411.882706 466.056158 0.000000
-417.056456 458.886934 0.000000
-35.185082 1279.853633 0.000000
-502.935747 129.561365 0.000000
-501.359631 117.887708 0.000000
-497.607307 135.490532 0.000000
-495.791871 123.593099 0.000000
-491.946763 141.919724 0.000000
-489.856007 129.789841 0.000000
-485.923896 148.904394 0.000000
-483.516717 136.532960 0.000000
-479.506592 156.503820 0.000000
-481.837840 168.443001 0.000000
-499.451110 105.686803 0.000000
-400.768645 492.341691 0.000000
-475.363980 176.919698 0.000000
-477.610052 188.384620 0.000000
-536.775141 133.714874 0.000000
-543.188876 89.233104 0.000000
-497.122073 275.593941 0.000000
-498.859616 267.904048 0.000000
-494.908630 273.729741 0.000000
-500.530061 260.141253 0.000000
-504.387662 254.587037 0.000000
-505.964181 246.696891 0.000000
-502.121132 252.294694 0.000000
-507.454670 238.715307 0.000000
-511.206321 233.400447 0.000000
-503.619593 244.352600 0.000000
-508.846581 230.630055 0.000000
-532.558456 155.650783 0.000000
-27.683179 1313.629569 0.000000
-525.639493 164.129037 0.000000
-470.660437 329.417872 0.000000
-429.717513 416.240604 0.000000
-528.502549 168.649547 0.000000
-471.100634 197.754433 0.000000
-473.259433 208.703481 0.000000
-43.596538 1303.082600 0.000000
-545.917063 76.706181 0.000000
-460.130862 364.471348 0.000000
-466.746631 218.982105 0.000000
-468.799353 229.366555 0.000000
-419.075474 452.412175 0.000000
-424.162844 445.413925 0.000000
-422.183448 452.011626 0.000000
-39.840741 1296.757453 0.000000
-43.279752 1257.083125 0.000000
-483.424364 309.776819 0.000000
-68.545950 1176.800288 0.000000
-355.696863 564.319501 0.000000
-96.298334 1104.199315 0.000000
-354.202315 585.996167 0.000000
-352.903698 591.863625 0.000000
-360.000231 578.374232 0.000000
-358.720594 584.378191 0.000000
-365.761428 571.006354 0.000000
-364.499284 577.139466 0.000000
-357.530392 590.425419 0.000000
-371.483072 563.885300 0.000000
-370.238143 570.138783 0.000000
-230.162691 850.570104 0.000000
-236.194691 842.046709 0.000000
-230.741534 854.893820 0.000000
-236.758770 846.523740 0.000000
-231.391013 859.292789 0.000000
-237.392460 851.070989 0.000000
-242.789496 838.313130 0.000000
-243.406760 843.004327 0.000000
-248.829553 830.264213 0.000000
-249.429893 835.094980 0.000000
-254.875416 822.377210 0.000000
-255.458450 827.343122 0.000000
-260.924402 814.651460 0.000000
-261.489862 819.748060 0.000000
-232.107934 863.763124 0.000000
-266.972797 807.087365 0.000000
-267.520811 812.309833 0.000000
-262.117699 824.895563 0.000000
-268.130103 817.579906 0.000000
-262.805222 830.091681 0.000000
-266.489336 801.914082 0.000000
-272.551690 794.384999 0.000000
-272.151241 789.134443 0.000000
-278.223288 781.645790 0.000000
-277.906670 776.317464 0.000000
-283.985245 768.873298 0.000000
-283.753061 763.466797 0.000000
-289.833773 756.072476 0.000000
-289.686390 750.587517 0.000000
-268.798308 822.895127 0.000000
-263.550151 835.333909 0.000000
-257.576333 842.558999 0.000000
-295.765936 743.247016 0.000000
-295.703667 737.682895 0.000000
-274.138884 810.416429 0.000000
-269.522848 828.253435 0.000000
-264.349442 840.620723 0.000000
-301.777465 730.401423 0.000000
-301.799838 724.759299 0.000000
-226.138438 871.992273 0.000000
-226.937171 876.386725 0.000000
-221.003167 884.617787 0.000000
-221.881303 888.938652 0.000000
-215.985878 897.166619 0.000000
-216.942052 901.414838 0.000000
-222.819114 893.329557 0.000000
-211.088166 909.634696 0.000000
-284.286686 774.324930 0.000000
-283.592558 758.108229 0.000000
-270.301300 833.652863 0.000000
-265.201033 845.949758 0.000000
-307.864261 717.540715 0.000000
-307.971130 711.820577 0.000000
-307.832094 723.300871 0.000000
-212.119899 913.812825 0.000000
-206.310216 922.019551 0.000000
-205.261375 917.986044 0.000000
-200.531406 930.349603 0.000000
-199.467050 926.467481 0.000000
-194.786489 938.808981 0.000000
-193.706310 935.077591 0.000000
-189.077396 947.389068 0.000000
-187.983321 943.811174 0.000000
-183.408368 956.085533 0.000000
-182.302864 952.663772 0.000000
-177.785675 964.892506 0.000000
-176.669325 961.630967 0.000000
-232.888947 868.301528 0.000000
-272.014976 744.511573 0.000000
-372.812985 557.667428 0.000000
-378.473642 550.668607 0.000000
-266.072894 796.792732 0.000000
-46.146611 1268.016161 0.000000
-51.976401 1224.300169 0.000000
-379.867714 544.366235 0.000000
-40.531149 1258.129308 0.000000
-466.711872 351.019211 0.000000
-295.900416 748.852849 0.000000
-474.960709 219.068481 0.000000
-470.372218 239.193963 0.000000
-464.231660 250.338927 0.000000
-465.670520 259.595250 0.000000
-459.580482 271.587553 0.000000
-460.862771 280.234995 0.000000
-466.655769 268.390767 0.000000
-461.689949 288.461613 0.000000
-467.224646 276.786779 0.000000
-462.091708 296.323222 0.000000
-456.616249 308.703678 0.000000
-456.834839 316.012368 0.000000
-451.434825 329.081273 0.000000
-451.455616 335.822208 0.000000
-446.146255 349.557684 0.000000
-445.955544 355.719143 0.000000
-440.749836 370.097068 0.000000
-440.335572 375.669404 0.000000
-451.092276 342.329327 0.000000
-435.247615 390.659041 0.000000
-434.596858 395.637178 0.000000
-429.638094 411.204346 0.000000
-428.738277 415.588006 0.000000
-423.917565 431.693302 0.000000
-422.757197 435.489043 0.000000
-427.498664 419.928274 0.000000
-421.276687 439.291678 0.000000
-416.650682 455.307151 0.000000
-414.922767 458.581425 0.000000
-410.413199 475.013513 0.000000
-408.434839 477.772519 0.000000
-404.041944 494.579032 0.000000
-401.812032 496.838497 0.000000
-397.534343 513.978798 0.000000
-395.051612 515.757584 0.000000
-390.884762 533.186830 0.000000
-388.151822 534.507928 0.000000
-392.404363 517.749575 0.000000
-385.286589 536.085441 0.000000
-381.111433 553.071080 0.000000
-378.035294 554.256075 0.000000
-373.929243 571.434045 0.000000
-370.651091 572.250147 0.000000
-366.606004 589.581968 0.000000
-363.136690 590.054271 0.000000
-359.142635 607.505235 0.000000
-355.495054 607.660281 0.000000
-351.541566 625.194079 0.000000
-347.730964 625.059096 0.000000
-343.806157 642.645102 0.000000
-339.849901 642.247073 0.000000
-335.942686 659.852913 0.000000
-331.859831 659.218714 0.000000
-327.958609 676.817636 0.000000
-323.769578 675.972539 0.000000
-319.863551 693.537274 0.000000
-315.589017 692.508625 0.000000
-311.668633 710.013516 0.000000
-307.330704 708.824394 0.000000
-303.385901 726.247558 0.000000
-299.006599 724.923196 0.000000
-295.028709 742.243617 0.000000
-290.630883 740.805421 0.000000
-286.611755 758.006742 0.000000
-282.218070 756.475391 0.000000
-278.151405 773.540194 0.000000
-273.784311 771.934640 0.000000
-269.664537 788.850812 0.000000
-265.345802 787.188120 0.000000
-261.169561 803.941978 0.000000
-256.920016 802.237518 0.000000
-252.684682 818.820116 0.000000
-248.523931 817.087587 0.000000
-244.228582 833.488610 0.000000
-240.174986 831.740177 0.000000
-235.820356 847.952530 0.000000
-231.890992 846.197978 0.000000
-227.478514 862.214663 0.000000
-223.688397 860.464649 0.000000
-219.220848 876.280092 0.000000
-223.236749 878.463706 0.000000
-214.915004 892.301129 0.000000
-215.584146 874.540785 0.000000
-219.171676 894.916258 0.000000
-210.774864 908.501147 0.000000
-215.287010 911.542764 0.000000
-206.803426 924.847623 0.000000
-202.490057 921.886136 0.000000
-198.437895 937.954585 0.000000
-203.000992 941.308494 0.000000
-194.542905 954.113188 0.000000
-190.211311 950.865931 0.000000
-186.232834 966.724600 0.000000
-190.802899 970.325602 0.000000
-182.397478 982.617073 0.000000
-257.203707 821.048788 0.000000
-187.212676 986.555485 0.000000
-178.700862 998.505114 0.000000
-244.701569 815.811652 0.000000
-183.766119 1002.760388 0.000000
-175.134615 1014.351906 0.000000
-170.380829 1010.276514 0.000000
-166.710083 1025.771628 0.000000
-171.688731 1030.116333 0.000000
-163.148779 1041.170844 0.000000
-286.496873 739.847790 0.000000
-319.741841 675.581768 0.000000
-359.668938 590.875620 0.000000
-382.327186 537.913853 0.000000
-182.142384 963.586027 0.000000
-282.832053 775.665106 0.000000
-220.250917 859.139520 0.000000
-212.300197 873.214603 0.000000
-192.581866 990.996258 0.000000
-168.350431 1045.756241 0.000000
-159.684465 1056.434173 0.000000
-162.272207 1021.869855 0.000000
-165.103920 1061.230941 0.000000
-156.302324 1071.521139 0.000000
-308.007971 728.090343 0.000000
-217.142857 858.208085 0.000000
-209.345144 872.271152 0.000000
-151.282404 1066.961037 0.000000
-147.786429 1081.673569 0.000000
-152.984647 1086.393552 0.000000
-144.348988 1096.164281 0.000000
-149.711967 1101.011626 0.000000
-140.952193 1110.397270 0.000000
-146.463782 1115.334953 0.000000
-137.576358 1124.335234 0.000000
-332.298999 678.150665 0.000000
-174.170930 1050.803609 0.000000
-143.161198 1077.336280 0.000000
-214.342900 857.641355 0.000000
-206.696753 871.683523 0.000000
-201.679893 886.157595 0.000000
-199.190070 885.553540 0.000000
-194.159140 899.867614 0.000000
-132.545219 1119.662585 0.000000
-129.071017 1133.225543 0.000000
-134.201699 1137.940935 0.000000
-125.598531 1146.458907 0.000000
-130.804992 1151.181360 0.000000
-122.107803 1159.330641 0.000000
-412.947035 461.933442 0.000000
-223.866962 898.034145 0.000000
-355.397249 625.756001 0.000000
-127.362337 1164.024882 0.000000
-118.578694 1171.811513 0.000000
-191.833350 899.251631 0.000000
-186.794697 913.399123 0.000000
-120.955415 1141.998701 0.000000
-123.851825 1176.439548 0.000000
-114.991177 1183.871697 0.000000
-155.719099 1106.235610 0.000000
-120.250374 1188.395941 0.000000
-111.324008 1195.485299 0.000000
-106.639679 1191.221203 0.000000
-102.939178 1202.499094 0.000000
-107.556983 1206.630639 0.000000
-99.154955 1213.319281 0.000000
-103.670595 1217.287716 0.000000
-95.270476 1223.664852 0.000000
-196.983304 885.272182 0.000000
-184.637176 912.775169 0.000000
-179.596553 926.752600 0.000000
-467.408235 284.836110 0.000000
-222.116309 843.429414 0.000000
-219.460543 843.238502 0.000000
-227.213523 828.897822 0.000000
-99.646956 1227.441014 0.000000
-91.271661 1233.519334 0.000000
-95.471478 1237.077405 0.000000
-87.147408 1242.868112 0.000000
-136.626027 1156.160808 0.000000
-91.132256 1246.183023 0.000000
-82.886149 1251.701693 0.000000
-399.804856 512.410965 0.000000
-87.457701 1229.953320 0.000000
-98.790348 1198.473597 0.000000
-445.913124 343.159146 0.000000
-86.616417 1254.752357 0.000000
-78.481727 1260.009159 0.000000
-75.304770 1257.120074 0.000000
-71.031449 1265.158240 0.000000
-73.929585 1267.782215 0.000000
-424.704609 427.875115 0.000000
-66.640336 1272.670969 0.000000
-69.229203 1275.012180 0.000000
-224.691853 829.078032 0.000000
-232.426757 814.630208 0.000000
-425.967740 424.252897 0.000000
-181.870833 927.696369 0.000000
-174.668393 940.860753 0.000000
-377.143391 570.950517 0.000000
-343.988120 625.324590 0.000000
-259.269283 852.945440 0.000000
-18.938285 1317.387456 0.000000
-19.274713 1316.505341 0.000000
-17.242105 1320.895488 0.000000
-17.645704 1320.170077 0.000000
-15.706501 1324.300512 0.000000
-261.343558 785.997117 0.000000
-199.506245 867.396682 0.000000
-205.344921 855.992799 0.000000
-199.040852 869.560342 0.000000
-204.904284 858.398469 0.000000
-211.238639 844.786201 0.000000
-210.819921 847.428733 0.000000
-217.181610 833.783596 0.000000
-216.782117 836.657409 0.000000
-223.168888 822.989224 0.000000
-222.785246 826.089847 0.000000
-229.194930 812.407473 0.000000
-228.824786 815.728585 0.000000
-235.253606 802.043400 0.000000
-235.732987 798.633935 0.000000
-241.806865 788.272800 0.000000
-242.395278 784.772604 0.000000
-248.479000 774.422721 0.000000
-249.175877 770.829464 0.000000
-255.265177 760.497373 0.000000
-256.069262 756.809235 0.000000
-262.158995 746.503001 0.000000
-263.069514 742.716767 0.000000
-269.154798 732.444130 0.000000
-270.169433 728.558527 0.000000
-276.245411 718.327276 0.000000
-277.362597 714.339174 0.000000
-216.509402 839.674367 0.000000
-198.717427 871.892101 0.000000
-283.424140 704.157700 0.000000
-284.641072 700.065428 0.000000
-290.683963 689.940768 0.000000
-291.998007 685.741647 0.000000
-289.493965 694.253788 0.000000
-268.265153 736.450655 0.000000
-234.894511 805.578894 0.000000
-298.016940 675.682789 0.000000
-299.424280 671.375908 0.000000
-305.415172 661.390024 0.000000
-306.912433 656.972809 0.000000
-312.870162 647.068956 0.000000
-314.453362 642.539470 0.000000
-247.905419 778.140339 0.000000
-144.756753 997.819304 0.000000
-113.274616 1060.569704 0.000000
-30.104329 1293.147308 0.000000
-181.814727 904.131674 0.000000
-76.985106 1202.526641 0.000000
-161.557009 951.851892 0.000000
-91.145973 1116.579117 0.000000
-123.227017 1056.498717 0.000000
-119.586253 1051.971408 0.000000
-480.986036 271.146843 0.000000
-252.282145 762.369951 0.000000
-460.594228 334.950245 0.000000
-98.100540 1113.606181 0.000000
-226.071204 812.104419 0.000000
-64.685650 1190.983100 0.000000
-407.630079 460.698474 0.000000
-291.367848 687.800258 0.000000
-91.268927 1157.383956 0.000000
-317.103409 665.007995 0.000000
-323.930164 651.549555 0.000000
-323.142065 657.158414 0.000000
-329.936578 643.789025 0.000000
-329.154462 649.535928 0.000000
-322.445421 662.818452 0.000000
-328.461104 655.329367 0.000000
-335.137486 642.136439 0.000000
-247.132951 811.587488 0.000000
-439.553520 381.097502 0.000000
-522.702274 140.575157 0.000000
-405.170939 465.168415 0.000000
-58.714611 1233.757938 0.000000
-17.673543 1320.788993 0.000000
-323.516159 626.562191 0.000000
-300.553014 666.756060 0.000000
-72.021119 1193.744321 0.000000
-15.257584 1324.868552 0.000000
-13.814774 1328.018735 0.000000
-13.317973 1328.418174 0.000000
-11.967506 1331.319820 0.000000
-11.419682 1331.539750 0.000000
-10.161302 1334.199428 0.000000
-9.559202 1334.229318 0.000000
-8.391376 1336.655076 0.000000
-10.853694 1331.727663 0.000000
-8.928096 1334.216137 0.000000
-10.258139 1331.870916 0.000000
-106.545930 1108.180947 0.000000
-332.147348 606.656178 0.000000
-141.550545 1003.913400 0.000000
-184.021486 900.502727 0.000000
-487.383373 117.033181 0.000000
-480.698436 123.477747 0.000000
-484.520461 103.591795 0.000000
-363.822553 546.028663 0.000000
-254.723199 755.028600 0.000000
-51.808538 1229.294806 0.000000
-102.442498 1187.099435 0.000000
-483.125217 301.318777 0.000000
-17.319549 1321.535835 0.000000
-417.667263 439.180951 0.000000
-420.110163 434.236982 0.000000
-412.876462 450.917477 0.000000
-415.357700 446.324830 0.000000
-408.107265 463.297964 0.000000
-422.480062 429.346201 0.000000
-461.434484 339.178760 0.000000
-275.492509 821.316444 0.000000
-303.209197 708.109133 0.000000
-220.271467 915.105489 0.000000
-229.035657 901.694935 0.000000
-225.767011 919.232583 0.000000
-234.715002 905.945844 0.000000
-231.815826 923.973063 0.000000
-240.945202 910.838389 0.000000
-238.463455 929.378711 0.000000
-247.767988 916.428881 0.000000
-250.072561 897.469709 0.000000
-257.043155 903.235213 0.000000
-259.168794 883.851203 0.000000
-266.248967 889.781227 0.000000
-268.201562 869.966434 0.000000
-229.154552 942.100285 0.000000
-236.244779 948.001679 0.000000
-226.727122 960.277736 0.000000
-510.037601 96.060834 0.000000
-514.858185 91.787400 0.000000
-271.298048 758.790919 0.000000
-228.572778 819.176848 0.000000
-301.898551 719.160472 0.000000
-505.182052 208.805270 0.000000
-112.677666 1210.842028 0.000000
-475.392693 287.758443 0.000000
-119.332871 1050.698867 0.000000
-419.158587 448.911374 0.000000
-498.196647 258.230345 0.000000
-464.188513 343.642917 0.000000
-494.140829 247.540662 0.000000
-321.837236 668.527253 0.000000
-327.854258 661.166403 0.000000
-413.942027 459.715471 0.000000
-347.118641 585.738785 0.000000
-348.857985 580.454381 0.000000
-542.130069 69.155187 0.000000
-538.785310 71.769452 0.000000
-495.329270 283.220785 0.000000
-172.213662 973.806931 0.000000
-171.087190 970.708700 0.000000
-166.695759 982.826272 0.000000
-165.559484 979.894059 0.000000
-184.620428 959.379786 0.000000
-260.192831 858.204631 0.000000
-234.286100 966.646605 0.000000
-224.519543 978.460937 0.000000
-129.723910 1181.249997 0.000000
-275.350320 876.043726 0.000000
-277.142639 855.791488 0.000000
-531.894374 164.498589 0.000000
-535.862760 151.788071 0.000000
-527.708791 177.383618 0.000000
-524.228563 181.829146 0.000000
-254.284659 865.223729 0.000000
-435.491630 385.547343 0.000000
-276.250178 826.824783 0.000000
-429.201878 438.708172 0.000000
-431.197041 432.016012 0.000000
-436.144813 425.483152 0.000000
-438.150912 418.698412 0.000000
-513.263147 79.877317 0.000000
-517.970085 76.171990 0.000000
-385.464191 537.493553 0.000000
-386.915776 531.108640 0.000000
-384.090807 543.909000 0.000000
-546.309404 86.495173 0.000000
-173.401242 977.008729 0.000000
-161.233612 991.948918 0.000000
-160.088474 989.181065 0.000000
-314.021590 704.669628 0.000000
-477.458626 109.673099 0.000000
-281.456288 814.522478 0.000000
-16.167527 1323.732435 0.000000
-18.070865 1319.455775 0.000000
-501.025834 270.136235 0.000000
-8.256012 1334.147342 0.000000
-9.619508 1331.956179 0.000000
-472.659766 164.788698 0.000000
-255.235070 922.779924 0.000000
-541.296141 58.744419 0.000000
-537.888057 61.181700 0.000000
-544.556279 56.454721 0.000000
-481.263476 89.404956 0.000000
-488.183175 84.245279 0.000000
-10.745490 1334.138472 0.000000
-464.626687 358.095253 0.000000
-471.110252 344.856794 0.000000
-155.828419 1001.165489 0.000000
-154.677749 998.561139 0.000000
-25.969254 1313.026243 0.000000
-68.348964 1262.422229 0.000000
-410.630971 459.094306 0.000000
-403.377114 476.356061 0.000000
-400.734967 480.249812 0.000000
-234.650097 809.232827 0.000000
-228.433328 822.744176 0.000000
-314.852829 652.265279 0.000000
-177.065048 942.121309 0.000000
-169.854564 955.080049 0.000000
-472.228656 257.437934 0.000000
-164.490319 977.071161 0.000000
-184.455875 928.976459 0.000000
-509.876536 193.835374 0.000000
-509.234631 202.685864 0.000000
-25.154312 1307.509977 0.000000
-192.687908 931.434136 0.000000
-175.617472 958.472247 0.000000
-293.439346 681.665209 0.000000
-270.500072 850.409966 0.000000
-279.302977 835.858615 0.000000
-285.953007 841.316687 0.000000
-287.992945 821.004349 0.000000
-294.586467 826.397592 0.000000
-296.538725 805.814379 0.000000
-303.057633 811.215934 0.000000
-304.916819 790.305647 0.000000
-237.852322 888.066272 0.000000
-243.111407 781.405983 0.000000
-271.314633 724.800806 0.000000
-172.574591 939.925643 0.000000
-257.003561 753.251796 0.000000
-480.057556 293.346578 0.000000
-505.012326 236.301176 0.000000
-531.095334 173.199291 0.000000
-526.782652 185.975026 0.000000
-499.263491 277.814949 0.000000
-266.102826 851.319317 0.000000
-104.466529 1231.213332 0.000000
-530.170070 181.766571 0.000000
-261.164891 863.505210 0.000000
-457.787434 262.459434 0.000000
-453.242784 284.585950 0.000000
-62.129182 1279.652963 0.000000
-64.377999 1281.698509 0.000000
-60.001629 1277.430827 0.000000
-95.078732 1194.575008 0.000000
-98.697508 1183.137096 0.000000
-230.029322 815.175379 0.000000
-237.748759 800.638747 0.000000
-222.423928 829.564690 0.000000
-240.269107 800.027493 0.000000
-245.570838 785.957739 0.000000
-248.205857 785.274246 0.000000
-253.484669 771.133842 0.000000
-256.225478 770.370675 0.000000
-261.477931 756.171100 0.000000
-264.314872 755.320233 0.000000
-269.539026 741.070973 0.000000
-272.461678 740.123723 0.000000
-277.655185 725.837726 0.000000
-280.652499 724.784803 0.000000
-285.814505 710.473114 0.000000
-288.874849 709.304584 0.000000
-294.004123 694.981781 0.000000
-297.115446 693.687149 0.000000
-302.212193 679.365979 0.000000
-305.361852 677.934867 0.000000
-310.426444 663.630391 0.000000
-313.602288 662.049910 0.000000
-318.634715 647.779124 0.000000
-321.823577 646.038680 0.000000
-326.825286 631.817706 0.000000
-330.014939 629.903698 0.000000
-334.987112 615.750791 0.000000
-338.164826 613.651418 0.000000
-343.109595 599.583578 0.000000
-346.263119 597.286251 0.000000
-351.181880 583.323902 0.000000
-354.299395 580.816078 0.000000
-359.194526 566.977660 0.000000
-362.264697 564.246934 0.000000
-367.137677 550.554085 0.000000
-370.149805 547.588379 0.000000
-375.002877 534.060637 0.000000
-432.606654 419.243896 0.000000
-476.362763 280.134974 0.000000
-470.737533 297.229284 0.000000
-483.748850 179.769128 0.000000
-466.281659 336.708124 0.000000
-308.532898 652.672495 0.000000
-316.157308 638.123082 0.000000
-204.272810 914.033719 0.000000
-322.038839 628.081277 0.000000
-323.820946 623.547528 0.000000
-478.351676 300.702357 0.000000
-308.156116 706.141862 0.000000
-302.076396 713.607299 0.000000
-548.958801 74.251105 0.000000
-71.975414 1277.158674 0.000000
-66.731005 1283.517857 0.000000
-232.399262 984.615664 0.000000
-222.483056 996.479271 0.000000
-207.414633 926.130210 0.000000
-213.206837 918.062037 0.000000
-208.757634 929.958769 0.000000
-214.375155 922.321410 0.000000
-427.261505 445.418134 0.000000
-392.442571 524.365948 0.000000
-393.949651 517.899999 0.000000
-419.826962 445.735376 0.000000
-414.498058 467.319751 0.000000
-311.321366 795.803280 0.000000
-313.104366 774.463761 0.000000
-59.378934 1287.846314 0.000000
-61.310353 1289.337097 0.000000
-396.000878 493.574891 0.000000
-258.865960 757.321475 0.000000
-28.529196 1310.399581 0.000000
-405.949119 472.581870 0.000000
-413.065223 454.982824 0.000000
-364.174144 553.719698 0.000000
-172.379344 956.650503 0.000000
-165.157515 969.386145 0.000000
-162.834425 967.852779 0.000000
-158.134204 981.932857 0.000000
-160.577773 983.754323 0.000000
-153.547518 996.060339 0.000000
-156.114381 998.160109 0.000000
-149.074023 1010.208571 0.000000
-151.765759 1012.575596 0.000000
-144.711407 1024.352446 0.000000
-147.529019 1026.971673 0.000000
-140.456764 1038.463749 0.000000
-143.399319 1041.320258 0.000000
-136.305936 1052.513371 0.000000
-510.126896 222.427483 0.000000
-159.047350 1000.609928 0.000000
-333.334402 628.276519 0.000000
-420.264165 458.631037 0.000000
-459.724307 351.206362 0.000000
-72.386613 1254.152625 0.000000
-275.610455 739.501342 0.000000
-65.884094 1259.613967 0.000000
-69.723445 1251.143817 0.000000
-250.094395 839.984355 0.000000
-91.433079 1205.614081 0.000000
-207.593821 888.429580 0.000000
-37.899718 1265.878168 0.000000
-38.170911 1264.443552 0.000000
-35.627515 1271.908512 0.000000
-35.990903 1270.603585 0.000000
-38.537358 1263.121699 0.000000
-33.533292 1277.789873 0.000000
-36.441923 1269.407644 0.000000
-38.996415 1261.917202 0.000000
-525.735809 194.437003 0.000000
-152.632472 1120.624680 0.000000
-162.432907 1111.848905 0.000000
-159.521728 1126.273416 0.000000
-169.921959 1117.862779 0.000000
-172.602892 1103.002697 0.000000
-192.888360 883.003307 0.000000
-192.681168 885.264198 0.000000
-186.891525 896.316932 0.000000
-186.799201 898.510006 0.000000
-181.052783 909.498759 0.000000
-192.604724 887.681994 0.000000
-186.833783 900.859448 0.000000
-192.650640 890.249440 0.000000
-189.417092 1007.521507 0.000000
-178.556339 913.146938 0.000000
-185.132266 899.733650 0.000000
-179.729590 912.658949 0.000000
-345.829281 605.375822 0.000000
-219.876336 954.612366 0.000000
-374.228684 551.486770 0.000000
-458.013988 371.437887 0.000000
-462.551100 365.160724 0.000000
-455.912923 378.400079 0.000000
-460.491663 372.218744 0.000000
-467.033073 359.176464 0.000000
-510.321206 184.762288 0.000000
-248.296144 825.495249 0.000000
-446.320484 385.600232 0.000000
-46.118476 1248.791300 0.000000
-46.455592 1250.850980 0.000000
-49.389870 1242.254497 0.000000
-43.590808 1259.106002 0.000000
-356.410837 566.210884 0.000000
-350.698910 575.251192 0.000000
-358.312183 560.890591 0.000000
-352.640889 570.134539 0.000000
-360.310559 555.650910 0.000000
-354.683678 565.108704 0.000000
-362.403954 550.497655 0.000000
-223.681898 820.031222 0.000000
-514.358805 179.075969 0.000000
-273.127758 831.164844 0.000000
-298.872844 785.623873 0.000000
-264.359237 845.772558 0.000000
-295.805932 726.692799 0.000000
-367.968229 541.183219 0.000000
-370.106062 535.901040 0.000000
-375.605213 526.736765 0.000000
-377.781174 521.324332 0.000000
-506.285117 228.125890 0.000000
-501.085245 242.328875 0.000000
-383.211520 512.319116 0.000000
-385.419196 506.775306 0.000000
-511.281709 214.092760 0.000000
-390.778208 497.936226 0.000000
-393.010848 492.260538 0.000000
-398.295406 483.595618 0.000000
-400.546942 477.786611 0.000000
-395.310204 486.647728 0.000000
-405.754310 469.303256 0.000000
-346.956012 579.725261 0.000000
-516.260363 64.077187 0.000000
-511.375445 67.488244 0.000000
-520.849294 60.914147 0.000000
-522.404154 72.733683 0.000000
-525.170030 57.974789 0.000000
-526.591052 69.537179 0.000000
-529.249575 55.237303 0.000000
-319.323030 779.905630 0.000000
-321.092988 758.224055 0.000000
-327.138148 763.563114 0.000000
-328.890096 741.584527 0.000000
-323.314550 737.187053 0.000000
-331.107047 720.329427 0.000000
-336.442131 724.542315 0.000000
-338.688826 703.100866 0.000000
-343.746790 707.087917 0.000000
-346.066098 685.477676 0.000000
-350.826000 689.176940 0.000000
-353.241005 667.461560 0.000000
-464.187336 207.962531 0.000000
-7.033831 1336.259678 0.000000
-473.793458 95.050087 0.000000
-469.849771 116.331353 0.000000
-484.915204 69.732155 0.000000
-549.315383 83.903843 0.000000
-546.522803 96.079913 0.000000
-167.198242 1132.280689 0.000000
-95.481643 1249.407127 0.000000
-90.660416 1257.671772 0.000000
-491.665958 65.452409 0.000000
-6.283217 1335.968700 0.000000
-16.646711 1323.174295 0.000000
-18.523615 1318.762841 0.000000
-293.471307 846.891042 0.000000
-242.346395 972.961710 0.000000
-540.248918 48.064208 0.000000
-178.034386 1123.781300 0.000000
-150.485042 1010.464501 0.000000
-149.332534 1008.028119 0.000000
-153.598968 996.078162 0.000000
-148.252714 1005.717292 0.000000
-144.057567 1017.576075 0.000000
-142.977552 1015.437489 0.000000
-138.857239 1027.195090 0.000000
-137.777814 1025.229569 0.000000
-133.734285 1036.877855 0.000000
-132.657486 1035.085211 0.000000
-128.691177 1046.618398 0.000000
-127.618656 1044.996966 0.000000
-123.731681 1056.403981 0.000000
-122.665656 1054.953150 0.000000
-147.249408 1003.535424 0.000000
-118.858386 1066.227064 0.000000
-117.801141 1064.945515 0.000000
-121.686276 1053.652043 0.000000
-116.832634 1063.816480 0.000000
-113.028283 1074.963285 0.000000
-112.072370 1074.003946 0.000000
-108.350523 1084.993929 0.000000
-107.408861 1084.202265 0.000000
-103.771026 1095.027256 0.000000
-102.844974 1094.398740 0.000000
-99.291749 1105.051384 0.000000
-100.295845 1105.681769 0.000000
-98.382188 1104.581287 0.000000
-94.914006 1115.051723 0.000000
-94.023214 1114.735828 0.000000
-90.639788 1125.016525 0.000000
-89.769808 1124.850157 0.000000
-86.472419 1134.931993 0.000000
-85.624306 1134.910394 0.000000
-82.413997 1144.785538 0.000000
-81.588264 1144.902989 0.000000
-78.465032 1154.566420 0.000000
-79.368972 1154.483078 0.000000
-75.467735 1164.164933 0.000000
-74.619201 1164.279487 0.000000
-357.658026 670.483015 0.000000
-360.182072 649.027521 0.000000
-364.207733 651.678140 0.000000
-379.040205 644.408185 0.000000
-366.922272 630.207772 0.000000
-529.130013 190.210259 0.000000
-524.579481 202.781290 0.000000
-14.823601 1327.200823 0.000000
-273.948976 896.547309 0.000000
-36.980058 1268.324644 0.000000
-39.543385 1260.831633 0.000000
-41.646733 1254.151838 0.000000
-42.210548 1253.078020 0.000000
-44.395679 1246.126897 0.000000
-44.976689 1245.071921 0.000000
-47.243643 1237.855446 0.000000
-47.842293 1236.831914 0.000000
-50.192728 1229.353322 0.000000
-50.810223 1228.374794 0.000000
-53.245605 1220.636718 0.000000
-53.885276 1219.717392 0.000000
-56.405083 1211.721489 0.000000
-57.066776 1210.870550 0.000000
-59.673064 1202.619272 0.000000
-60.358533 1201.847421 0.000000
-63.050705 1193.345340 0.000000
-63.761101 1192.661090 0.000000
-66.538883 1183.912751 0.000000
-45.649381 1244.148859 0.000000
-37.599418 1267.349223 0.000000
-399.401930 511.292852 0.000000
-400.961906 504.746583 0.000000
-395.537404 511.463498 0.000000
-402.599802 498.226994 0.000000
-34.504849 1275.546550 0.000000
-504.861400 264.966670 0.000000
-157.046109 1003.882933 0.000000
-124.878650 1057.998199 0.000000
-195.922245 942.622802 0.000000
-443.005692 412.341368 0.000000
-232.371440 1003.232422 0.000000
-220.954123 1014.462110 0.000000
-370.618546 632.134986 0.000000
-373.465895 610.998544 0.000000
-376.757902 612.474332 0.000000
-379.820854 591.421136 0.000000
-397.921660 517.864791 0.000000
-309.938430 816.864967 0.000000
-451.125321 275.539458 0.000000
-446.932197 298.490827 0.000000
-534.395417 169.256673 0.000000
-55.688009 1284.157473 0.000000
-53.967994 1282.051403 0.000000
-88.172040 1201.923879 0.000000
-84.554435 1212.631492 0.000000
-227.870041 816.010894 0.000000
-220.394713 830.336729 0.000000
-243.170212 786.937052 0.000000
-133.631501 1049.768186 0.000000
-129.471382 1063.522886 0.000000
-132.252957 1066.473526 0.000000
-125.407173 1077.175938 0.000000
-128.291167 1080.313813 0.000000
-121.431858 1090.700451 0.000000
-124.412398 1094.003768 0.000000
-117.538774 1104.066494 0.000000
-120.607726 1107.514008 0.000000
-113.719391 1117.244893 0.000000
-282.954664 711.939679 0.000000
-142.258711 1022.068020 0.000000
-151.317647 994.291437 0.000000
-299.240116 681.088131 0.000000
-315.596025 649.797178 0.000000
-186.453054 899.207775 0.000000
-191.876069 886.161440 0.000000
-331.928654 618.106915 0.000000
-348.149282 586.062735 0.000000
-380.037295 515.989905 0.000000
-364.590361 545.435457 0.000000
-421.152540 445.965089 0.000000
-437.477722 412.043721 0.000000
-349.046949 574.927364 0.000000
-341.263451 589.673260 0.000000
-453.835059 385.360372 0.000000
-458.455505 379.271323 0.000000
-116.866752 1120.813956 0.000000
-109.964035 1130.208272 0.000000
-316.066718 647.247111 0.000000
-323.363366 633.213666 0.000000
-234.514177 812.999509 0.000000
-228.400548 826.424567 0.000000
-222.344668 836.169204 0.000000
-222.414173 839.765343 0.000000
-216.386804 849.504840 0.000000
-240.750488 799.496744 0.000000
-365.387692 561.745177 0.000000
-373.194869 544.832194 0.000000
-146.818307 1062.797443 0.000000
-349.509157 595.249926 0.000000
-341.313824 594.708863 0.000000
-393.246393 497.167745 0.000000
-471.617660 289.762833 0.000000
-477.093917 272.311835 0.000000
-465.975825 307.364886 0.000000
-464.944039 314.463180 0.000000
-460.173645 325.095543 0.000000
-458.986735 331.817983 0.000000
-454.215215 342.933243 0.000000
-452.870654 349.272768 0.000000
-448.104249 360.856107 0.000000
-446.599464 366.808974 0.000000
-441.844529 378.841301 0.000000
-440.178215 384.403759 0.000000
-308.821735 661.267616 0.000000
-308.690573 676.815575 0.000000
-46.931742 1253.016758 0.000000
-44.030519 1261.222122 0.000000
-131.662985 1033.433612 0.000000
-292.140396 708.458049 0.000000
-186.331715 948.072898 0.000000
-461.843015 344.411435 0.000000
-15.246378 1324.283138 0.000000
-14.767011 1324.815323 0.000000
-468.326435 329.736917 0.000000
-198.464124 877.022154 0.000000
-198.519008 879.804003 0.000000
-212.586762 1007.676926 0.000000
-210.514394 1025.182196 0.000000
-219.053357 1031.971176 0.000000
-208.506611 1042.410626 0.000000
-259.207595 769.929505 0.000000
-522.258789 198.916792 0.000000
-220.188070 880.370430 0.000000
-200.354329 1035.710374 0.000000
-198.119943 1052.474581 0.000000
-206.711436 1059.500032 0.000000
-12.292462 1329.141799 0.000000
-499.077581 146.862773 0.000000
-310.279741 648.495969 0.000000
-441.013296 384.333655 0.000000
-243.039793 799.732006 0.000000
-20.029075 1314.788203 0.000000
-20.458520 1313.973655 0.000000
-19.009573 1318.100400 0.000000
-20.929810 1313.201790 0.000000
-22.456465 1308.814093 0.000000
-22.914674 1307.940164 0.000000
-24.519245 1303.293835 0.000000
-24.966114 1302.335376 0.000000
-26.653172 1297.424688 0.000000
-535.286498 74.557306 0.000000
-240.123757 850.179105 0.000000
-448.640959 306.887576 0.000000
-442.438294 321.628051 0.000000
-398.047387 484.264712 0.000000
-214.943245 843.803303 0.000000
-213.049143 844.517123 0.000000
-171.167808 1066.478216 0.000000
-195.979381 1069.000080 0.000000
-308.421182 700.507156 0.000000
-302.335712 708.102687 0.000000
-314.484287 693.112712 0.000000
-484.314187 285.890788 0.000000
-482.605231 293.355832 0.000000
-54.624553 1218.948005 0.000000
-71.688504 1173.691114 0.000000
-382.779462 592.957934 0.000000
-386.016279 571.573348 0.000000
-388.547534 571.793752 0.000000
-355.927476 693.235937 0.000000
-109.383416 1085.945104 0.000000
-27.100631 1296.406012 0.000000
-267.052618 856.727858 0.000000
-87.420658 1135.121230 0.000000
-74.737661 1279.090383 0.000000
-204.957841 1076.181651 0.000000
-441.041009 419.228156 0.000000
-262.183295 868.846771 0.000000
-256.319009 875.646098 0.000000
-76.436781 1164.135505 0.000000
-514.266218 51.509618 0.000000
-509.188940 54.583795 0.000000
-527.984704 198.545603 0.000000
-523.330349 211.021593 0.000000
-100.210910 1252.487021 0.000000
-549.486436 93.431893 0.000000
-546.564458 105.487859 0.000000
-551.888532 71.920304 0.000000
-551.380873 62.197854 0.000000
-415.045656 464.871225 0.000000
-420.022451 442.531239 0.000000
-409.979005 486.997295 0.000000
-409.062099 488.713361 0.000000
-404.802132 508.879750 0.000000
-282.193744 820.135195 0.000000
-287.412251 807.869991 0.000000
-286.747760 802.188245 0.000000
-292.713731 795.575587 0.000000
-292.121063 789.825962 0.000000
-134.768885 1039.148496 0.000000
-209.987972 934.144229 0.000000
-215.565855 926.682140 0.000000
-220.144965 914.561205 0.000000
-221.307887 919.072972 0.000000
-225.958068 906.890137 0.000000
-22.721443 1310.909908 0.000000
-465.705744 101.241909 0.000000
-469.746341 79.549854 0.000000
-94.984135 1260.419364 0.000000
-523.490182 46.013481 0.000000
-461.641599 123.631998 0.000000
-44.480670 1303.676266 0.000000
-526.757629 206.784148 0.000000
-521.998132 219.170217 0.000000
-15.347278 1326.798944 0.000000
-341.640765 728.602123 0.000000
-298.093233 783.255888 0.000000
-297.571961 777.439666 0.000000
-291.583873 784.108985 0.000000
-297.109595 771.654356 0.000000
-291.105756 778.426494 0.000000
-296.710899 765.901158 0.000000
-532.448484 186.221752 0.000000
-554.245000 60.128612 0.000000
-553.578538 50.336634 0.000000
-25.480484 1301.477300 0.000000
-61.146633 1201.235495 0.000000
-54.238797 1293.463321 0.000000
-55.715532 1294.627364 0.000000
-63.253985 1290.526610 0.000000
-57.137201 1295.460493 0.000000
-63.636131 1256.768159 0.000000
-67.309612 1248.126060 0.000000
-193.343397 885.594676 0.000000
-49.857855 1288.513871 0.000000
-225.935665 817.116227 0.000000
-59.921392 1264.939141 0.000000
-181.123149 912.423174 0.000000
-402.857675 472.033309 0.000000
-113.178383 1133.873132 0.000000
-106.262717 1142.927655 0.000000
-109.530182 1146.663509 0.000000
-102.604759 1155.374680 0.000000
-397.670352 481.100145 0.000000
-240.616319 803.456866 0.000000
-435.439411 396.865934 0.000000
-433.610189 402.038669 0.000000
-428.892089 414.907370 0.000000
-390.465641 500.904908 0.000000
-408.422864 468.924603 0.000000
-401.333380 486.827499 0.000000
-329.659347 613.605505 0.000000
-124.105497 1111.258123 0.000000
-216.557450 853.018830 0.000000
-210.563362 862.745857 0.000000
-222.582635 843.469248 0.000000
-343.406559 585.118639 0.000000
-335.570523 599.987360 0.000000
-368.547542 559.483001 0.000000
-376.254439 542.294965 0.000000
-186.987519 903.357249 0.000000
-181.217814 913.910098 0.000000
-437.064382 391.667060 0.000000
-449.378094 354.811635 0.000000
-461.110836 318.219455 0.000000
-246.869929 789.968828 0.000000
-166.143192 1006.645109 0.000000
-518.473620 223.648319 0.000000
-517.034476 231.702248 0.000000
-520.583081 227.231377 0.000000
-81.710062 1209.135378 0.000000
-78.138960 1219.514404 0.000000
-85.276759 1198.366527 0.000000
-102.018882 1093.935398 0.000000
-178.492531 960.879503 0.000000
-73.503203 1242.196247 0.000000
-70.946831 1239.026333 0.000000
-120.799929 1052.505181 0.000000
-397.203969 505.057339 0.000000
-404.312590 491.733345 0.000000
-409.629679 485.050058 0.000000
-80.910190 1222.924411 0.000000
-42.551011 1288.873404 0.000000
-111.213037 1073.205726 0.000000
-476.229607 228.916705 0.000000
-465.808789 138.219716 0.000000
-315.792562 676.101771 0.000000
-12.850944 1327.301887 0.000000
-12.243554 1327.608838 0.000000
-14.224404 1325.262126 0.000000
-11.430099 1327.921605 0.000000
-13.576189 1325.619375 0.000000
-9.616013 1330.008496 0.000000
-10.608818 1328.015297 0.000000
-12.736451 1325.919174 0.000000
-15.885136 1323.275052 0.000000
-15.221637 1323.600600 0.000000
-11.709666 1326.076619 0.000000
-14.383298 1323.780418 0.000000
-17.938338 1321.200475 0.000000
-17.223514 1321.452312 0.000000
-13.449752 1323.729759 0.000000
-16.341635 1321.500658 0.000000
-12.270813 1323.504632 0.000000
-15.226463 1321.333677 0.000000
-19.634453 1319.087957 0.000000
-18.615745 1318.957314 0.000000
-13.843068 1320.910215 0.000000
-17.311320 1318.545367 0.000000
-12.130021 1320.199174 0.000000
-15.665729 1317.818810 0.000000
-204.372976 866.535627 0.000000
-480.817890 209.577490 0.000000
-481.819671 219.425821 0.000000
-455.205306 359.191275 0.000000
-453.018063 365.807312 0.000000
-448.420000 374.068496 0.000000
-446.169817 380.503657 0.000000
-441.494871 389.033491 0.000000
-360.739066 576.551183 0.000000
-307.697100 666.183782 0.000000
-301.635550 675.269981 0.000000
-300.603209 680.084625 0.000000
-294.516182 689.247395 0.000000
-415.381117 450.957097 0.000000
-433.244647 425.341842 0.000000
-440.204360 411.926772 0.000000
-253.339198 860.077945 0.000000
-248.379617 872.377277 0.000000
-247.412640 867.347834 0.000000
-242.480980 879.661740 0.000000
-241.493549 874.753785 0.000000
-243.519970 884.623097 0.000000
-237.649482 891.918705 0.000000
-246.498030 862.369159 0.000000
-240.558799 869.899690 0.000000
-27.952943 1305.135136 0.000000
-198.556499 995.976149 0.000000
-293.578002 693.962329 0.000000
-287.469984 703.195372 0.000000
-286.628655 707.810835 0.000000
-280.504930 717.106084 0.000000
-279.761652 721.624090 0.000000
-273.627045 730.974803 0.000000
-272.983563 735.396185 0.000000
-266.842293 744.796319 0.000000
-266.299724 749.122417 0.000000
-260.157142 758.564254 0.000000
-486.388678 200.817927 0.000000
-390.065523 518.437347 0.000000
-202.228340 940.043952 0.000000
-181.163366 907.534021 0.000000
-175.370639 920.639949 0.000000
-175.501927 918.906634 0.000000
-169.757034 931.925989 0.000000
-169.742457 933.605088 0.000000
-164.181115 944.798049 0.000000
-164.216723 943.347326 0.000000
-158.694919 956.115133 0.000000
-164.281435 946.424645 0.000000
-158.754860 954.892110 0.000000
-153.288480 967.545248 0.000000
-153.375048 966.550632 0.000000
-147.966203 979.076424 0.000000
-148.081618 978.310196 0.000000
-142.731493 990.697491 0.000000
-142.878619 990.157192 0.000000
-137.588229 1002.394818 0.000000
-137.769030 1002.078837 0.000000
-132.539982 1014.153924 0.000000
-132.756467 1014.059227 0.000000
-127.589250 1025.961217 0.000000
-127.843199 1026.083902 0.000000
-122.738885 1037.800654 0.000000
-123.031785 1038.135900 0.000000
-117.991329 1049.655445 0.000000
-118.324325 1050.197489 0.000000
-113.347746 1061.510164 0.000000
-113.721605 1062.252308 0.000000
-108.810030 1073.345974 0.000000
-109.225104 1074.280570 0.000000
-104.379096 1085.144518 0.000000
-104.835251 1086.262956 0.000000
-100.054911 1096.888253 0.000000
-100.551517 1098.181002 0.000000
-95.837794 1108.556910 0.000000
-96.373462 1110.014070 0.000000
-91.726772 1120.132088 0.000000
-92.300131 1121.741194 0.000000
-87.720996 1131.593398 0.000000
-88.329480 1133.342835 0.000000
-83.819142 1142.920262 0.000000
-84.459558 1144.797593 0.000000
-80.018891 1154.093625 0.000000
-80.687939 1156.084027 0.000000
-76.318043 1165.092746 0.000000
-77.011233 1167.182373 0.000000
-72.713850 1175.897232 0.000000
-73.426199 1178.071051 0.000000
-69.203143 1186.487702 0.000000
-69.929062 1188.730181 0.000000
-65.782491 1196.844156 0.000000
-66.515775 1199.139306 0.000000
-62.448345 1206.946741 0.000000
-63.182223 1209.278214 0.000000
-59.196480 1216.777489 0.000000
-59.923670 1219.128700 0.000000
-148.000932 980.036727 0.000000
-283.100184 882.994204 0.000000
-89.005184 1124.854939 0.000000
-196.784749 900.819347 0.000000
-230.004991 829.047167 0.000000
-473.157545 337.674025 0.000000
-477.457776 331.726777 0.000000
-479.461832 324.439845 0.000000
-483.663415 318.709752 0.000000
-481.698905 326.069807 0.000000
-485.618069 311.321108 0.000000
-26.274235 1298.524720 0.000000
-15.679788 1323.682082 0.000000
-390.050219 495.902163 0.000000
-55.849545 1212.728280 0.000000
-351.241144 570.238312 0.000000
-391.994232 551.245060 0.000000
-394.208642 550.580813 0.000000
-156.556300 1140.279473 0.000000
-164.399272 1146.257669 0.000000
-201.557238 979.054636 0.000000
-33.169466 1279.062326 0.000000
-218.760444 872.110915 0.000000
-213.496773 884.882409 0.000000
-207.581494 893.714071 0.000000
-132.488589 1014.456877 0.000000
-62.449631 1194.192697 0.000000
-526.391426 145.679812 0.000000
-233.405973 802.721060 0.000000
-80.359263 1154.585175 0.000000
-216.874290 932.306368 0.000000
-105.109229 1244.011697 0.000000
-394.952741 485.799784 0.000000
-216.318029 846.105144 0.000000
-198.781772 872.432349 0.000000
-197.387674 873.296892 0.000000
-204.308473 859.467874 0.000000
-14.812728 1325.426600 0.000000
-485.913018 278.329199 0.000000
-302.619412 663.128506 0.000000
-153.516292 1153.823283 0.000000
-161.439412 1159.648817 0.000000
-395.336159 488.400942 0.000000
-387.678697 504.785224 0.000000
-339.643807 599.881381 0.000000
-333.787898 608.967121 0.000000
-174.248466 976.115714 0.000000
-106.056787 1175.319826 0.000000
-330.809850 638.091661 0.000000
-336.778967 630.426032 0.000000
-506.161911 71.176234 0.000000
-277.059081 832.369903 0.000000
-282.981971 825.780815 0.000000
-125.733848 1042.195647 0.000000
-444.022865 329.359575 0.000000
-437.824875 345.241235 0.000000
-439.303869 352.007495 0.000000
-515.520529 239.675657 0.000000
-543.499536 108.436930 0.000000
-543.398776 117.751589 0.000000
-546.450421 114.707794 0.000000
-543.141645 126.892510 0.000000
-546.184326 123.771210 0.000000
-542.739036 135.876751 0.000000
-514.667844 169.799765 0.000000
-126.095307 1193.059864 0.000000
-136.244913 1186.227073 0.000000
-132.574257 1197.835746 0.000000
-410.337841 455.586865 0.000000
-193.882484 1085.170700 0.000000
-46.744256 1239.017004 0.000000
-174.420356 925.736802 0.000000
-207.596699 857.889952 0.000000
-472.212433 315.645493 0.000000
-499.375203 232.403258 0.000000
-361.370435 572.415398 0.000000
-277.916974 837.950371 0.000000
-494.607246 79.517478 0.000000
-420.049936 437.347319 0.000000
-452.798592 361.165482 0.000000
-451.316518 355.514863 0.000000
-463.684828 321.410024 0.000000
-28.494335 1292.381494 0.000000
-506.545005 257.186251 0.000000
-348.816312 664.727090 0.000000
-536.768937 50.300082 0.000000
-550.683920 52.263050 0.000000
-552.725187 40.338417 0.000000
-523.694484 84.148799 0.000000
-369.998321 609.508353 0.000000
-325.947219 716.823109 0.000000
-459.861574 230.164902 0.000000
-456.832063 219.359010 0.000000
-461.166434 196.401762 0.000000
-503.755887 57.911177 0.000000
-267.402356 827.170886 0.000000
-258.689284 841.815831 0.000000
-276.071014 812.270356 0.000000
-241.763442 829.131231 0.000000
-255.539390 860.117002 0.000000
-515.036998 208.721548 0.000000
-516.070811 200.234827 0.000000
-317.976185 733.510464 0.000000
-249.955228 856.214661 0.000000
-383.228108 571.004935 0.000000
-51.283195 1290.361036 0.000000
-549.794074 42.111151 0.000000
-551.681420 30.127122 0.000000
-185.486787 1078.424318 0.000000
-224.861802 902.306468 0.000000
-381.081508 517.930637 0.000000
-450.799857 372.409962 0.000000
-169.859758 935.452504 0.000000
-490.094442 271.219092 0.000000
-99.752734 1095.815649 0.000000
-403.514489 509.879198 0.000000
-507.423313 219.810444 0.000000
-527.759231 80.726797 0.000000
-403.548473 475.292817 0.000000
-491.582670 263.458296 0.000000
-113.157392 1060.987742 0.000000
-122.620861 1037.680216 0.000000
-443.898040 386.936909 0.000000
-416.061117 453.407679 0.000000
-79.551214 1152.305215 0.000000
-91.352698 1118.738835 0.000000
-247.106270 785.919651 0.000000
-259.716286 762.796503 0.000000
-103.397974 1139.437868 0.000000
-110.970806 1113.953676 0.000000
-118.838528 1087.696568 0.000000
-127.059284 1060.885215 0.000000
-131.315999 1047.339630 0.000000
-72.199939 1173.911129 0.000000
-65.240825 1194.718094 0.000000
-58.649365 1214.574270 0.000000
-55.483040 1224.098881 0.000000
-451.232722 245.153355 0.000000
-425.378944 452.145040 0.000000
-5.168406 1337.853477 0.000000
-4.340140 1337.337818 0.000000
-5.466284 1335.601171 0.000000
-5.937078 1338.302457 0.000000
-432.288490 439.092968 0.000000
-489.716869 305.803055 0.000000
-145.245788 1190.784255 0.000000
-139.722747 1202.662775 0.000000
-128.680923 1208.892679 0.000000
-64.558260 1192.154595 0.000000
-21.445357 1312.465342 0.000000
-488.317207 50.788740 0.000000
-481.265113 54.137561 0.000000
-433.277543 368.806267 0.000000
-434.551905 374.712086 0.000000
-435.746645 336.182267 0.000000
-9.708287 1325.481973 0.000000
-447.808236 406.255889 0.000000
-4.222604 1339.614815 0.000000
-4.954156 1340.278583 0.000000
-538.977856 37.150703 0.000000
-542.368982 35.209131 0.000000
-535.420621 39.174435 0.000000
-415.212791 461.943448 0.000000
-428.866295 392.158489 0.000000
-429.774651 397.367751 0.000000
-545.728157 132.816470 0.000000
-542.191134 144.740595 0.000000
-494.940123 47.267889 0.000000
-282.265708 904.096226 0.000000
-291.168926 888.474816 0.000000
-272.932496 917.205358 0.000000
-3.053506 1341.523273 0.000000
-4.043483 1342.213094 0.000000
-5.674828 1340.823332 0.000000
-4.785625 1342.909554 0.000000
-6.371127 1341.314936 0.000000
-406.279712 498.368155 0.000000
-548.694822 32.040252 0.000000
-135.146064 1213.525216 0.000000
-124.487964 1219.384273 0.000000
-106.465224 1255.451927 0.000000
-215.639213 1068.226067 0.000000
-8.285549 1324.963590 0.000000
-503.133345 272.688371 0.000000
-508.629849 260.065637 0.000000
-506.630462 41.533255 0.000000
-326.015021 786.469175 0.000000
-333.346686 767.979476 0.000000
-13.608634 1330.529766 0.000000
-445.841847 413.215876 0.000000
-302.708142 759.191174 0.000000
-302.394369 753.357352 0.000000
-296.375232 760.181953 0.000000
-302.139377 747.564155 0.000000
-308.154896 740.794571 0.000000
-307.979885 734.930392 0.000000
-313.987006 728.223533 0.000000
-313.892498 722.286680 0.000000
-319.495678 716.281918 0.000000
-319.808368 709.738600 0.000000
-21.017901 1318.639772 0.000000
-21.472220 1318.113565 0.000000
-48.495819 1286.523495 0.000000
-52.352995 1279.825570 0.000000
-58.045975 1262.250353 0.000000
-175.891419 925.790992 0.000000
-169.208288 938.952892 0.000000
-394.930335 485.332922 0.000000
-81.573377 1158.278366 0.000000
-403.854483 483.670969 0.000000
-423.284032 439.545031 0.000000
-418.235488 447.133023 0.000000
-451.788026 392.321375 0.000000
-456.451479 386.322037 0.000000
-463.019303 373.454641 0.000000
-317.390022 642.313925 0.000000
-304.038587 665.916391 0.000000
-385.648328 514.037520 0.000000
-216.824852 856.640809 0.000000
-102.303295 1171.322103 0.000000
-95.372187 1179.347735 0.000000
-281.360403 712.684739 0.000000
-109.842755 1075.443780 0.000000
-131.588121 1083.769589 0.000000
-133.150721 1014.182835 0.000000
-181.477296 916.341148 0.000000
-246.735903 794.116338 0.000000
-371.724611 557.472997 0.000000
-260.707734 754.434020 0.000000
-164.508958 948.218093 0.000000
-150.743897 1029.943412 0.000000
-148.358997 977.746452 0.000000
-146.753927 1044.527310 0.000000
-170.834816 973.495204 0.000000
-472.236187 282.088039 0.000000
-477.560234 264.255661 0.000000
-482.399796 255.031704 0.000000
-482.718396 246.608874 0.000000
-418.407888 465.272954 0.000000
-423.559196 458.891614 0.000000
-124.933991 1041.027719 0.000000
-164.398498 942.080489 0.000000
-487.529110 237.942881 0.000000
-47.551203 1255.279671 0.000000
-50.554002 1246.763654 0.000000
-44.601694 1263.420952 0.000000
-41.187344 1269.054765 0.000000
-41.701261 1271.173789 0.000000
-38.398509 1276.500591 0.000000
-38.846384 1278.523996 0.000000
-35.660457 1283.547099 0.000000
-36.033677 1285.459488 0.000000
-32.969897 1290.181998 0.000000
-33.260132 1291.968410 0.000000
-30.323905 1296.393883 0.000000
-39.397023 1280.587258 0.000000
-30.523222 1298.039850 0.000000
-245.637644 857.443179 0.000000
-279.126537 726.233012 0.000000
-182.868608 945.702654 0.000000
-190.659931 932.640447 0.000000
-391.762360 512.154029 0.000000
-497.459777 285.441348 0.000000
-501.363923 280.359035 0.000000
-513.417790 236.421346 0.000000
-299.678965 684.984455 0.000000
-487.156995 210.649752 0.000000
-482.453543 228.848721 0.000000
-239.678682 865.102009 0.000000
-234.630775 877.570134 0.000000
-204.426084 863.678089 0.000000
-139.751305 1174.061686 0.000000
-190.410425 1046.082110 0.000000
-192.999746 1029.542249 0.000000
-204.434580 869.527886 0.000000
-198.685862 882.719937 0.000000
-413.207052 471.916746 0.000000
-207.841431 984.260955 0.000000
-337.735293 624.640494 0.000000
-343.663285 617.074125 0.000000
-342.716912 622.992726 0.000000
-349.557173 609.742882 0.000000
-348.620800 615.786899 0.000000
-355.415240 602.640028 0.000000
-354.488181 608.803598 0.000000
-361.234774 595.761487 0.000000
-360.242181 602.044423 0.000000
-353.633931 615.002338 0.000000
-366.964161 589.017456 0.000000
-359.284571 608.181493 0.000000
-352.848978 621.201251 0.000000
-346.997053 627.984570 0.000000
-346.312184 634.133290 0.000000
-367.998023 582.733384 0.000000
-373.760163 576.090011 0.000000
-374.795149 569.746023 0.000000
-380.461038 563.327454 0.000000
-379.421480 569.854910 0.000000
-381.681613 556.619337 0.000000
-386.009086 557.186202 0.000000
-384.089258 564.975713 0.000000
-340.397990 640.993341 0.000000
-339.793486 647.066930 0.000000
-477.734429 255.930518 0.000000
-202.982192 860.627334 0.000000
-187.490555 892.435563 0.000000
-28.193643 1293.626085 0.000000
-518.624036 164.534438 0.000000
-518.251143 173.761828 0.000000
-450.062853 314.690451 0.000000
-463.907714 337.582727 0.000000
-209.587611 857.505008 0.000000
-451.279519 384.880258 0.000000
-85.612255 1265.370951 0.000000
-88.697866 1268.213189 0.000000
-510.552512 175.441238 0.000000
-49.033512 1240.173190 0.000000
-13.051557 1330.824530 0.000000
-11.913952 1333.909978 0.000000
-230.718590 894.626553 0.000000
-304.413420 659.204712 0.000000
-296.719290 673.912804 0.000000
-312.155057 644.452086 0.000000
-208.358335 897.568432 0.000000
-202.487187 906.382821 0.000000
-201.697832 902.691983 0.000000
-196.649909 915.337607 0.000000
-514.762403 160.267692 0.000000
-70.889233 1173.857466 0.000000
-73.842645 1164.635854 0.000000
-109.648792 1163.159836 0.000000
-392.620410 492.657536 0.000000
-384.903639 508.804852 0.000000
-332.191892 614.028648 0.000000
-270.726094 808.912401 0.000000
-363.964107 551.983377 0.000000
-326.288550 623.223631 0.000000
-438.326391 389.927923 0.000000
-431.610167 407.203274 0.000000
-31.160085 1284.666190 0.000000
-31.604184 1283.528865 0.000000
-285.582451 790.928664 0.000000
-285.087289 785.354664 0.000000
-320.982816 713.968300 0.000000
-412.121690 472.365262 0.000000
-314.836009 687.396690 0.000000
-320.877579 680.078652 0.000000
-320.522089 685.916225 0.000000
-326.891543 672.960377 0.000000
-326.532773 678.913616 0.000000
-332.874805 666.037740 0.000000
-332.472020 672.115969 0.000000
-326.245217 684.904121 0.000000
-339.929052 658.047601 0.000000
-498.296531 240.650925 0.000000
-333.485480 604.409395 0.000000
-327.743514 614.836642 0.000000
-419.814398 438.867133 0.000000
-484.692968 34.869157 0.000000
-392.590276 549.678630 0.000000
-203.107655 1092.102797 0.000000
-191.727751 1100.718537 0.000000
-352.349035 627.067363 0.000000
-170.921425 1152.745301 0.000000
-448.935220 230.878662 0.000000
-293.106240 801.775088 0.000000
-555.447603 38.948888 0.000000
-461.060103 380.589601 0.000000
-452.548802 400.425252 0.000000
-368.600748 654.491566 0.000000
-444.100752 290.151080 0.000000
-449.552860 409.666378 0.000000
-541.068975 24.046951 0.000000
-238.914764 896.275910 0.000000
-244.631340 889.541354 0.000000
-549.294903 112.119735 0.000000
-405.658778 508.076498 0.000000
-545.080174 141.683366 0.000000
-541.437371 153.326396 0.000000
-457.877170 145.768643 0.000000
-461.757304 160.425310 0.000000
-453.140105 130.408929 0.000000
-226.932868 911.601379 0.000000
-385.902307 592.735827 0.000000
-283.947421 830.911534 0.000000
-288.919515 819.231301 0.000000
-211.067586 938.785319 0.000000
-205.275207 946.451316 0.000000
-206.322217 952.231529 0.000000
-461.572425 85.488166 0.000000
-465.304036 63.140271 0.000000
-550.450269 19.691313 0.000000
-147.424304 1208.367975 0.000000
-239.904335 901.756491 0.000000
-27.644794 1295.345399 0.000000
-467.528217 367.895447 0.000000
-469.482471 360.683519 0.000000
-3.462583 1336.719756 0.000000
-4.702092 1335.109646 0.000000
-6.750787 1333.778149 0.000000
-5.784767 1333.542942 0.000000
-198.628616 963.517744 0.000000
-200.145681 950.224694 0.000000
-195.458287 954.009955 0.000000
-189.570981 965.696889 0.000000
-281.339451 925.583605 0.000000
-272.185817 938.056215 0.000000
-281.071433 946.235145 0.000000
-326.195303 703.278262 0.000000
-325.958586 697.032388 0.000000
-319.921372 703.679787 0.000000
-414.965270 458.952692 0.000000
-268.048948 862.503762 0.000000
-14.032401 1330.635297 0.000000
-15.902983 1326.335944 0.000000
-333.202368 676.975843 0.000000
-3.322983 1344.091256 0.000000
-3.970478 1344.955692 0.000000
-271.498937 957.585577 0.000000
-262.421600 949.999539 0.000000
-261.654262 968.655362 0.000000
-202.675522 1109.438484 0.000000
-452.390748 169.578259 0.000000
-464.325784 377.632534 0.000000
-279.622172 843.176556 0.000000
-400.361835 532.587805 0.000000
-263.246347 874.227214 0.000000
-10.325004 1319.172294 0.000000
-13.853134 1316.748255 0.000000
-7.167941 1321.428769 0.000000
-274.008970 856.240561 0.000000
-274.523121 863.061612 0.000000
-191.437605 955.456216 0.000000
-186.325732 967.164716 0.000000
-303.119812 771.414286 0.000000
-303.921689 776.966719 0.000000
-377.552036 577.917803 0.000000
-65.696799 1291.141065 0.000000
-71.518722 1286.274436 0.000000
-58.965391 1295.664913 0.000000
-456.100025 68.433670 0.000000
-460.878391 44.736989 0.000000
-544.735213 22.956236 0.000000
-519.042733 235.315911 0.000000
-554.751345 70.072495 0.000000
-557.467886 56.857295 0.000000
-554.859123 80.551578 0.000000
-384.545112 570.408862 0.000000
-370.181381 591.267167 0.000000
-366.649010 601.445934 0.000000
-130.855783 1223.538890 0.000000
-120.098457 1229.251780 0.000000
-126.708672 1232.929634 0.000000
-172.215103 1164.807932 0.000000
-158.437571 1172.125130 0.000000
-2.447457 1346.252857 0.000000
-3.258011 1346.886926 0.000000
-203.883724 968.104462 0.000000
-201.809416 993.095961 0.000000
-469.242967 41.394076 0.000000
-2.546753 1338.172940 0.000000
-544.645161 150.129078 0.000000
-246.036368 894.351918 0.000000
-77.538126 1164.140796 0.000000
-81.427633 1154.875450 0.000000
-73.518051 1174.035513 0.000000
-74.943833 1173.506037 0.000000
-69.720203 1183.396033 0.000000
-66.641085 1194.179271 0.000000
-5.969090 1326.681642 0.000000
-7.485746 1327.281581 0.000000
-4.775421 1329.157761 0.000000
-8.073843 1328.038639 0.000000
-4.475877 1325.892659 0.000000
-5.558578 1329.923439 0.000000
-4.364040 1331.323715 0.000000
-6.941622 1330.204355 0.000000
-5.750519 1331.676335 0.000000
-8.323071 1330.208087 0.000000
-464.497201 23.223868 0.000000
-9.266792 1328.232110 0.000000
-447.575949 112.899326 0.000000
-60.262913 1295.597860 0.000000
-442.983964 188.420222 0.000000
-449.152764 196.974095 0.000000
-440.296783 238.350299 0.000000
-44.510176 1302.528475 0.000000
-20.300598 1309.122529 0.000000
-15.025986 1312.388779 0.000000
-7.082052 1313.029584 0.000000
-10.364003 1315.610609 0.000000
-434.658555 288.669941 0.000000
-442.888978 271.121150 0.000000
-76.128988 1286.060351 0.000000
-1361.384089 298.789412 0.000000
-92.938498 1274.598588 0.000000
-83.803246 1278.042737 0.000000
-89.978590 1272.271378 0.000000
-430.283503 336.576639 0.000000
-437.255147 313.720223 0.000000
-427.941896 360.043354 0.000000
-108.944306 1260.953690 0.000000
-2231.069001 2275.163669 0.000000
-116.786440 1253.415485 0.000000
-420.857095 409.609828 0.000000
-3.045525 1400.080103 0.000000
-645.395350 408.160073 0.000000
-314.145374 734.195455 0.000000
-247.260526 1050.447298 0.000000
-239.821354 1032.383904 0.000000
-248.656088 1017.678138 0.000000
-233.539407 1049.721100 0.000000
-328.398138 834.462728 0.000000
-324.901880 811.341208 0.000000
-318.799550 834.501728 0.000000
-321.990889 855.053191 0.000000
-312.390726 853.723284 0.000000
-306.448031 872.444244 0.000000
-301.833085 854.719522 0.000000
-373.990335 666.594501 0.000000
-375.350253 642.439191 0.000000
-202.653327 1137.604680 0.000000
-189.685926 1139.060945 0.000000
-196.580225 1125.744410 0.000000
-268.380370 1002.797106 0.000000
-171.888749 1186.276366 0.000000
-158.292883 1188.914470 0.000000
-302.773495 912.401951 0.000000
-346.593939 773.003129 0.000000
-345.807114 750.300057 0.000000
-351.570356 729.129960 0.000000
-340.692386 793.861874 0.000000
-224.389727 1093.673818 0.000000
-187.436052 1163.177033 0.000000
-233.423485 1079.625676 0.000000
-383.872538 622.650521 0.000000
-393.249382 576.269894 0.000000
-391.250879 577.062256 0.000000
-363.363109 709.949850 0.000000
-363.844585 685.427551 0.000000
-150.007583 1217.275325 0.000000
-402.248794 527.910990 0.000000
-210.174986 1124.093030 0.000000
-2261.324564 3240.089688 0.000000
-2163.848795 3552.635644 0.000000
-2329.870059 3597.346321 0.000000
-2070.906420 3883.911486 0.000000
-2138.767469 4244.076882 0.000000
-106.901985 1306.021290 0.000000
-541.470348 309.061991 0.000000
-538.418778 289.370880 0.000000
-1580.471025 6468.154937 0.000000
-24.476548 1375.664194 0.000000
-153.501974 6415.497018 0.000000
-330.760683 6169.359656 0.000000
-311.396362 6611.413357 0.000000
-464.034554 6411.260419 0.000000
-456.185298 6800.833277 0.000000
-2770.954131 4953.022400 0.000000
-2701.662142 4619.330003 0.000000
-1884.942843 2858.733948 0.000000
-1028.962688 3375.927766 0.000000
-1011.820121 3193.219301 0.000000
-675.348849 97.995349 0.000000
-707.869752 1762.480755 0.000000
-708.780289 1691.815812 0.000000
-745.819502 1719.491481 0.000000
-2667.476035 5295.709110 0.000000
-213.838435 984.780684 0.000000
-2933.950568 3377.781407 0.000000
-690.382548 105.985629 0.000000
-558.307822 156.420575 0.000000
-20.062376 1343.554417 0.000000
-23.485406 1330.001752 0.000000
-2.531681 1375.866188 0.000000
-553.647269 19.414436 0.000000
-307.241511 7030.998327 0.000000
-482.811925 7236.571043 0.000000
-261.477053 1018.643015 0.000000
-255.624713 1000.984960 0.000000
-244.425351 1001.268601 0.000000
-357.784483 731.595462 0.000000
-2979.663506 4298.772349 0.000000
-331.284396 690.805304 0.000000
-2271.806128 8336.659933 0.000000
-2181.945522 7989.679665 0.000000
-309.696437 893.257869 0.000000
-1977.419197 2501.839247 0.000000
-3.655475 1410.166850 0.000000
-1047.645289 1088.421084 0.000000
-10.746038 1437.653836 0.000000
-14.987410 1450.171252 0.000000
-44.788477 1303.268615 0.000000
-477.299175 37.280115 0.000000
-123.197136 1106.003624 0.000000
-133.638148 1093.915041 0.000000
-134.118081 1109.776753 0.000000
-144.900013 1098.218823 0.000000
-123.392327 1121.479580 0.000000
-123.727757 1137.537317 0.000000
-113.793927 1164.804173 0.000000
-2006.264608 3550.785905 0.000000
-19.801712 1315.145777 0.000000
-2557.531371 2273.604836 0.000000
-415.303493 565.135076 0.000000
-411.634095 585.799235 0.000000
-423.628523 578.879091 0.000000
-420.862476 599.582907 0.000000
-432.477807 593.765866 0.000000
-418.214024 620.517320 0.000000
-429.817595 614.760724 0.000000
-415.521855 641.685743 0.000000
-404.008806 646.770406 0.000000
-401.467399 668.506307 0.000000
-415.869168 661.022305 0.000000
-400.136876 689.571883 0.000000
-411.939867 683.556519 0.000000
-398.601838 710.785637 0.000000
-409.599592 704.778105 0.000000
-396.828886 729.882708 0.000000
-384.842048 738.897952 0.000000
-422.940404 682.753891 0.000000
-386.255036 754.815887 0.000000
-387.931208 676.279191 0.000000
-408.902160 606.294226 0.000000
-5.971955 1394.143102 0.000000
-454.305423 8392.434161 0.000000
-363.184987 8029.597675 0.000000
-166.752534 8075.956808 0.000000
-269.069460 7679.764730 0.000000
-533.567834 7999.246642 0.000000
-2485.804093 7020.344566 0.000000
-3616.379236 1077.302125 0.000000
-3459.624984 866.537563 0.000000
-3479.656024 398.100694 0.000000
-3306.835501 652.285166 0.000000
-3458.022370 1296.809696 0.000000
-72.558938 1173.749006 0.000000
-68.942316 1182.838903 0.000000
-62.028068 1200.774879 0.000000
-58.690274 1209.640449 0.000000
-59.415047 1210.186574 0.000000
-723.595526 60.248959 0.000000
-3556.828906 5400.197663 0.000000
-3390.418826 5620.108016 0.000000
-3386.271468 6052.756549 0.000000
-3230.602675 5844.743901 0.000000
-3395.901617 5171.526760 0.000000
-3543.139961 6264.752254 0.000000
-3378.972617 6483.708696 0.000000
-3535.902101 6697.038761 0.000000
-3371.639212 6915.816114 0.000000
-3362.683494 7347.912407 0.000000
-3220.644687 6676.500790 0.000000
-3521.576656 7559.613998 0.000000
-3360.789358 7783.569634 0.000000
-3202.680710 7579.231612 0.000000
-3201.374150 8002.528283 0.000000
-3052.867469 7791.991184 0.000000
-3187.600310 7130.060288 0.000000
-3224.871621 6269.263280 0.000000
-419.820898 543.040984 0.000000
-1287.537279 5363.481532 0.000000
-379.281037 627.599809 0.000000
-17.637340 1314.026297 0.000000
-75.230765 1611.457525 0.000000
-1701.829790 6120.434102 0.000000
-387.860901 2498.125855 0.000000
-119.745353 1617.018736 0.000000
-126.597935 1668.365395 0.000000
-103.466974 1664.505587 0.000000
-1406.319778 6446.262333 0.000000
-529.453173 373.068069 0.000000
-550.532938 264.901817 0.000000
-543.362155 266.986716 0.000000
-548.017352 245.071904 0.000000
-535.995532 269.827422 0.000000
-530.892354 291.869484 0.000000
-523.246169 295.180737 0.000000
-509.486272 322.035538 0.000000
-525.604531 314.502330 0.000000
-519.480889 377.293985 0.000000
-538.902967 229.358870 0.000000
-533.763451 251.655629 0.000000
-28.159944 1313.447783 0.000000
-155.607082 1070.272006 0.000000
-113.038926 1133.260872 0.000000
-526.573781 255.912004 0.000000
-168.927708 1006.523190 0.000000
-42.954156 1302.270568 0.000000
-350.466226 704.570540 0.000000
-1160.381209 3346.458085 0.000000
-445.951445 471.424840 0.000000
-461.820398 443.278053 0.000000
-471.924722 437.538353 0.000000
-477.258624 415.742498 0.000000
-486.889165 410.729289 0.000000
-481.854035 432.544965 0.000000
-496.360296 406.405116 0.000000
-998.239496 1395.412992 0.000000
-42.225058 1301.189422 0.000000
-22.502764 1316.352941 0.000000
-28.442411 1312.998567 0.000000
-49.977685 1299.369653 0.000000
-150.878428 1672.219511 0.000000
-169.381581 1621.464514 0.000000
-36.795707 1273.484849 0.000000
-920.555711 2654.141490 0.000000
-843.775062 2628.579551 0.000000
-898.235067 2488.586594 0.000000
-573.507932 480.412478 0.000000
-953.697431 2348.492089 0.000000
-466.895230 459.277147 0.000000
-569.835542 154.724999 0.000000
-578.161578 132.160568 0.000000
-176.265419 1457.510179 0.000000
-24.501761 1315.910131 0.000000
-27.402952 1314.869657 0.000000
-431.327478 536.122142 0.000000
-32.991949 1313.603646 0.000000
-467.460264 421.527358 0.000000
-457.543720 428.107176 0.000000
-262.908665 1752.025764 0.000000
-268.944608 1811.109648 0.000000
-912.123457 2015.683279 0.000000
-273.225299 1578.969739 0.000000
-267.735043 1518.363456 0.000000
-42.801731 1276.085466 0.000000
-325.534605 780.567187 0.000000
-329.297293 757.138764 0.000000
-337.080825 776.470984 0.000000
-189.774111 1021.924350 0.000000
-244.608891 1574.227555 0.000000
-510.401933 380.781342 0.000000
-478.953605 493.494140 0.000000
-488.739134 489.959574 0.000000
-492.953764 468.025357 0.000000
-503.058375 464.701110 0.000000
-521.837304 432.627582 0.000000
-519.148475 417.703181 0.000000
-24.808825 1315.302098 0.000000
-1219.203498 2128.400619 0.000000
-1012.935730 1564.378853 0.000000
-242.020228 1802.959181 0.000000
-248.863557 1857.348906 0.000000
-222.460676 1848.749069 0.000000
-203.819967 1132.933673 0.000000
-282.899358 1055.807483 0.000000
-1124.308973 1930.473760 0.000000
-40.640874 1298.394918 0.000000
-178.920270 1086.398839 0.000000
-79.193688 1205.762502 0.000000
-876.352002 2322.769264 0.000000
-124.986997 1058.547385 0.000000
-231.558985 804.152466 0.000000
-224.213499 818.473235 0.000000
-239.023973 789.704724 0.000000
-798.650566 2298.646749 0.000000
-170.761404 939.295694 0.000000
-164.097067 952.290115 0.000000
-182.753098 912.456141 0.000000
-48.897560 1265.217521 0.000000
-82.723441 1194.956238 0.000000
-468.506100 497.719608 0.000000
-229.912389 805.821801 0.000000
-47.213190 1284.426086 0.000000
-50.853887 1277.516248 0.000000
-491.618567 428.216080 0.000000
-67.452862 1201.600941 0.000000
-405.221261 466.336854 0.000000
-410.333060 457.466907 0.000000
-223.040255 1340.086190 0.000000
-74.350783 1180.432627 0.000000
-392.462382 490.578608 0.000000
-379.926902 521.140198 0.000000
-377.100944 524.929731 0.000000
-435.339855 418.685004 0.000000
-65.138246 1245.127396 0.000000
-68.658505 1235.901955 0.000000
-396.808872 501.870248 0.000000
-394.115202 504.649635 0.000000
-345.657992 580.685255 0.000000
-353.537174 565.663650 0.000000
-442.299795 405.166872 0.000000
-329.885216 610.675821 0.000000
-302.779729 670.545146 0.000000
-380.903643 527.825922 0.000000
-383.853139 524.998942 0.000000
-384.773258 505.566957 0.000000
-116.829483 1137.802781 0.000000
-89.154264 1135.308598 0.000000
-240.582905 807.516017 0.000000
-1143.326821 2098.355928 0.000000
-1238.927718 2295.787403 0.000000
-1259.355659 2463.134680 0.000000
-1334.709650 2493.344257 0.000000
-1284.384912 2634.181682 0.000000
-1305.925693 2801.348609 0.000000
-1228.903559 2770.450018 0.000000
-1330.227177 1221.701542 0.000000
-1392.291868 1105.443675 0.000000
-372.089118 537.454933 0.000000
-369.220543 541.023615 0.000000
-361.272646 557.074990 0.000000
-366.409772 544.758918 0.000000
-374.317368 528.871340 0.000000
-358.443763 560.611588 0.000000
-425.464670 433.151933 0.000000
-420.459567 440.891774 0.000000
-97.122103 1111.695035 0.000000
-222.844954 847.275375 0.000000
-228.634093 834.100335 0.000000
-432.275661 405.342777 0.000000
-322.011835 625.631006 0.000000
-449.777976 399.285984 0.000000
-458.917598 388.146795 0.000000
-456.897677 396.156197 0.000000
-462.836857 383.849154 0.000000
-470.943222 367.189535 0.000000
-118.850611 1050.966806 0.000000
-238.723989 1514.999310 0.000000
-327.917537 618.365069 0.000000
-335.492401 603.994922 0.000000
-337.306014 599.118169 0.000000
-139.059653 1073.366134 0.000000
-135.335175 1087.555453 0.000000
-135.436924 1069.750109 0.000000
-187.253187 905.995958 0.000000
-175.758063 926.831683 0.000000
-37.565674 1295.791647 0.000000
-581.313886 153.195008 0.000000
-412.693229 451.620723 0.000000
-158.988032 959.097549 0.000000
-154.391608 1033.287339 0.000000
-430.696360 410.130200 0.000000
-424.189697 428.585459 0.000000
-438.448869 386.419783 0.000000
-400.084598 475.619504 0.000000
-158.329218 1018.385138 0.000000
-158.512027 1037.022323 0.000000
-162.378536 1003.430534 0.000000
-388.508061 510.735270 0.000000
-443.776370 382.785400 0.000000
-436.779457 398.026696 0.000000
-434.436808 404.078654 0.000000
-190.290626 1078.263482 0.000000
-179.666618 1104.758288 0.000000
-190.953264 1097.083144 0.000000
-202.337037 1090.009947 0.000000
-203.130747 1109.417551 0.000000
-217.784386 1125.050753 0.000000
-206.561302 1161.929661 0.000000
-52.397773 1233.331496 0.000000
-52.923914 1235.548368 0.000000
-28.592045 1311.441871 0.000000
-181.845188 918.912484 0.000000
-193.081634 895.801539 0.000000
-265.863735 753.542787 0.000000
-514.877881 228.385244 0.000000
-259.380825 767.124499 0.000000
-159.322887 960.840166 0.000000
-153.542354 970.088421 0.000000
-28.412014 1309.221750 0.000000
-25.109008 1313.575503 0.000000
-49.557742 1275.415324 0.000000
-244.833728 852.571962 0.000000
-148.480691 982.502754 0.000000
-98.978458 1167.523580 0.000000
-92.436519 1175.741328 0.000000
-233.730835 872.904917 0.000000
-33.618843 1293.763477 0.000000
-51.373312 1249.173934 0.000000
-129.945820 1030.578231 0.000000
-74.554002 1229.484062 0.000000
-72.169591 1226.254343 0.000000
-66.626970 1232.845013 0.000000
-429.652468 413.337054 0.000000
-427.254678 419.192778 0.000000
-75.678559 1216.202065 0.000000
-232.543381 905.221995 0.000000
-416.617936 471.936243 0.000000
-421.719001 465.635818 0.000000
-428.380965 453.171227 0.000000
-427.070960 459.066933 0.000000
-45.306595 1265.690238 0.000000
-389.632642 519.955924 0.000000
-487.704019 229.169822 0.000000
-120.013019 1051.518758 0.000000
-195.849273 911.813769 0.000000
-190.851066 924.428475 0.000000
-190.040226 921.075346 0.000000
-185.094259 933.652245 0.000000
-184.275187 930.472063 0.000000
-179.383831 943.004558 0.000000
-185.988119 936.938418 0.000000
-178.557679 940.000552 0.000000
-173.724448 952.479068 0.000000
-172.892465 949.654158 0.000000
-168.119473 962.071652 0.000000
-167.283873 959.427105 0.000000
-162.573242 971.775868 0.000000
-161.735528 969.313931 0.000000
-157.090110 981.584661 0.000000
-156.252102 979.306673 0.000000
-155.503684 977.165402 0.000000
-150.837188 989.398551 0.000000
-129.236734 1029.386043 0.000000
-135.045808 1020.180038 0.000000
-179.789555 943.727282 0.000000
-399.386877 499.267243 0.000000
-539.072380 148.153808 0.000000
-487.086263 246.441769 0.000000
-439.092226 391.986560 0.000000
-204.604414 872.647866 0.000000
-54.475741 1240.344049 0.000000
-359.560942 612.858606 0.000000
-358.189954 620.744602 0.000000
-1222.027615 1487.628141 0.000000
-298.246229 789.624855 0.000000
-7.333242 1339.013869 0.000000
-7.987934 1339.304284 0.000000
-7.051076 1341.674522 0.000000
-8.628237 1339.547537 0.000000
-7.722684 1341.979440 0.000000
-9.265823 1339.762555 0.000000
-8.182844 1342.825761 0.000000
-9.818740 1340.184309 0.000000
-10.246729 1336.939286 0.000000
-113.234608 1150.644602 0.000000
-124.502154 1128.800540 0.000000
-128.070518 1115.305586 0.000000
-77.229448 1232.785112 0.000000
-80.210414 1236.134959 0.000000
-23.394211 1316.468641 0.000000
-68.672701 1184.424331 0.000000
-341.086740 634.954710 0.000000
-295.566461 684.625012 0.000000
-476.543124 307.974544 0.000000
-480.802547 300.738434 0.000000
-486.782424 286.430156 0.000000
-474.648333 315.176778 0.000000
-333.318382 660.008311 0.000000
-430.426049 425.754504 0.000000
-189.307360 917.827393 0.000000
-123.513206 1038.695592 0.000000
-251.604465 849.928673 0.000000
-256.811751 837.436218 0.000000
-469.481563 151.873690 0.000000
-81.407089 1261.945744 0.000000
-470.308367 322.719971 0.000000
-85.316972 1146.885055 0.000000
-86.407822 1149.185779 0.000000
-193.453520 898.772390 0.000000
-198.957686 885.764079 0.000000
-204.876406 875.889045 0.000000
-42.864130 1252.132223 0.000000
-43.602544 1251.311400 0.000000
-46.380082 1243.440295 0.000000
-101.258059 1099.700537 0.000000
-306.341933 655.426924 0.000000
-187.376566 930.615853 0.000000
-195.127573 917.316953 0.000000
-8.148603 1331.894709 0.000000
-27.719454 1302.173158 0.000000
-27.659482 1300.677454 0.000000
-316.402458 670.528145 0.000000
-388.616555 503.673427 0.000000
-386.530082 509.469454 0.000000
-8.925533 1331.966200 0.000000
-120.448221 1124.664314 0.000000
-359.064843 555.352409 0.000000
-361.398435 550.633321 0.000000
-366.867519 540.468379 0.000000
-369.231570 535.601907 0.000000
-374.639171 525.593748 0.000000
-377.026507 520.577151 0.000000
-309.723692 683.893257 0.000000
-309.202362 689.380030 0.000000
-303.111410 697.248809 0.000000
-297.001757 705.335051 0.000000
-296.571830 710.588840 0.000000
-341.454064 611.826838 0.000000
-336.776269 626.957039 0.000000
-328.638598 643.469441 0.000000
-332.252978 642.686158 0.000000
-324.099800 659.236606 0.000000
-320.442323 659.828828 0.000000
-340.331567 625.965252 0.000000
-210.370609 853.158045 0.000000
-246.699522 798.356812 0.000000
-530.553798 66.559771 0.000000
-581.793319 195.818850 0.000000
-587.853696 200.084679 0.000000
-598.685068 175.551855 0.000000
-87.747675 1216.232828 0.000000
-240.991616 788.192619 0.000000
-246.599841 775.132789 0.000000
-248.682490 773.535205 0.000000
-254.277250 760.440019 0.000000
-259.945351 747.658460 0.000000
-262.045648 745.631750 0.000000
-327.908498 659.023479 0.000000
-40.175669 1259.875723 0.000000
-40.882311 1259.049204 0.000000
-38.213897 1266.725414 0.000000
-35.888647 1273.489888 0.000000
-35.201991 1274.321138 0.000000
-32.807470 1281.247218 0.000000
-168.519182 1112.983614 0.000000
-176.539151 1139.214772 0.000000
-137.567869 1002.914077 0.000000
-132.590436 1014.959151 0.000000
-382.781589 517.507454 0.000000
-228.469358 830.211534 0.000000
-169.912319 930.424992 0.000000
-170.218437 929.111141 0.000000
-398.948263 498.682786 0.000000
-406.099251 485.268497 0.000000
-540.008222 130.200410 0.000000
-88.848767 1187.227700 0.000000
-86.276553 1183.803555 0.000000
-89.862236 1172.327047 0.000000
-285.895574 712.515746 0.000000
-285.267304 717.304414 0.000000
-172.144116 946.949858 0.000000
-295.011711 677.719621 0.000000
-289.082295 688.569748 0.000000
-290.840157 685.028507 0.000000
-287.465930 692.262722 0.000000
-281.511624 703.169381 0.000000
-279.990846 706.751630 0.000000
-274.016430 717.705345 0.000000
-272.595228 721.179990 0.000000
-266.604754 732.172905 0.000000
-268.070062 728.960589 0.000000
-265.286962 735.542529 0.000000
-259.285427 746.565396 0.000000
-258.073606 749.834090 0.000000
-252.065789 760.878382 0.000000
-250.963174 764.048166 0.000000
-244.953927 775.105476 0.000000
-243.962170 778.180397 0.000000
-237.956648 789.242026 0.000000
-237.077794 792.224564 0.000000
-231.080335 803.283514 0.000000
-236.338869 795.358210 0.000000
-285.986924 696.097637 0.000000
-506.940754 267.827821 0.000000
-449.159799 391.737142 0.000000
-117.837524 1049.331319 0.000000
-167.814878 971.259800 0.000000
-95.902563 1115.532160 0.000000
-96.978593 1116.167696 0.000000
-101.385659 1106.468521 0.000000
-92.784309 1125.541969 0.000000
-93.992150 1125.938023 0.000000
-91.627807 1125.298740 0.000000
-88.563021 1135.173542 0.000000
-456.934912 108.024120 0.000000
-224.740729 863.423513 0.000000
-389.585847 551.294360 0.000000
-5.487121 1343.459487 0.000000
-300.419562 692.710196 0.000000
-295.615905 707.957446 0.000000
-287.303334 723.674881 0.000000
-303.918630 692.075686 0.000000
-290.969063 723.671639 0.000000
-282.620315 739.333398 0.000000
-278.108306 755.424228 0.000000
-274.273187 754.815008 0.000000
-312.198374 676.032195 0.000000
-307.613519 691.811300 0.000000
-299.304673 707.831096 0.000000
-315.883060 675.611756 0.000000
-105.497719 1087.610172 0.000000
-192.015825 915.646787 0.000000
-78.861617 1234.706637 0.000000
-139.573565 1091.683077 0.000000
-205.198896 1001.529075 0.000000
-410.767331 465.377551 0.000000
-210.833746 866.179884 0.000000
-211.197973 869.722912 0.000000
-230.315679 806.176632 0.000000
-224.331495 817.224564 0.000000
-217.715755 831.060468 0.000000
-218.392040 828.497768 0.000000
-274.867790 727.190552 0.000000
-280.289958 713.682951 0.000000
-288.347376 698.434091 0.000000
-272.283643 728.821125 0.000000
-285.793789 700.552156 0.000000
-293.820905 685.323388 0.000000
-277.814696 715.683344 0.000000
-266.834372 742.318799 0.000000
-519.023281 48.659998 0.000000
-516.815375 36.675258 0.000000
-521.381913 34.921427 0.000000
-525.716339 32.989994 0.000000
-527.665291 43.798234 0.000000
-530.152225 27.474582 0.000000
-42.334005 1273.347847 0.000000
-307.186415 769.821177 0.000000
-301.580099 765.916164 0.000000
-293.182007 781.654716 0.000000
-296.285643 762.679462 0.000000
-306.680295 671.182347 0.000000
-250.820157 844.929724 0.000000
-244.089189 847.758213 0.000000
-77.951000 1221.371425 0.000000
-151.708111 1013.024099 0.000000
-153.059683 1015.547266 0.000000
-158.349551 1006.587937 0.000000
-146.433268 1022.233670 0.000000
-154.547114 1018.120328 0.000000
-320.245323 691.792645 0.000000
-99.700874 1151.821333 0.000000
-97.167500 1148.497426 0.000000
-100.904827 1136.193034 0.000000
-93.489457 1160.550628 0.000000
-410.490954 485.072121 0.000000
-543.432821 98.935542 0.000000
-540.327914 111.574308 0.000000
-481.453947 317.125009 0.000000
-487.553169 303.898506 0.000000
-317.818526 801.430442 0.000000
-83.380023 1141.251111 0.000000
-79.271025 1150.716365 0.000000
-254.023975 768.237073 0.000000
-495.617768 293.014680 0.000000
-25.155666 1312.514897 0.000000
-22.059139 1316.596835 0.000000
-19.341365 1319.471167 0.000000
-254.358538 817.468599 0.000000
-253.910868 812.620122 0.000000
-259.991603 804.621222 0.000000
-259.630507 799.692681 0.000000
-253.535608 807.834820 0.000000
-259.343721 794.825956 0.000000
-265.452771 786.716526 0.000000
-265.255297 781.767528 0.000000
-271.373896 773.696840 0.000000
-271.266369 768.664837 0.000000
-277.390985 760.637482 0.000000
-277.373531 755.522220 0.000000
-271.559249 778.787814 0.000000
-283.499677 747.543851 0.000000
-283.573091 742.344115 0.000000
-289.696490 734.420045 0.000000
-289.860186 729.136165 0.000000
-283.507195 752.799542 0.000000
-260.424111 809.608189 0.000000
-393.538941 505.907868 0.000000
-228.716553 885.380523 0.000000
-114.074186 1076.078075 0.000000
-115.243456 1077.247775 0.000000
-110.506305 1087.030448 0.000000
-204.600538 860.963325 0.000000
-210.533033 850.222130 0.000000
-519.829423 215.506828 0.000000
-554.541079 28.809727 0.000000
-557.281320 30.002993 0.000000
-482.744563 237.895004 0.000000
-224.148527 859.256765 0.000000
-305.768421 676.258359 0.000000
-145.211033 1019.841866 0.000000
-141.147045 1031.809368 0.000000
-142.523901 1033.862947 0.000000
-139.383891 1044.856874 0.000000
-135.723896 1042.121796 0.000000
-465.903008 330.710098 0.000000
-84.882292 1135.060306 0.000000
-80.868911 1145.191577 0.000000
-88.353134 1125.035129 0.000000
-92.561403 1114.618686 0.000000
-92.005657 1114.826779 0.000000
-96.877834 1104.149801 0.000000
-84.253743 1135.385383 0.000000
-80.264025 1145.653702 0.000000
-278.595931 730.927119 0.000000
-250.001898 767.368442 0.000000
-491.690727 192.722258 0.000000
-490.794003 182.508285 0.000000
-422.204943 432.945136 0.000000
-290.051838 761.601111 0.000000
-79.462897 1248.566396 0.000000
-83.511541 1239.506513 0.000000
-492.255959 202.524209 0.000000
-70.135594 1174.337978 0.000000
-73.171069 1165.171469 0.000000
-69.487374 1174.987200 0.000000
-65.913526 1184.666129 0.000000
-387.241398 500.485654 0.000000
-384.549287 525.677622 0.000000
-382.905028 531.868611 0.000000
-377.317804 539.247487 0.000000
-181.414172 905.741783 0.000000
-48.318300 1257.627830 0.000000
-175.249062 958.575598 0.000000
-222.379521 832.686797 0.000000
-214.260007 888.896645 0.000000
-425.060046 423.999044 0.000000
-173.179774 925.944588 0.000000
-175.778913 917.352696 0.000000
-35.171276 1274.820643 0.000000
-98.174263 1116.794998 0.000000
-102.542981 1107.423974 0.000000
-99.474384 1117.478159 0.000000
-103.807554 1108.500795 0.000000
-100.245323 1119.671759 0.000000
-354.652531 931.248834 0.000000
-365.854321 930.193562 0.000000
-496.046827 175.084654 0.000000
-434.547851 407.828050 0.000000
-78.890654 1163.711144 0.000000
-82.496345 1155.676181 0.000000
-477.228551 323.238978 0.000000
-513.872688 217.068186 0.000000
-518.694329 203.670839 0.000000
-471.506087 248.531326 0.000000
-456.665175 323.047104 0.000000
-456.147082 329.853241 0.000000
-461.765945 311.157339 0.000000
-450.386495 348.646861 0.000000
-25.149970 1308.834044 0.000000
-444.896558 372.692775 0.000000
-487.384590 270.654873 0.000000
-54.464075 1270.121377 0.000000
-432.030908 407.508280 0.000000
-65.404717 1185.587014 0.000000
-376.697840 590.410789 0.000000
-269.895190 730.710987 0.000000
-391.016576 530.860242 0.000000
-389.651947 537.376853 0.000000
-396.521680 524.453027 0.000000
-403.071554 511.938778 0.000000
-395.969696 530.052787 0.000000
-395.469246 538.551689 0.000000
-387.980347 549.239299 0.000000
-216.920492 931.894555 0.000000
-222.519242 923.870500 0.000000
-49.676562 1230.476169 0.000000
-264.649554 909.794641 0.000000
-356.825667 560.179464 0.000000
-397.834780 530.595989 0.000000
-215.566656 1794.488791 0.000000
-205.572905 1904.381422 0.000000
-689.939741 2581.488954 0.000000
-323.770771 633.999656 0.000000
-328.994680 620.704654 0.000000
-337.116636 604.899108 0.000000
-334.290761 607.888150 0.000000
-342.374047 592.183760 0.000000
-326.189571 623.527911 0.000000
-320.855139 636.431843 0.000000
-312.709529 652.073370 0.000000
-318.081029 639.097127 0.000000
-309.975883 654.590230 0.000000
-304.568597 667.624826 0.000000
-439.071884 426.112851 0.000000
-290.410151 801.102161 0.000000
-284.671879 797.100974 0.000000
-281.819547 816.280313 0.000000
-521.094987 207.267322 0.000000
-517.527326 212.022437 0.000000
-30.772660 1299.679653 0.000000
-49.267628 1231.742778 0.000000
-526.104140 155.007574 0.000000
-522.008333 168.788736 0.000000
-521.408956 177.763647 0.000000
-522.432708 159.613155 0.000000
-370.046579 589.478073 0.000000
-325.159884 644.594681 0.000000
-25.956631 1299.690884 0.000000
-265.101814 772.064401 0.000000
-108.636163 1071.835764 0.000000
-364.384042 560.645292 0.000000
-362.831543 566.504781 0.000000
-427.688570 426.785077 0.000000
-195.710413 1012.821099 0.000000
-186.388008 1023.952128 0.000000
-183.479050 1040.240606 0.000000
-177.259513 1034.929572 0.000000
-61.963959 1195.204968 0.000000
-350.582422 603.739277 0.000000
-133.226512 1168.940262 0.000000
-486.398757 254.699750 0.000000
-174.171587 994.722285 0.000000
-249.400846 877.438613 0.000000
-69.437302 1219.883463 0.000000
-375.730094 545.346012 0.000000
-529.370810 102.090956 0.000000
-211.065426 890.150256 0.000000
-485.259588 190.542164 0.000000
-538.384105 156.895788 0.000000
-537.530899 165.388754 0.000000
-114.293679 1063.222543 0.000000
-115.080025 1064.429579 0.000000
-100.076886 1240.588883 0.000000
-68.878936 1285.133660 0.000000
-501.037794 168.216384 0.000000
-10.466868 1329.854022 0.000000
-11.141952 1329.679009 0.000000
-11.740400 1329.440312 0.000000
-13.893953 1326.463371 0.000000
-14.362028 1325.962520 0.000000
-477.096936 238.307666 0.000000
-403.834760 515.705013 0.000000
-292.748432 698.764241 0.000000
-454.223950 351.328068 0.000000
-84.010310 1226.411900 0.000000
-52.710710 1221.708304 0.000000
-55.406224 1213.891436 0.000000
-58.631546 1204.645040 0.000000
-347.686163 579.950945 0.000000
-351.882362 608.190943 0.000000
-356.228133 592.027533 0.000000
-364.029900 574.823041 0.000000
-352.835564 593.491780 0.000000
-367.341810 573.384917 0.000000
-253.461276 838.483272 0.000000
-229.627735 1022.378196 0.000000
-100.698099 1093.528832 0.000000
-101.300445 1093.643837 0.000000
-150.557988 1048.102517 0.000000
-141.975555 1013.432206 0.000000
-492.188002 388.843858 0.000000
-504.190394 140.751912 0.000000
-308.385904 746.711642 0.000000
-314.213487 698.871440 0.000000
-492.173708 229.876981 0.000000
-481.814098 263.199938 0.000000
-49.236458 1260.048694 0.000000
-120.005642 1067.640028 0.000000
-121.269090 1068.961694 0.000000
-126.089916 1059.708839 0.000000
-121.853823 1072.379195 0.000000
-116.512098 1078.346473 0.000000
-95.356793 1105.474368 0.000000
-161.931267 1076.496185 0.000000
-168.228419 1081.906229 0.000000
-177.938794 1072.199962 0.000000
-406.031013 492.480735 0.000000
-365.924314 951.375804 0.000000
-365.716256 974.730645 0.000000
-376.965164 926.696507 0.000000
-391.002992 900.104362 0.000000
-415.399663 883.404077 0.000000
-149.521871 1134.640820 0.000000
-496.595569 266.023639 0.000000
-7.732806 1336.484249 0.000000
-419.524718 443.125239 0.000000
-213.793661 1083.995425 0.000000
-227.659855 881.128521 0.000000
-362.235728 589.516812 0.000000
-469.623728 304.518854 0.000000
-251.087426 784.910082 0.000000
-254.228495 784.890338 0.000000
-262.442366 769.836554 0.000000
-246.074758 799.777547 0.000000
-249.389353 800.189677 0.000000
-237.995804 814.496263 0.000000
-348.930134 712.121323 0.000000
-252.444799 854.978909 0.000000
-106.565487 1083.573590 0.000000
-110.457314 1072.574040 0.000000
-236.466750 830.439353 0.000000
-228.311599 844.880923 0.000000
-311.405444 651.704510 0.000000
-70.863686 1191.149998 0.000000
-203.029022 903.828352 0.000000
-12.814041 1328.796821 0.000000
-93.088415 1123.571184 0.000000
-198.609021 919.386827 0.000000
-21.358921 1311.706266 0.000000
-19.636220 1315.635425 0.000000
-21.682104 1310.705090 0.000000
-51.526937 1227.545437 0.000000
-52.488188 1226.379007 0.000000
-55.484217 1218.246994 0.000000
-53.398097 1225.981565 0.000000
-56.481653 1217.595171 0.000000
-41.176856 1255.354284 0.000000
-64.221533 1270.184348 0.000000
-291.995952 868.042130 0.000000
-637.631363 2721.704415 0.000000
-235.077155 814.395814 0.000000
-158.965862 953.860039 0.000000
-72.181674 1166.765780 0.000000
-196.197777 874.398806 0.000000
-127.798990 1026.830550 0.000000
-93.236498 1114.590156 0.000000
-43.251768 1250.082158 0.000000
-241.340396 791.898275 0.000000
-443.292216 373.219711 0.000000
-87.044081 1127.600453 0.000000
-310.335470 678.462234 0.000000
-278.609602 710.477628 0.000000
-130.756790 1031.929618 0.000000
-135.865993 1021.716236 0.000000
-440.747480 364.337592 0.000000
-386.276984 519.527183 0.000000
-256.105013 832.363376 0.000000
-407.958348 478.833378 0.000000
-104.114137 1084.246962 0.000000
-61.959134 1224.250359 0.000000
-60.841054 1221.622083 0.000000
-363.126940 628.255713 0.000000
-206.877459 889.950069 0.000000
-91.312007 1219.918929 0.000000
-95.085134 1209.419646 0.000000
-32.136963 1282.433252 0.000000
-30.072637 1289.209345 0.000000
-382.369807 510.736157 0.000000
-331.847959 934.679650 0.000000
-337.770464 595.691966 0.000000
-56.161097 1272.628395 0.000000
-58.009089 1275.076292 0.000000
-199.733067 902.130818 0.000000
-284.343627 861.887046 0.000000
-32.615542 1286.697082 0.000000
-94.108450 1125.627471 0.000000
-505.135852 151.501985 0.000000
-500.216062 157.756694 0.000000
-265.530304 758.051629 0.000000
-243.690278 892.432890 0.000000
-320.325544 937.066261 0.000000
-32.889303 1280.427813 0.000000
-37.816667 1272.628069 0.000000
-76.338340 1245.386511 0.000000
-13.395486 1326.914614 0.000000
-517.691976 182.773654 0.000000
-372.330886 530.703135 0.000000
-404.696387 505.000063 0.000000
-412.467406 490.733084 0.000000
-206.699605 905.941667 0.000000
-319.624691 722.727862 0.000000
-329.375786 704.453315 0.000000
-319.030377 729.584509 0.000000
-355.593684 580.180410 0.000000
-139.499418 1008.273509 0.000000
-543.568816 45.959758 0.000000
-156.402547 964.748643 0.000000
-156.013375 980.437806 0.000000
-160.820067 966.639282 0.000000
-154.190292 979.251074 0.000000
-159.090509 965.728775 0.000000
-152.642201 978.355918 0.000000
-149.398513 992.834960 0.000000
-144.715558 1006.459785 0.000000
-142.995707 1005.043940 0.000000
-347.843928 643.494379 0.000000
-75.503091 1182.979318 0.000000
-426.198957 438.838708 0.000000
-428.288284 432.285786 0.000000
-6.655844 1338.681084 0.000000
-531.616747 77.537022 0.000000
-307.666164 962.179983 0.000000
-60.038785 1299.755641 0.000000
-607.937420 66.556943 0.000000
-612.560246 45.413378 0.000000
-58.607390 1287.829605 0.000000
-14.314780 1327.608802 0.000000
-333.749817 699.803545 0.000000
-341.374083 682.438468 0.000000
-28.028261 1322.120610 0.000000
-36.618858 1340.582149 0.000000
-32.777464 1356.184651 0.000000
-340.084114 591.531805 0.000000
-198.527812 874.382214 0.000000
-199.366143 957.846819 0.000000
-492.476186 221.062892 0.000000
-536.036683 85.038298 0.000000
-396.108453 489.458911 0.000000
-39.064396 1295.004727 0.000000
-439.187569 395.286418 0.000000
-57.833784 1210.161412 0.000000
-170.026036 967.717772 0.000000
-85.432011 1183.221864 0.000000
-77.349766 1208.263789 0.000000
-180.646393 1122.991100 0.000000
-114.863766 1100.908409 0.000000
-108.589319 1110.934302 0.000000
-332.838499 626.858358 0.000000
-124.198295 1039.489284 0.000000
-158.775795 957.519835 0.000000
-70.012707 1232.122955 0.000000
-357.489868 578.553735 0.000000
-384.089235 552.182525 0.000000
-545.335792 66.698138 0.000000
-209.917454 846.714011 0.000000
-211.378406 845.493016 0.000000
-301.828445 736.084494 0.000000
-202.716028 1018.689594 0.000000
-468.798881 343.928441 0.000000
-518.796203 155.068869 0.000000
-283.417434 702.907089 0.000000
-377.468010 793.175173 0.000000
-80.489878 1191.703873 0.000000
-193.728364 878.990120 0.000000
-40.047963 1282.673344 0.000000
-318.979346 826.551389 0.000000
-455.318429 336.470528 0.000000
-139.908878 1029.611353 0.000000
-210.665320 966.928126 0.000000
-537.041532 114.912489 0.000000
-488.710855 262.849614 0.000000
-88.373081 1239.341055 0.000000
-187.119082 894.288842 0.000000
-453.180388 371.469420 0.000000
-506.128345 190.854385 0.000000
-244.716238 776.970181 0.000000
-499.698022 250.336895 0.000000
-225.232662 996.928142 0.000000
-302.151780 876.142429 0.000000
-201.656065 934.315500 0.000000
-315.449208 641.981282 0.000000
-334.908147 889.263777 0.000000
-217.242944 972.362634 0.000000
-248.424448 1004.841286 0.000000
-260.187636 999.622477 0.000000
-431.947827 406.435858 0.000000
-438.885624 390.123209 0.000000
-1183.558596 2433.316246 0.000000
-18.619786 1318.269901 0.000000
-27.790850 1361.357129 0.000000
-1200.120898 1960.688152 0.000000
-415.172851 444.185046 0.000000
-17.998949 1319.985123 0.000000
-271.402073 1037.779098 0.000000
-259.805645 1041.823994 0.000000
-821.016620 2463.758286 0.000000
-433.590426 400.520780 0.000000
-277.660478 771.038186 0.000000
-148.810387 977.395911 0.000000
-489.460238 296.435373 0.000000
-127.505226 1026.050655 0.000000
-248.451105 1066.991811 0.000000
-257.642545 785.242579 0.000000
-110.571913 1095.429842 0.000000
-116.601130 1084.982759 0.000000
-237.965388 969.177172 0.000000
-327.761086 846.110375 0.000000
-601.663082 126.818767 0.000000
-533.052073 98.553726 0.000000
-462.104630 303.872873 0.000000
-455.967966 301.068923 0.000000
-481.643069 285.892106 0.000000
-526.488397 136.125482 0.000000
-77.109257 1195.383785 0.000000
-195.895321 974.422874 0.000000
-225.867029 976.698714 0.000000
-315.213630 1338.850203 0.000000
-165.326928 1097.042680 0.000000
-1387.307019 1720.607645 0.000000
-1446.436052 1575.174754 0.000000
-1475.469785 1773.916855 0.000000
-997.154259 2680.812696 0.000000
-1018.654267 2849.629497 0.000000
-278.909002 1639.456186 0.000000
-272.583621 973.459379 0.000000
-713.988365 2744.307976 0.000000
-275.253402 722.434082 0.000000
-282.332178 708.366234 0.000000
-38.273141 1351.772358 0.000000
-61.322237 1200.919565 0.000000
-1408.365222 1891.260015 0.000000
-1476.149727 1949.100326 0.000000
-210.325737 856.228743 0.000000
-102.191463 1101.453557 0.000000
-1279.052092 1352.159298 0.000000
-294.868603 724.077063 0.000000
-476.975013 315.307413 0.000000
-210.115219 905.531950 0.000000
-739.925599 841.846404 0.000000
-466.965202 1245.352960 0.000000
-467.591120 1176.841385 0.000000
-674.761828 1621.774006 0.000000
-116.510411 1766.811629 0.000000
-43.529016 1248.633965 0.000000
-139.975689 1773.776937 0.000000
-526.672972 765.832091 0.000000
-630.768158 603.541795 0.000000
-621.947946 673.875555 0.000000
-588.422645 726.501808 0.000000
-190.284381 950.902541 0.000000
-402.891868 471.997236 0.000000
-759.320864 568.170332 0.000000
-782.594506 589.345850 0.000000
-786.353925 521.330864 0.000000
-707.783358 594.631988 0.000000
-32.854494 1727.322317 0.000000
-801.428510 117.635181 0.000000
-340.142767 660.958799 0.000000
-561.243208 549.206533 0.000000
-18.511489 1320.768552 0.000000
-233.055284 797.990614 0.000000
-757.160806 279.228714 0.000000
-407.685570 1359.272830 0.000000
-438.156866 1369.266619 0.000000
-386.317951 1546.047177 0.000000
-585.725315 1300.557108 0.000000
-585.994713 1368.490333 0.000000
-557.621379 1420.871464 0.000000
-67.275599 1183.303826 0.000000
-407.945660 1088.184626 0.000000
-438.815001 1096.982329 0.000000
-644.388965 1196.831571 0.000000
-639.448102 762.840899 0.000000
-126.261715 3002.588200 0.000000
-1200.743899 516.493508 0.000000
-1132.654326 482.041563 0.000000
-1078.639514 608.512118 0.000000
-1059.723820 437.149895 0.000000
-1113.184622 324.684145 0.000000
-1056.076595 270.530528 0.000000
-1099.651701 154.052182 0.000000
-1182.194024 340.598461 0.000000
-563.487922 1621.276123 0.000000
-725.919792 1318.655480 0.000000
-726.142060 1387.324844 0.000000
-475.458925 1579.584155 0.000000
-502.259464 1526.546758 0.000000
-504.953790 1592.685126 0.000000
-441.908462 1027.150686 0.000000
-654.159825 623.113603 0.000000
-643.394754 1333.232026 0.000000
-260.795060 978.346454 0.000000
-613.975397 744.340034 0.000000
-497.752205 1189.029265 0.000000
-523.956297 605.509154 0.000000
-294.002458 2774.704485 0.000000
-365.643192 2795.705548 0.000000
-318.964853 2929.741736 0.000000
-390.776480 2952.453401 0.000000
-413.129706 2658.832799 0.000000
-198.462806 922.668504 0.000000
-592.232579 1024.967114 0.000000
-620.297576 1041.791530 0.000000
-864.507258 192.976119 0.000000
-488.696340 3133.827570 0.000000
-57.295167 1977.741888 0.000000
-786.248550 3232.655008 0.000000
-382.674175 1481.439453 0.000000
-344.074591 1278.329733 0.000000
-661.481877 3344.211927 0.000000
-737.552960 3385.033030 0.000000
-809.261557 3395.544931 0.000000
-615.898904 1451.924073 0.000000
-647.632056 1602.853974 0.000000
-463.665525 2975.018225 0.000000
-495.026885 164.516701 0.000000
-493.665633 153.477931 0.000000
-1373.299638 917.668342 0.000000
-176.860846 2454.474812 0.000000
-502.108737 1050.202011 0.000000
-415.806845 3109.955735 0.000000
-728.989186 1182.912717 0.000000
-757.441290 1134.244286 0.000000
-758.009528 1069.839219 0.000000
-700.348222 1435.891881 0.000000
-730.331096 1454.308770 0.000000
-758.788093 1390.245071 0.000000
-250.538398 3349.262741 0.000000
-177.472288 1891.633487 0.000000
-1301.729399 883.942735 0.000000
-518.174127 837.767857 0.000000
-170.881431 1148.454892 0.000000
-469.303504 1107.671397 0.000000
-730.809281 1051.019171 0.000000
-597.077101 1772.338857 0.000000
-720.996982 752.614410 0.000000
-601.888778 1835.230471 0.000000
-639.371566 1859.602270 0.000000
-497.380517 1325.553336 0.000000
-685.573800 3505.170004 0.000000
-440.148812 1435.788109 0.000000
-423.965782 1685.347987 0.000000
-213.306270 1063.817804 0.000000
-213.794712 1083.550917 0.000000
-296.732322 680.101173 0.000000
-16.920976 1322.207778 0.000000
-356.512611 1537.117247 0.000000
-511.629787 1723.139099 0.000000
-587.312221 1163.524091 0.000000
-346.345216 887.144212 0.000000
-146.733202 1008.175961 0.000000
-140.141596 1020.101832 0.000000
-752.775311 345.516769 0.000000
-738.314997 258.369219 0.000000
-714.229453 303.148340 0.000000
-467.277357 1313.245495 0.000000
-580.496391 797.483569 0.000000
-573.762539 868.283429 0.000000
-553.740278 781.109125 0.000000
-204.483775 3477.270648 0.000000
-126.514294 3443.773021 0.000000
-512.591439 225.289899 0.000000
-437.043456 1166.078713 0.000000
-502.737864 262.396637 0.000000
-112.195259 1916.591873 0.000000
-491.377779 317.224100 0.000000
-292.345157 1461.150381 0.000000
-756.025592 1201.021357 0.000000
-820.251096 280.493427 0.000000
-838.207725 301.385469 0.000000
-341.763627 1716.367522 0.000000
-118.089169 1969.494650 0.000000
-692.246406 505.233081 0.000000
-62.807756 1842.132738 0.000000
-562.683388 709.531864 0.000000
-654.883626 920.838359 0.000000
-743.516642 777.192030 0.000000
-678.699520 1686.038740 0.000000
-204.473442 887.108260 0.000000
-87.623626 1169.110232 0.000000
-251.040548 941.587081 0.000000
-472.682670 322.321052 0.000000
-91.774134 1190.821885 0.000000
-379.529840 1416.366017 0.000000
-349.033504 1408.803418 0.000000
-166.808317 939.064086 0.000000
-478.750043 1645.103377 0.000000
-651.093593 990.160709 0.000000
-52.285628 1222.929547 0.000000
-118.015931 1049.304078 0.000000
-52.922111 1267.584876 0.000000
-56.354185 1259.556352 0.000000
-319.107362 1764.950791 0.000000
-127.248120 2025.949132 0.000000
-308.728259 939.940684 0.000000
-38.532804 1833.077236 0.000000
-525.009997 173.063677 0.000000
-520.648030 186.557292 0.000000
-371.677978 530.841189 0.000000
-734.403646 1528.285047 0.000000
-199.328734 888.929582 0.000000
-16.470262 1322.336583 0.000000
-180.452590 1018.900022 0.000000
-617.734080 1110.969976 0.000000
-615.983765 1179.836595 0.000000
-736.555650 547.401280 0.000000
-427.215082 417.569495 0.000000
-434.184639 400.930487 0.000000
-648.093247 1059.300040 0.000000
-409.916440 1425.409937 0.000000
-222.714885 936.887187 0.000000
-316.190435 849.535188 0.000000
-684.948264 573.963343 0.000000
-94.976607 1145.403711 0.000000
-167.896183 938.881073 0.000000
-614.989901 1248.370591 0.000000
-1508.782627 2089.004888 0.000000
-614.685742 1316.563378 0.000000
-19.540004 1317.469030 0.000000
-17.700362 1322.069565 0.000000
-18.288405 1321.587931 0.000000
-73.511548 1213.004269 0.000000
-143.192885 989.825347 0.000000
-138.122419 1001.976229 0.000000
-334.446523 648.055544 0.000000
-36.492973 1287.395888 0.000000
-86.290213 1210.941958 0.000000
-402.577812 470.084464 0.000000
-487.805938 313.260530 0.000000
-485.869853 320.714520 0.000000
-479.732863 333.412860 0.000000
-483.636504 328.655992 0.000000
-477.719013 340.823137 0.000000
-481.652634 336.133408 0.000000
-489.822406 316.315425 0.000000
-475.451142 338.991857 0.000000
-615.008529 1384.412682 0.000000
-415.099219 465.388661 0.000000
-46.022488 1282.254020 0.000000
-300.086071 898.743773 0.000000
-299.364304 672.605827 0.000000
-533.461151 177.769869 0.000000
-559.093686 1488.040754 0.000000
-227.797525 880.850650 0.000000
-283.866431 724.055293 0.000000
-367.205664 907.323969 0.000000
-534.298177 1606.610343 0.000000
-272.447587 739.910230 0.000000
-377.946932 530.848317 0.000000
-508.077649 1658.330194 0.000000
-662.372039 2883.347103 0.000000
-453.121886 1697.806706 0.000000
-586.875200 1436.045265 0.000000
-28.920527 1329.932780 0.000000
-37.726402 1267.420115 0.000000
-531.758233 1540.293139 0.000000
-102.608549 1120.777207 0.000000
-68.149622 1180.837173 0.000000
-137.892428 1035.941204 0.000000
-466.800630 318.674995 0.000000
-302.884718 765.146499 0.000000
-48.819411 1238.217621 0.000000
-80.029851 1248.247022 0.000000
-368.549308 558.863277 0.000000
-133.737280 1014.533631 0.000000
-450.634626 367.625095 0.000000
-243.985202 954.512364 0.000000
-65.019361 1186.677907 0.000000
-427.950599 1748.462983 0.000000
-127.648820 1043.378251 0.000000
-129.330519 1045.213989 0.000000
-457.580637 338.415059 0.000000
-23.415470 1307.116865 0.000000
-21.986718 1311.791931 0.000000
-24.260600 1305.871503 0.000000
-253.015596 798.467424 0.000000
-403.768836 1799.539355 0.000000
-411.246845 1862.524610 0.000000
-338.078598 605.133886 0.000000
-364.222690 816.500480 0.000000
-264.110339 739.060418 0.000000
-209.204335 901.508708 0.000000
-440.282418 358.331115 0.000000
-435.279217 380.249092 0.000000
-317.871775 1003.698381 0.000000
-282.958083 1034.222365 0.000000
-286.136923 796.540555 0.000000
-208.653633 848.164550 0.000000
-201.850400 862.013167 0.000000
-489.105119 287.457630 0.000000
-240.990103 795.641816 0.000000
-248.649590 835.722183 0.000000
-248.182993 1046.461887 0.000000
-77.036089 1270.248794 0.000000
-274.314808 791.026566 0.000000
-241.361240 824.647687 0.000000
-189.246458 914.349288 0.000000
-313.746176 657.362898 0.000000
-99.676019 1094.304179 0.000000
-336.616650 610.462424 0.000000
-42.364105 1333.786666 0.000000
-247.388576 769.448148 0.000000
-143.216146 1129.326672 0.000000
-157.624536 965.103752 0.000000
-265.726362 791.725939 0.000000
-521.463295 109.943040 0.000000
-45.744358 1355.714076 0.000000
-217.955310 905.734259 0.000000
-43.085002 1275.561594 0.000000
-445.387575 361.690597 0.000000
-453.422196 378.024925 0.000000
-365.920135 546.545491 0.000000
-271.923833 994.982634 0.000000
-208.065116 945.174832 0.000000
-139.946062 1142.946664 0.000000
-146.361551 1148.241411 0.000000
-7.533009 1334.007181 0.000000
-55.515916 1242.904581 0.000000
-271.819565 783.934389 0.000000
-180.670189 1056.339994 0.000000
-329.156883 1001.827161 0.000000
-573.712263 242.166595 0.000000
-572.966385 258.902717 0.000000
-568.697383 283.251252 0.000000
-331.585283 611.079318 0.000000
-68.606814 1204.224755 0.000000
-355.932039 561.210590 0.000000
-556.222767 48.428142 0.000000
-192.811884 892.958337 0.000000
-10.760126 1325.878196 0.000000
-11.324506 1334.043248 0.000000
-10.991932 1336.894144 0.000000
-178.090125 979.146801 0.000000
-333.228059 912.041730 0.000000
-19.642482 1318.664111 0.000000
-16.853111 1321.621492 0.000000
-127.814612 1097.615882 0.000000
-284.989853 696.478159 0.000000
-377.162549 557.003601 0.000000
-493.620429 111.121343 0.000000
-330.494995 823.006223 0.000000
-504.912345 100.681018 0.000000
-502.911823 88.212014 0.000000
-288.334798 903.006648 0.000000
-263.391554 929.955958 0.000000
-211.830597 857.415033 0.000000
-54.886701 1220.092606 0.000000
-434.181477 432.280864 0.000000
-438.137173 431.769411 0.000000
-143.119707 1161.389116 0.000000
-549.048032 121.422090 0.000000
-476.737408 143.878362 0.000000
-166.533738 956.908744 0.000000
-252.998982 800.998770 0.000000
-274.788070 815.846299 0.000000
-512.297106 205.608953 0.000000
-254.585118 764.309251 0.000000
-261.373454 750.411196 0.000000
-58.288476 1205.899518 0.000000
-309.849230 749.872583 0.000000
-408.017680 463.361314 0.000000
-407.879014 491.759763 0.000000
-414.727351 478.719300 0.000000
-107.308596 1238.507972 0.000000
-100.016705 1261.743886 0.000000
-517.201425 114.310563 0.000000
-516.167954 103.253801 0.000000
-162.448424 994.803438 0.000000
-163.739576 997.686855 0.000000
-345.480712 591.099744 0.000000
-465.015025 366.319786 0.000000
-362.798281 607.749404 0.000000
-126.630828 1043.520933 0.000000
-81.918432 1262.775809 0.000000
-259.866948 1020.772622 0.000000
-40.513707 1265.033327 0.000000
-116.532874 1199.871225 0.000000
-138.661879 1002.097148 0.000000
-367.111289 564.913480 0.000000
-311.504362 691.944783 0.000000
-187.913414 1062.390722 0.000000
-405.520084 467.597642 0.000000
-61.980577 1267.594469 0.000000
-244.826352 852.918399 0.000000
-22.046470 1309.737711 0.000000
-479.422414 199.250067 0.000000
-387.240277 501.523093 0.000000
-343.291499 932.750239 0.000000
-371.691073 546.901638 0.000000
-273.548122 805.028119 0.000000
-273.018181 799.683630 0.000000
-379.318414 615.973473 0.000000
-324.215390 621.747805 0.000000
-34.038881 1295.549298 0.000000
-55.081263 1215.210255 0.000000
-446.593129 391.675369 0.000000
-153.617954 965.753195 0.000000
-356.065757 646.664491 0.000000
-384.762684 836.369239 0.000000
-315.336643 753.683393 0.000000
-17.155965 1322.613836 0.000000
-59.095416 1203.551490 0.000000
-508.254164 83.879507 0.000000
-462.316508 240.555544 0.000000
-172.153536 926.399328 0.000000
-272.011894 844.568287 0.000000
-271.131759 839.091382 0.000000
-242.240604 833.687675 0.000000
-518.753547 145.340661 0.000000
-289.614812 739.758643 0.000000
-324.811894 645.995458 0.000000
-115.958855 1062.845308 0.000000
-159.013110 986.527001 0.000000
-430.544946 445.779843 0.000000
-252.480397 961.630350 0.000000
-790.393038 2768.185470 0.000000
-211.584904 928.308243 0.000000
-522.668552 150.216018 0.000000
-766.876337 2604.387997 0.000000
-388.449687 524.756092 0.000000
-513.850589 188.121081 0.000000
-536.394084 142.834549 0.000000
-417.757789 441.803645 0.000000
-387.700423 501.302074 0.000000
-235.465294 801.543405 0.000000
-531.228167 194.974204 0.000000
-535.556515 183.291709 0.000000
-529.316642 204.163988 0.000000
-154.028897 965.163015 0.000000
-113.858674 1167.381180 0.000000
-162.710210 951.939213 0.000000
-9.112724 1322.406571 0.000000
-345.794721 639.988134 0.000000
-317.984011 633.827322 0.000000
-500.279754 223.978028 0.000000
-253.714811 942.286516 0.000000
-434.588393 441.663224 0.000000
-339.928616 613.223505 0.000000
-222.524168 829.325017 0.000000
-167.900608 985.841253 0.000000
-214.808357 990.064820 0.000000
-80.080263 1272.592002 0.000000
-469.066550 352.022832 0.000000
-475.750189 348.156904 0.000000
-35.353610 1273.315839 0.000000
-48.971558 1233.152687 0.000000
-454.895365 354.680214 0.000000
-241.198143 814.958744 0.000000
-278.607901 787.020396 0.000000
-465.410632 173.707196 0.000000
-444.431637 398.417007 0.000000
-108.582702 1072.631545 0.000000
-45.915693 1246.845571 0.000000
-411.382717 478.470642 0.000000
-445.017446 405.465332 0.000000
-295.715767 732.164393 0.000000
-225.060248 843.967932 0.000000
-114.523429 1061.400566 0.000000
-475.200139 330.469914 0.000000
-79.781934 1146.293924 0.000000
-504.407995 217.449073 0.000000
-245.752313 935.506971 0.000000
-381.344395 538.098869 0.000000
-231.646292 864.424014 0.000000
-219.571923 1050.401058 0.000000
-215.090843 892.992534 0.000000
-105.203728 1082.829039 0.000000
-31.063127 1301.294287 0.000000
-506.266371 181.493636 0.000000
-397.591474 481.098586 0.000000
-251.066270 983.008116 0.000000
-407.762998 460.336597 0.000000
-400.243058 476.497487 0.000000
-217.075014 843.370765 0.000000
-16.083081 1323.028262 0.000000
-147.022679 1179.395999 0.000000
-277.590549 745.476484 0.000000
-396.290746 812.286443 0.000000
-228.890229 838.085298 0.000000
-535.188857 160.589648 0.000000
-318.493467 1402.876139 0.000000
-24.126740 1304.313575 0.000000
-193.234421 880.908740 0.000000
-232.520704 884.314571 0.000000
-424.752285 424.501384 0.000000
-83.338564 1144.839529 0.000000
-439.337259 399.820741 0.000000
-338.784603 618.905298 0.000000
-331.776559 632.446908 0.000000
-267.386396 754.793016 0.000000
-402.545115 470.207195 0.000000
-539.612289 139.252929 0.000000
-525.316431 215.164814 0.000000
-143.179288 993.475840 0.000000
-142.892176 992.365786 0.000000
-142.739646 991.436683 0.000000
-21.324878 1315.922586 0.000000
-335.913982 636.258722 0.000000
-158.810905 1091.511410 0.000000
-473.439974 346.255195 0.000000
-128.280478 1026.428024 0.000000
-77.919365 1169.468113 0.000000
-500.585119 75.173872 0.000000
-122.306254 1204.351660 0.000000
-250.973953 772.195759 0.000000
-262.513509 1457.568259 0.000000
-288.090917 813.635945 0.000000
-293.745931 807.662216 0.000000
-300.957374 667.188460 0.000000
-510.554404 165.844804 0.000000
-49.894772 1244.453906 0.000000
-445.218979 336.450347 0.000000
-450.988076 322.055065 0.000000
-454.855119 293.044407 0.000000
-379.306957 539.985764 0.000000
-204.724249 962.104762 0.000000
-310.057029 656.439148 0.000000
-183.089024 1094.074938 0.000000
-250.459326 882.574083 0.000000
-251.856802 887.304633 0.000000
-154.839571 1015.294228 0.000000
-462.060172 350.549666 0.000000
-474.694494 354.410632 0.000000
-480.505814 341.847065 0.000000
-486.262811 330.454300 0.000000
-430.145745 406.741765 0.000000
-178.970583 968.217135 0.000000
-180.169180 971.398507 0.000000
-270.702484 754.615197 0.000000
-549.391256 103.062246 0.000000
-393.442184 532.121280 0.000000
-395.766466 531.328160 0.000000
-277.487580 765.810590 0.000000
-163.371332 985.922488 0.000000
-216.356864 842.826054 0.000000
-40.791887 1267.003913 0.000000
-46.349484 1240.316160 0.000000
-398.705432 490.128187 0.000000
-468.486027 186.157366 0.000000
-418.080244 452.092454 0.000000
-492.937357 255.571646 0.000000
-487.928529 160.651710 0.000000
-9.022542 1336.784393 0.000000
-329.320330 624.398619 0.000000
-225.405237 867.669908 0.000000
-23.498815 1306.506086 0.000000
-33.981125 1276.606884 0.000000
-84.338851 1145.076646 0.000000
-77.660166 1154.819472 0.000000
-27.961167 1294.939444 0.000000
-30.291937 1288.591763 0.000000
-10.905500 1323.046383 0.000000
-501.069272 44.183327 0.000000
-503.968317 28.516334 0.000000
-97.575097 1104.278912 0.000000
-290.447352 718.743476 0.000000
-108.661974 1221.292851 0.000000
-471.450508 353.483868 0.000000
-362.101084 557.493704 0.000000
-274.382009 726.652315 0.000000
-115.186466 1062.038348 0.000000
-467.812228 323.781788 0.000000
-204.334496 871.427245 0.000000
-202.239619 871.479357 0.000000
-195.040338 885.292346 0.000000
-330.703188 619.174161 0.000000
-12.508172 1331.077069 0.000000
-183.535566 927.402627 0.000000
-406.664873 473.532125 0.000000
-219.028825 910.109134 0.000000
-514.627975 150.452451 0.000000
-269.718657 770.806463 0.000000
-170.133332 991.382073 0.000000
-213.674057 949.594195 0.000000
-324.771240 628.174762 0.000000
-136.778811 1023.401382 0.000000
-424.945547 419.961510 0.000000
-175.259802 1087.765343 0.000000
-288.423914 698.674182 0.000000
-236.592117 887.079175 0.000000
-389.917090 497.032093 0.000000
-233.083164 829.552178 0.000000
-129.802435 1048.453901 0.000000
-219.439411 876.200138 0.000000
-110.273448 1179.507658 0.000000
-334.470469 745.970759 0.000000
-548.415348 64.383647 0.000000
-373.513098 532.223245 0.000000
-374.896076 555.726916 0.000000
-488.488998 278.871460 0.000000
-147.875093 1024.184018 0.000000
-83.746935 1135.889632 0.000000
-472.571436 265.967851 0.000000
-491.085655 98.023351 0.000000
-462.226175 328.231341 0.000000
-467.239460 292.587429 0.000000
-234.481725 816.872348 0.000000
-40.803729 1256.680966 0.000000
-261.610136 864.681073 0.000000
-487.587749 220.085623 0.000000
-247.833454 820.790408 0.000000
-298.859897 689.963980 0.000000
-23.787560 1305.387112 0.000000
-194.336199 935.076350 0.000000
-316.941726 660.775081 0.000000
-241.224555 870.378189 0.000000
-236.218684 867.130823 0.000000
-523.307423 190.441874 0.000000
-473.524987 130.510124 0.000000
-203.346814 910.164743 0.000000
-370.075611 552.858676 0.000000
-57.497930 1286.103952 0.000000
-519.401987 87.826710 0.000000
-255.279239 870.411398 0.000000
-273.087809 850.167503 0.000000
-117.413473 1154.868465 0.000000
-477.624131 74.366017 0.000000
-280.771811 808.944584 0.000000
-175.375128 922.544466 0.000000
-257.547362 880.541607 0.000000
-167.648305 953.842742 0.000000
-489.545962 171.835021 0.000000
-165.736473 952.918825 0.000000
-43.911538 1247.314809 0.000000
-112.551205 1098.031655 0.000000
-307.415244 665.495263 0.000000
-95.499081 1107.318795 0.000000
-347.770164 621.869671 0.000000
-455.984251 344.910974 0.000000
-258.396314 847.729514 0.000000
-61.602634 1253.914639 0.000000
-104.789489 1095.815877 0.000000
-189.570949 888.023943 0.000000
-9.638209 1336.876877 0.000000
-265.942094 770.118384 0.000000
-262.102166 823.816516 0.000000
-140.230228 1009.844110 0.000000
-141.057723 1011.565863 0.000000
-238.092698 855.684812 0.000000
-122.901983 1074.345994 0.000000
-547.680952 54.298825 0.000000
-295.976745 721.271078 0.000000
-369.590588 543.404350 0.000000
-455.358712 253.216256 0.000000
-246.695367 874.211300 0.000000
-252.664443 878.682984 0.000000
-540.250096 120.980410 0.000000
-468.302919 311.659375 0.000000
-344.845231 610.295466 0.000000
-449.582210 361.682224 0.000000
-30.503415 1287.201599 0.000000
-513.891140 247.697344 0.000000
-536.994697 124.413343 0.000000
-105.827746 1083.113840 0.000000
-118.322969 1215.102631 0.000000
-534.313441 63.779992 0.000000
-328.954361 697.141634 0.000000
-308.408009 651.804168 0.000000
-540.230339 101.968020 0.000000
-386.928869 551.592805 0.000000
-474.209364 295.210826 0.000000
-68.954703 1175.807065 0.000000
-406.234552 480.654601 0.000000
-457.565983 357.975915 0.000000
-210.392211 859.426589 0.000000
-72.614317 1165.881240 0.000000
-76.964784 1155.234769 0.000000
-455.380644 364.728258 0.000000
-30.792569 1285.891232 0.000000
-28.866732 1291.216104 0.000000
-234.707294 824.914160 0.000000
-124.238230 1040.023313 0.000000
-341.859062 628.953943 0.000000
-265.765452 806.151968 0.000000
-190.623438 886.975772 0.000000
-87.313267 1130.056205 0.000000
-291.298275 760.059579 0.000000
-537.308314 172.684017 0.000000
-280.142052 803.403577 0.000000
-426.899657 419.692604 0.000000
-238.855695 860.362880 0.000000
-424.463637 415.307302 0.000000
-150.092929 987.446676 0.000000
-279.312127 793.760249 0.000000
-48.528150 1235.959638 0.000000
-413.502161 469.808880 0.000000
-351.697501 597.778692 0.000000
-61.900804 1204.774457 0.000000
-38.055081 1274.531081 0.000000
-180.617628 1109.130396 0.000000
-291.082583 696.571293 0.000000
-436.319309 395.431828 0.000000
-290.690234 772.779988 0.000000
-200.982560 899.096928 0.000000
-107.151632 1126.806144 0.000000
-340.058221 602.126185 0.000000
-533.109855 52.696146 0.000000
-466.751304 300.084177 0.000000
-176.120929 929.198893 0.000000
-510.272659 252.272191 0.000000
-511.814486 39.502346 0.000000
-312.872339 730.495411 0.000000
-324.321663 695.068083 0.000000
-497.930499 61.524867 0.000000
-104.709451 1123.663722 0.000000
-545.665883 33.836684 0.000000
-234.547693 820.845662 0.000000
-181.073579 911.627056 0.000000
-497.201882 92.912475 0.000000
-52.751433 1292.025380 0.000000
-53.614122 1237.888718 0.000000
-56.735760 1228.671647 0.000000
-287.838592 778.353098 0.000000
-473.609518 58.278204 0.000000
-546.753657 44.101750 0.000000
-524.340545 222.593519 0.000000
-522.455267 233.864289 0.000000
-529.877889 208.036660 0.000000
-429.469216 412.376224 0.000000
-520.563328 99.073562 0.000000
-443.025450 378.528213 0.000000
-279.569631 797.901347 0.000000
-316.220954 711.713769 0.000000
-247.444550 816.153318 0.000000
-253.235819 803.116336 0.000000
-259.134583 790.024312 0.000000
-344.700328 611.200818 0.000000
-166.545491 988.457160 0.000000
-105.868551 1096.797618 0.000000
-110.679407 1076.843740 0.000000
-75.825411 1163.197953 0.000000
-524.727905 95.188029 0.000000
-118.908697 1069.564058 0.000000
-154.852911 1052.064594 0.000000
-472.564117 274.169471 0.000000
-299.695478 744.204260 0.000000
-516.251131 220.256190 0.000000
-351.940030 644.825222 0.000000
-478.920990 308.051973 0.000000
-484.989773 293.908619 0.000000
-491.618147 298.319067 0.000000
-371.507537 537.780261 0.000000
-278.994067 739.228246 0.000000
-29.317174 1290.114787 0.000000
-490.883281 279.897120 0.000000
-366.430059 608.413862 0.000000
-150.360646 1166.777650 0.000000
-382.155941 512.959906 0.000000
-493.491359 290.793545 0.000000
-380.256938 570.810010 0.000000
-35.376817 1281.673981 0.000000
-44.259713 1295.308072 0.000000
-176.211454 915.988610 0.000000
-344.441239 662.571653 0.000000
-29.814492 1289.129619 0.000000
-459.429385 345.887059 0.000000
-197.522315 918.957413 0.000000
-114.139784 1225.300682 0.000000
-164.736692 941.007814 0.000000
-174.665478 980.134090 0.000000
-169.162810 988.951951 0.000000
-165.048539 1000.880819 0.000000
-170.010005 993.027129 0.000000
-176.993124 988.314373 0.000000
-183.523273 977.676607 0.000000
-532.446688 88.193931 0.000000
-444.486099 367.512534 0.000000
-356.428733 596.513160 0.000000
-373.423362 589.749405 0.000000
-359.270155 626.768096 0.000000
-298.565294 670.254832 0.000000
-279.057373 792.439690 0.000000
-49.387678 1235.288051 0.000000
-284.654815 779.819413 0.000000
-513.158344 196.958279 0.000000
-57.629972 1231.154728 0.000000
-110.654421 1246.906758 0.000000
-304.635238 746.730665 0.000000
-76.384129 1155.824496 0.000000
-417.546334 447.008240 0.000000
-509.728859 241.412868 0.000000
-289.612438 745.148708 0.000000
-492.582203 272.258865 0.000000
-336.777087 680.010619 0.000000
-135.675859 1033.736344 0.000000
-145.495144 999.580809 0.000000
-181.260971 949.340307 0.000000
-64.113590 1211.764919 0.000000
-191.734899 927.883013 0.000000
-528.682792 91.569585 0.000000
-229.689472 809.221078 0.000000
-430.206278 402.157115 0.000000
-531.696764 40.978193 0.000000
-533.985218 27.278837 0.000000
-508.170834 249.338075 0.000000
-363.324410 583.310508 0.000000
-379.032754 523.606576 0.000000
-139.370987 1055.590303 0.000000
-219.218724 826.105512 0.000000
-419.955852 434.368189 0.000000
-265.136965 776.882572 0.000000
-301.885719 670.000234 0.000000
-231.704423 899.535968 0.000000
-153.347474 968.727623 0.000000
-441.616701 393.374537 0.000000
-25.243825 1304.823899 0.000000
-407.728147 490.532509 0.000000
-296.231061 715.902072 0.000000
-25.182416 1306.168077 0.000000
-277.439040 750.467291 0.000000
-217.183342 860.366194 0.000000
-175.506964 924.611047 0.000000
-292.743278 681.650119 0.000000
-109.735139 1234.941110 0.000000
-148.175633 981.181626 0.000000
-271.239951 763.695043 0.000000
-180.286364 946.119458 0.000000
-345.210708 589.020497 0.000000
-151.673606 991.491622 0.000000
-158.012169 983.993172 0.000000
-27.820420 1303.664740 0.000000
-262.159522 740.516127 0.000000
-235.585265 882.295522 0.000000
-296.443911 683.080213 0.000000
-136.810213 1017.062472 0.000000
-369.078120 576.420664 0.000000
-401.819779 511.019704 0.000000
-152.596087 993.719989 0.000000
-348.326292 609.076709 0.000000
-494.188238 264.529816 0.000000
-16.453442 1322.792458 0.000000
-502.343054 234.190553 0.000000
-384.522022 515.321936 0.000000
-186.952460 940.326135 0.000000
-477.589121 247.296050 0.000000
-163.493354 974.363077 0.000000
-32.753752 1288.419921 0.000000
-448.563464 379.005772 0.000000
-422.402512 428.708114 0.000000
-138.333431 1018.438372 0.000000
-391.945945 501.341276 0.000000
-516.960439 191.591530 0.000000
-115.495881 1238.267970 0.000000
-30.182316 1294.758072 0.000000
-495.686398 256.696268 0.000000
-283.730598 737.203493 0.000000
-146.328051 1001.488325 0.000000
-399.528262 530.504333 0.000000
-174.634335 955.420213 0.000000
-147.765597 991.675718 0.000000
-283.176391 699.741304 0.000000
-223.814706 897.784850 0.000000
-503.456112 225.903699 0.000000
-508.411730 211.336901 0.000000
-132.834622 1015.652304 0.000000
-27.648274 1299.192753 0.000000
-137.696078 1003.628730 0.000000
-375.950859 563.330487 0.000000
-497.061376 248.741967 0.000000
-169.035222 964.836970 0.000000
-136.040358 1105.803916 0.000000
-335.994027 642.269611 0.000000
-393.990620 495.374849 0.000000
-457.347581 352.554099 0.000000
-290.109528 723.909408 0.000000
-401.405505 481.328658 0.000000
-290.338326 767.170785 0.000000
-146.397163 990.797693 0.000000
-164.855362 950.170467 0.000000
-436.867872 401.549768 0.000000
-321.315434 674.281562 0.000000
-382.805420 550.311455 0.000000
-170.100496 937.459933 0.000000
-315.271164 681.725713 0.000000
-275.583529 714.386891 0.000000
-302.679879 702.648744 0.000000
-82.691256 1160.678522 0.000000
-127.578828 1026.343397 0.000000
-308.769053 694.918982 0.000000
-343.089062 589.621751 0.000000
-339.373261 653.057202 0.000000
-519.738921 195.187408 0.000000
-327.331844 667.044350 0.000000
-260.645256 743.455771 0.000000
-432.078646 410.148219 0.000000
-333.840607 654.013582 0.000000
-269.688518 725.917003 0.000000
-131.676717 1101.546533 0.000000
-511.879553 244.377445 0.000000
-122.664529 1037.767075 0.000000
-113.137063 1060.677008 0.000000
-408.765172 467.337798 0.000000
-363.667425 548.653024 0.000000
-296.104288 754.498562 0.000000
-177.610286 926.124118 0.000000
-424.851494 425.079675 0.000000
-108.528895 1072.130785 0.000000
-229.691096 889.973424 0.000000
-104.026308 1083.563148 0.000000
-410.926993 461.182305 0.000000
-320.045488 697.708035 0.000000
-25.001906 1314.513750 0.000000
-99.630939 1094.956077 0.000000
-117.849636 1049.217109 0.000000
-18.969567 1320.184370 0.000000
-95.343154 1106.293247 0.000000
-189.786346 898.949502 0.000000
-301.949767 741.806619 0.000000
-253.316931 757.868070 0.000000
-326.211395 690.737084 0.000000
-413.145284 455.066556 0.000000
-211.797038 842.303552 0.000000
-75.387879 1159.989417 0.000000
-267.495900 740.570308 0.000000
-187.999018 898.940565 0.000000
-246.093636 772.191141 0.000000
-91.163517 1117.556264 0.000000
-142.862202 1059.012782 0.000000
-307.871590 729.098445 0.000000
-371.588415 532.958296 0.000000
-267.695574 732.841404 0.000000
-454.447181 393.445711 0.000000
-331.909332 684.752450 0.000000
-337.118387 680.014017 0.000000
-415.414383 448.990825 0.000000
-314.160922 640.549859 0.000000
-447.070275 398.598125 0.000000
-247.449822 781.974588 0.000000
-200.394058 871.820821 0.000000
-238.982394 786.420921 0.000000
-339.229773 594.342015 0.000000
-87.092161 1128.726376 0.000000
-313.853096 716.402735 0.000000
-212.503213 839.991090 0.000000
-320.374022 632.724910 0.000000
-231.990908 800.551358 0.000000
-205.841860 858.550383 0.000000
-344.969835 584.625352 0.000000
-253.576554 772.274076 0.000000
-21.807510 1317.426317 0.000000
-318.825068 637.471227 0.000000
-391.338817 507.604742 0.000000
-313.903745 710.514680 0.000000
-218.590122 831.374916 0.000000
-225.125042 814.579233 0.000000
-253.237878 776.413987 0.000000
-83.128225 1139.786161 0.000000
-96.050319 1163.931402 0.000000
-252.868143 784.979298 0.000000
-386.772028 522.373467 0.000000
-253.003461 780.650574 0.000000
-216.997228 832.661067 0.000000
-222.691596 820.065317 0.000000
-256.468799 758.751209 0.000000
-79.165649 1149.323698 0.000000
-356.191135 569.924872 0.000000
-75.519479 1161.497656 0.000000
-105.909529 1159.155885 0.000000
-264.339345 743.845639 0.000000
-325.722266 619.129940 0.000000
-331.515088 608.951347 0.000000
-417.727700 442.955012 0.000000
-71.871445 1172.112464 0.000000
-319.935169 629.660253 0.000000
-68.325340 1182.540948 0.000000
-64.878814 1192.764179 0.000000
-61.528836 1202.764635 0.000000
-52.028388 1231.245087 0.000000
-58.272740 1212.523091 0.000000
-56.023147 1226.317006 0.000000
-55.107002 1222.022573 0.000000
-353.265942 573.077019 0.000000
-43.352479 1285.595663 0.000000
-350.428335 576.422849 0.000000
-44.590804 1292.715197 0.000000
-120.745108 1071.812280 0.000000
-133.778841 1031.835787 0.000000
-43.541764 1290.842248 0.000000
-63.201599 1242.172013 0.000000
-45.681381 1294.459636 0.000000
-1386.419392 2350.922494 0.000000
-256.749274 1692.721681 0.000000
-961.422130 2980.824606 0.000000
-20.418074 1318.972922 0.000000
-932.685893 2182.067350 0.000000
-46.792851 1296.039356 0.000000
-24.043450 1316.309910 0.000000
-48.973982 1298.541952 0.000000
-47.900322 1297.414770 0.000000
-176.176884 1676.377353 0.000000
-133.341338 1720.642930 0.000000
-81.581587 1659.630753 0.000000
-473.404287 399.686711 0.000000
-51.049176 1299.747218 0.000000
-512.614105 255.273297 0.000000
-110.039399 1715.117255 0.000000
-87.846893 1709.077623 0.000000
-525.702731 13.004257 0.000000
-516.754809 13.588737 0.000000
-44.143670 1303.555053 0.000000
-1825.874866 251.752096 0.000000
-1262.216974 142.987849 0.000000
-766.775528 67.580064 0.000000
-2307.657368 1889.848933 0.000000
-429.840709 7650.829210 0.000000
-145.356046 1115.640525 0.000000
-26.972682 1313.500149 0.000000
-533.527265 12.864720 0.000000
-1.934121 1334.576034 0.000000
-4.247983 1333.331603 0.000000
-1.377418 1342.847567 0.000000
-1.201138 1349.615383 0.000000
-563.627348 10.319272 0.000000
-17.421132 1803.577313 0.000000
-61.126429 3383.259357 0.000000
-59.555146 3059.237090 0.000000
-610.102920 21.297384 0.000000
-558.332214 10.082225 0.000000
-1.460897 1341.333576 0.000000
-2669.752153 1163.328265 0.000000
-718.779166 1891.709021 0.000000
-9.000587 1342.951928 0.000000
-446.911369 567.104585 0.000000
-22.985260 1323.381388 0.000000
-345.420918 728.918003 0.000000
-108.342496 1254.192902 0.000000
-90.705719 1289.120313 0.000000
-322.265392 803.657280 0.000000
-155.930911 1087.429764 0.000000
-127.393644 1061.582175 0.000000
-824.049890 6270.315115 0.000000
-3.423804 1338.937486 0.000000
-24.545664 1312.187776 0.000000
-444.040717 588.379189 0.000000
-441.322016 608.495942 0.000000
-308.504668 752.732925 0.000000
-314.502157 746.647882 0.000000
-319.750701 733.676276 0.000000
-928.871372 5951.659812 0.000000
-271.830426 1079.783295 0.000000
-263.922578 1116.426580 0.000000
-90.847059 1269.075518 0.000000
-499.563167 287.979471 0.000000
-505.417775 275.291624 0.000000
-503.131423 283.649950 0.000000
-510.940043 263.170796 0.000000
-165.689560 5066.157207 0.000000
-2866.484389 3015.086703 0.000000
-2497.427254 5280.631978 0.000000
-194.552017 2019.399345 0.000000
-1763.151115 5457.370543 0.000000
-3302.999233 1087.905139 0.000000
-2133.478897 5886.040569 0.000000
-3320.732907 2739.374986 0.000000
-2012.588486 5197.832003 0.000000
-749.191452 7667.833410 0.000000
-3368.235718 3758.490832 0.000000
-134.111668 1127.316686 0.000000
-3002.401836 1977.076877 0.000000
-17.799020 1363.180701 0.000000
-552.452874 223.221386 0.000000
-1770.344801 7573.229009 0.000000
-559.084434 221.090658 0.000000
-2911.810597 7536.771455 0.000000
-1166.703156 7007.188198 0.000000
-1128.585981 4376.633066 0.000000
-2529.713827 6313.187544 0.000000
-2012.241530 7972.477788 0.000000
-26.540979 1299.149316 0.000000
-552.174141 81.821838 0.000000
-1584.709584 4481.672179 0.000000
-855.109996 56.745040 0.000000
-491.819704 308.254357 0.000000
-495.896191 303.177973 0.000000
-2973.552289 6042.907850 0.000000
-1523.544961 8320.014000 0.000000
-16.950319 1355.625705 0.000000
-156.989532 6842.942170 0.000000
-790.226499 455.159480 0.000000
-488.108634 16.817863 0.000000
-552.360520 109.180008 0.000000
-899.497036 4197.157924 0.000000
-686.583505 4532.411387 0.000000
-2430.400825 4939.696993 0.000000
-41.346099 1259.551484 0.000000
-44.317876 1251.445597 0.000000
-1859.493930 5162.421208 0.000000
-6.966748 1331.915651 0.000000
-3578.695857 4542.651450 0.000000
-453.209000 584.082378 0.000000
-466.282123 565.438308 0.000000
-482.860034 535.538971 0.000000
-171.501642 1396.609884 0.000000
-1425.796785 770.989475 0.000000
-113.763973 1181.836849 0.000000
-1918.358708 3941.469724 0.000000
-388.441376 543.723797 0.000000
-493.735769 300.534956 0.000000
-537.761511 25.648913 0.000000
-681.124961 295.192825 0.000000
-46.276889 1393.007281 0.000000
-540.912160 247.992298 0.000000
-480.979705 18.089073 0.000000
-371.894209 768.110206 0.000000
-768.618893 5908.083081 0.000000
-20.117161 1316.838218 0.000000
-17.007652 1326.065666 0.000000
-515.186769 300.135109 0.000000
-443.675196 5823.307702 0.000000
-187.489425 975.499486 0.000000
-2216.670631 1295.328236 0.000000
-130.898739 1050.783263 0.000000
-888.440976 124.211238 0.000000
-68.060451 1183.003890 0.000000
-4.396851 1356.580626 0.000000
-6.576969 1355.087918 0.000000
-98.990080 1263.456259 0.000000
-3103.301765 1632.655625 0.000000
-736.407955 978.731942 0.000000
-457.593323 183.667572 0.000000
-1980.063387 4249.875521 0.000000
-52.006982 1299.691146 0.000000
-274.081381 1870.767837 0.000000
-2593.868695 6683.690092 0.000000
-1251.574652 2934.752603 0.000000
-1317.603104 2964.931900 0.000000
-455.066433 25.058267 0.000000
-1839.185996 7952.889464 0.000000
-552.123146 91.628556 0.000000
-123.561760 1155.402376 0.000000
-528.463563 273.657301 0.000000
-605.088384 21.842535 0.000000
-281.599737 967.326631 0.000000
-291.335729 912.257668 0.000000
-566.025672 27.205594 0.000000
-333.046948 791.021596 0.000000
-269.299482 4516.825428 0.000000
-83.041717 1275.192544 0.000000
-502.300006 290.038760 0.000000
-59.736674 2578.116367 0.000000
-1020.015248 558.685285 0.000000
-301.828163 831.997418 0.000000
-107.051088 1097.977041 0.000000
-2829.554918 3678.892409 0.000000
-298.845359 1824.629039 0.000000
-65.483121 1191.727419 0.000000
-372.247131 583.231608 0.000000
-554.987913 107.333818 0.000000
-111.864659 1087.914741 0.000000
-113.259200 1089.135063 0.000000
-17.013896 1754.533853 0.000000
-123.396445 1464.863838 0.000000
-1043.778976 127.758277 0.000000
-9.713844 1519.114854 0.000000
-413.138312 485.262114 0.000000
-418.850017 481.378438 0.000000
-594.082954 20.926952 0.000000
-208.618299 2163.895088 0.000000
-381.012792 1922.246498 0.000000
-517.047639 250.120627 0.000000
-16.439483 1326.023193 0.000000
-1121.680143 1115.092362 0.000000
-1060.042278 1255.596824 0.000000
-3.051437 1383.750758 0.000000
-131.922790 1053.724746 0.000000
-132.420408 1059.282015 0.000000
-498.066596 30.286231 0.000000
-235.456942 916.485251 0.000000
-4.834337 1320.064470 0.000000
-357.557120 709.947143 0.000000
-3522.867863 7984.367651 0.000000
-35.145575 1559.255870 0.000000
-2840.234775 8292.666460 0.000000
-616.755587 6914.751183 0.000000
-491.556644 32.684482 0.000000
-3076.826087 5702.676358 0.000000
-638.972522 6252.334100 0.000000
-1465.766672 157.556723 0.000000
-132.721720 1237.149037 0.000000
-66.505130 1191.301030 0.000000
-16.232406 1348.855309 0.000000
-2319.909267 6976.637517 0.000000
-4.656633 1345.832641 0.000000
-95.154224 1126.607650 0.000000
-91.910816 1137.991407 0.000000
-61.393662 1312.676381 0.000000
-1861.202253 2237.988890 0.000000
-1089.978836 773.636035 0.000000
-427.155139 387.904133 0.000000
-2112.792860 7629.684686 0.000000
-238.792760 918.890335 0.000000
-955.769433 578.360552 0.000000
-540.771812 11.206739 0.000000
-85.580296 1145.027209 0.000000
-3596.223379 3232.455831 0.000000
-160.078582 1008.647603 0.000000
-833.248807 52.346284 0.000000
-453.359732 208.315595 0.000000
-201.343417 1013.604501 0.000000
-44.022513 1529.724825 0.000000
-340.141517 1002.531510 0.000000
-190.276937 1002.266177 0.000000
-7.372342 1347.275647 0.000000
-2599.174722 4950.585882 0.000000
-189.269385 1115.844326 0.000000
-811.235075 475.012541 0.000000
-447.210123 62.587873 0.000000
-253.091122 1916.673906 0.000000
-395.486194 552.610776 0.000000
-98.428387 1475.537445 0.000000
-3484.211375 1714.707583 0.000000
-428.921275 632.502389 0.000000
-13.093428 1613.505771 0.000000
-72.043594 1184.093867 0.000000
-431.477477 362.589640 0.000000
-149.156229 1027.033922 0.000000
-150.832582 1031.368286 0.000000
-559.204479 20.640351 0.000000
-7.037581 1358.774123 0.000000
-1397.372046 155.151880 0.000000
-583.292250 132.737141 0.000000
-31.100112 1287.182625 0.000000
-1919.748494 5492.991253 0.000000
-3591.749201 2458.319394 0.000000
-590.862044 109.140836 0.000000
-338.254589 665.608546 0.000000
-345.118942 655.073362 0.000000
-84.819586 1400.829091 0.000000
-388.307781 696.305453 0.000000
-559.619582 58.018029 0.000000
-16.816183 1390.851181 0.000000
-345.945760 644.596389 0.000000
-1460.010668 2379.878902 0.000000
-1519.092402 2254.253697 0.000000
-757.723179 1577.401122 0.000000
-175.949137 983.309990 0.000000
-409.718958 483.756244 0.000000
-35.181522 1475.439784 0.000000
-1.685113 1337.233432 0.000000
-114.901352 3279.719124 0.000000
-2382.965981 7347.183353 0.000000
-61.050292 1208.535966 0.000000
-561.895641 20.501195 0.000000
-1706.415788 1191.823210 0.000000
-548.377527 130.896962 0.000000
-573.171553 35.082325 0.000000
-413.920175 764.121187 0.000000
-417.779186 740.522630 0.000000
-412.303171 789.995919 0.000000
-448.997859 266.955088 0.000000
-274.029529 5766.268633 0.000000
-2433.707514 369.632951 0.000000
-829.520171 566.711269 0.000000
-347.622167 656.263813 0.000000
-597.300396 343.680999 0.000000
-798.778156 1350.207636 0.000000
-1339.510816 3115.754178 0.000000
-165.915089 1178.045015 0.000000
-29.716604 1677.577884 0.000000
-10.704049 1368.371183 0.000000
-24.697632 1587.212344 0.000000
-227.822447 1063.883243 0.000000
-815.013210 665.291644 0.000000
-786.904491 762.466522 0.000000
-109.392379 1389.682456 0.000000
-47.056919 1243.177232 0.000000
-776.858321 651.157085 0.000000
-425.584058 469.082739 0.000000
-501.087416 14.764327 0.000000
-748.437037 116.800639 0.000000
-13.924145 1401.805047 0.000000
-566.691668 130.905870 0.000000
-535.070440 197.705170 0.000000
-22.773045 1551.890167 0.000000
-1.151007 1346.089602 0.000000
-1402.033629 4113.199871 0.000000
-2633.821437 4291.801060 0.000000
-543.806829 11.658557 0.000000
-447.176616 620.925997 0.000000
-499.419097 519.790419 0.000000
-514.750088 468.782163 0.000000
-2.516993 1343.419176 0.000000
-123.524046 2844.662901 0.000000
-407.234517 625.307713 0.000000
-6.608223 1324.313354 0.000000
-833.448267 8419.455892 0.000000
-3562.191096 3715.149883 0.000000
-165.491267 2233.924801 0.000000
-751.877837 1272.000547 0.000000
-20.339758 1317.464338 0.000000
-20.936840 1388.809550 0.000000
-279.268887 851.615312 0.000000
-284.186705 847.883805 0.000000
-336.625459 696.348280 0.000000
-362.143102 998.521781 0.000000
-378.609164 982.007916 0.000000
-351.923438 1023.262170 0.000000
-662.771712 93.282001 0.000000
-2144.661101 2005.703153 0.000000
-16.577009 1958.106610 0.000000
-550.498230 130.528341 0.000000
-18.180859 1324.816354 0.000000
-68.113939 1193.780556 0.000000
-3.564252 1334.833220 0.000000
-1098.688529 3330.905750 0.000000
-197.318290 945.271656 0.000000
-788.951492 48.688912 0.000000
-339.813471 770.961286 0.000000
-791.271114 1089.455156 0.000000
-787.120676 1018.234217 0.000000
-783.479368 1163.224630 0.000000
-782.354768 1233.734581 0.000000
-802.044098 940.044988 0.000000
-279.666559 858.206450 0.000000
-274.545201 870.415855 0.000000
-275.838461 875.996749 0.000000
-283.864399 854.222410 0.000000
-313.178257 1147.286201 0.000000
-288.290404 4844.861681 0.000000
-1442.499964 2711.375964 0.000000
-2802.034779 4295.058140 0.000000
-452.456379 408.805225 0.000000
-405.513375 744.312991 0.000000
-431.318815 710.834403 0.000000
-428.484579 694.197646 0.000000
-630.293000 52.851888 0.000000
-150.312730 1197.829037 0.000000
-136.064026 3620.497251 0.000000
-14.190461 1658.132956 0.000000
-373.034140 745.678363 0.000000
-506.631991 14.137356 0.000000
-47.787914 1369.002485 0.000000
-279.634412 1214.127429 0.000000
-1813.923307 1402.851173 0.000000
-423.132478 411.989372 0.000000
-444.670600 139.875617 0.000000
-369.403747 601.286679 0.000000
-361.988006 670.930641 0.000000
-343.004527 668.527356 0.000000
-559.377114 73.139845 0.000000
-1411.118058 1402.795999 0.000000
-86.090707 1150.235628 0.000000
-90.646343 1136.691206 0.000000
-50.878809 1235.494575 0.000000
-299.866527 892.018534 0.000000
-2278.937075 7661.744750 0.000000
-289.960061 823.857341 0.000000
-293.976088 813.295471 0.000000
-299.661628 801.991051 0.000000
-293.727900 830.332903 0.000000
-120.147976 1081.313155 0.000000
-547.428808 24.071854 0.000000
-409.840215 498.747950 0.000000
-1811.378121 5809.348872 0.000000
-116.896948 2446.394121 0.000000
-557.188443 90.504014 0.000000
-158.124775 1209.222309 0.000000
-185.814960 962.608047 0.000000
-2742.023765 337.664211 0.000000
-1428.098119 319.570554 0.000000
-442.548155 431.045113 0.000000
-473.235042 3619.617650 0.000000
-415.617590 3547.617159 0.000000
-4.425018 1315.633391 0.000000
-97.299911 1130.035707 0.000000
-212.535593 1098.013327 0.000000
-365.661820 595.489846 0.000000
-451.047380 641.313159 0.000000
-622.176246 82.637632 0.000000
-58.524679 1343.100348 0.000000
-62.482905 1326.759141 0.000000
-89.677168 1135.586934 0.000000
-1733.549923 440.632671 0.000000
-227.794887 1037.795824 0.000000
-443.564232 420.226307 0.000000
-555.990864 2125.080951 0.000000
-181.145911 975.367926 0.000000
-303.977325 783.497907 0.000000
-340.163676 1029.431591 0.000000
-994.992064 8484.215505 0.000000
-170.930267 996.609902 0.000000
-1.978595 1332.162004 0.000000
-3201.783864 8368.090071 0.000000
-498.046034 486.403893 0.000000
-121.133800 1241.509860 0.000000
-2647.964153 696.818677 0.000000
-539.238428 179.171038 0.000000
-539.421146 172.411114 0.000000
-3184.546014 1322.425410 0.000000
-268.823350 4216.321556 0.000000
-176.432110 4070.810444 0.000000
-1073.434563 3195.197283 0.000000
-509.164696 27.224824 0.000000
-286.023342 858.452470 0.000000
-27.371448 1390.338523 0.000000
-32.432971 1374.223341 0.000000
-579.528128 114.244067 0.000000
-33.653679 1279.834605 0.000000
-33.900314 1280.463663 0.000000
-29.532794 1293.148371 0.000000
-29.014587 1293.310243 0.000000
-26.994820 1299.916345 0.000000
-31.331555 1289.905874 0.000000
-831.765711 496.386786 0.000000
-857.089223 453.067563 0.000000
-159.103883 3833.419020 0.000000
-2513.149017 1273.659643 0.000000
-1294.311624 279.494963 0.000000
-263.161566 986.316177 0.000000
-12.547276 1333.489388 0.000000
-13.637039 1332.833993 0.000000
-205.257692 940.153770 0.000000
-408.441730 505.544659 0.000000
-413.246960 501.022319 0.000000
-82.496818 1274.764578 0.000000
-564.192224 19.965301 0.000000
-551.811857 101.583548 0.000000
-550.332165 7.944260 0.000000
-484.413754 512.797555 0.000000
-1185.539706 8019.287216 0.000000
-190.831800 976.061391 0.000000
-807.050642 787.608374 0.000000
-15.115264 1410.232432 0.000000
-267.356397 882.514570 0.000000
-263.689816 880.961898 0.000000
-258.782696 884.948526 0.000000
-253.067391 893.166408 0.000000
-246.468827 907.604488 0.000000
-248.087781 897.885200 0.000000
-182.671203 1152.339525 0.000000
-228.791074 925.275517 0.000000
-592.043239 7634.403481 0.000000
-3315.007901 288.114833 0.000000
-121.151397 7693.847912 0.000000
-342.438710 677.629868 0.000000
-2.828529 1349.384938 0.000000
-2.275325 1348.308950 0.000000
-370.069788 667.357592 0.000000
-420.515494 483.756266 0.000000
-662.723377 135.742837 0.000000
-419.280026 434.465051 0.000000
-110.869091 1099.761779 0.000000
-309.575357 836.077078 0.000000
-146.022115 1201.156356 0.000000
-721.030124 197.228029 0.000000
-478.987289 359.855105 0.000000
-438.368846 667.757966 0.000000
-613.004544 366.255727 0.000000
-163.399517 1010.626544 0.000000
-2.101788 1329.649775 0.000000
-497.662641 305.007962 0.000000
-2.834746 1327.158736 0.000000
-4.805810 1457.860810 0.000000
-118.532178 1327.819167 0.000000
-531.752969 394.018277 0.000000
-435.994418 655.582749 0.000000
-290.769209 950.893839 0.000000
-913.417598 127.861132 0.000000
-438.319926 295.300525 0.000000
-554.580572 89.422967 0.000000
-556.858640 108.422133 0.000000
-363.819915 609.723511 0.000000
-358.637962 625.820378 0.000000
-366.472442 617.289856 0.000000
-15.629320 1905.389118 0.000000
-2.742463 1340.291947 0.000000
-660.080995 57.123887 0.000000
-117.867896 1078.879034 0.000000
-446.631030 218.047760 0.000000
-308.423247 759.872799 0.000000
-514.341387 25.891026 0.000000
-396.509958 628.968774 0.000000
-826.381978 3930.057864 0.000000
-546.242784 153.282962 0.000000
-762.910677 801.640125 0.000000
-1765.509565 2832.588389 0.000000
-821.637938 96.792880 0.000000
-238.976183 1015.504801 0.000000
-2.855549 1360.054764 0.000000
-12.960629 1543.630671 0.000000
-1556.644287 1902.750854 0.000000
-1455.944081 2991.797386 0.000000
-623.316833 48.638117 0.000000
-234.612504 911.550968 0.000000
-352.503218 631.292374 0.000000
-340.093327 749.526268 0.000000
-580.112798 6596.409834 0.000000
-123.677553 1072.017873 0.000000
-557.522083 39.140624 0.000000
-552.792044 9.423707 0.000000
-197.587017 1350.945857 0.000000
-210.824395 1296.157039 0.000000
-2899.537329 3994.813991 0.000000
-901.729568 641.666122 0.000000
-1786.378964 3374.924139 0.000000
-443.945756 250.231400 0.000000
-1541.993116 6096.380488 0.000000
-746.907794 1650.054211 0.000000
-287.950429 838.948612 0.000000
-347.039142 647.555511 0.000000
-298.536212 796.183071 0.000000
-21.531943 1436.726260 0.000000
-3016.568870 596.626794 0.000000
-394.812204 536.062482 0.000000
-63.916358 1200.642907 0.000000
-308.639644 1920.780657 0.000000
-404.188490 533.447054 0.000000
-46.801449 1475.719743 0.000000
-2919.605970 7974.399868 0.000000
-25.627417 1302.721907 0.000000
-3063.938667 7439.911496 0.000000
-623.472573 458.217584 0.000000
-202.292198 1957.229129 0.000000
-413.897457 456.629499 0.000000
-131.656560 1205.095602 0.000000
-637.299524 26.650102 0.000000
-603.464467 436.607438 0.000000
-731.902034 1592.688170 0.000000
-454.282258 3859.494212 0.000000
-386.867882 717.746770 0.000000
-458.970211 613.462676 0.000000
-454.454569 599.998177 0.000000
-511.833088 6109.882079 0.000000
-102.976293 3139.093293 0.000000
-585.895545 35.370048 0.000000
-29.587413 1367.964794 0.000000
-76.364317 1281.142960 0.000000
-3.068939 1322.150498 0.000000
-7.871749 1344.595758 0.000000
-227.287271 916.636374 0.000000
-1396.008739 2495.598320 0.000000
-289.765676 830.492683 0.000000
-7.670069 1427.937111 0.000000
-3267.331059 4977.937628 0.000000
-419.791672 472.151615 0.000000
-186.085037 1128.712152 0.000000
-374.092004 631.414850 0.000000
-2358.915800 8001.901001 0.000000
-758.431343 865.793201 0.000000
-781.688482 905.050264 0.000000
-1493.964885 1239.843826 0.000000
-3079.621987 6824.453897 0.000000
-3118.069230 6062.414624 0.000000
-519.068436 24.403275 0.000000
-540.418073 348.497246 0.000000
-6.004842 1310.242418 0.000000
-446.969219 18.288125 0.000000
-987.847636 4384.592705 0.000000
-2104.328550 2289.808156 0.000000
-5.683559 1346.696437 0.000000
-561.395079 38.302001 0.000000
-295.519381 1884.643257 0.000000
-154.323106 1182.173470 0.000000
-187.234089 1262.119278 0.000000
-34.552995 1362.753586 0.000000
-3078.572958 4028.808691 0.000000
-307.778618 767.270303 0.000000
-309.698192 769.992161 0.000000
-309.712952 777.558556 0.000000
-556.502512 19.751015 0.000000
-836.312292 354.687119 0.000000
-131.704906 8460.767067 0.000000
-3644.493117 315.455243 0.000000
-3534.443062 8332.118379 0.000000
-330.967523 7373.543387 0.000000
-575.812653 23.534288 0.000000
-2166.952371 300.956875 0.000000
-240.167766 988.698424 0.000000
-672.965021 7951.375625 0.000000
-288.826979 844.093015 0.000000
-1231.451925 265.833181 0.000000
-55.059956 1367.276693 0.000000
-269.818122 873.026437 0.000000
-3462.298903 2715.389488 0.000000
-607.005286 180.666206 0.000000
-571.276703 27.593220 0.000000
-1287.111335 6297.595012 0.000000
-551.012386 142.795423 0.000000
-720.612671 246.736662 0.000000
-668.440989 360.852703 0.000000
-889.458962 194.874381 0.000000
-542.896582 164.978767 0.000000
-540.528230 160.920540 0.000000
-454.193706 92.866397 0.000000
-51.811676 2113.004667 0.000000
-397.226692 744.499407 0.000000
-1456.154722 3185.503748 0.000000
-19.983625 1403.175872 0.000000
-547.634293 138.529801 0.000000
-755.806450 923.906072 0.000000
-211.373681 946.199677 0.000000
-492.726710 319.122828 0.000000
-8.936461 1451.128854 0.000000
-3256.602133 4055.698293 0.000000
-3438.076340 4083.700888 0.000000
-2989.559030 301.757987 0.000000
-142.106460 1168.339712 0.000000
-115.607579 1091.679719 0.000000
-1463.848591 1099.842123 0.000000
-41.203309 1358.198028 0.000000
-493.704476 310.407344 0.000000
-411.092910 480.406781 0.000000
-1450.744860 440.080938 0.000000
-128.261603 5680.226482 0.000000
-381.639228 619.896795 0.000000
-929.762150 61.271323 0.000000
-508.537121 2426.605724 0.000000
-415.271180 489.922439 0.000000
-115.713117 1249.110416 0.000000
-148.492723 1414.836715 0.000000
-144.540305 1034.239393 0.000000
-223.043737 1076.975143 0.000000
-573.043688 135.831727 0.000000
-622.500037 192.514035 0.000000
-558.486008 45.562940 0.000000
-1929.379616 964.402230 0.000000
-450.764146 150.111848 0.000000
-40.193044 2734.892363 0.000000
-169.066527 2343.721288 0.000000
-1928.311629 335.662519 0.000000
-1358.063348 2855.351821 0.000000
-3.595063 1347.808568 0.000000
-523.586692 23.356833 0.000000
-5.705612 1418.798202 0.000000
-390.501960 548.647641 0.000000
-126.068024 1276.165617 0.000000
-1247.331916 4505.421712 0.000000
-1017.321320 342.038539 0.000000
-30.876369 1877.272576 0.000000
-161.474974 1009.810337 0.000000
-440.654675 431.059658 0.000000
-881.247917 3701.666556 0.000000
-7.734519 1350.588811 0.000000
-361.277308 1890.305111 0.000000
-424.756038 466.198189 0.000000
-1573.792841 479.468606 0.000000
-1516.289959 982.400412 0.000000
-583.938734 2252.536399 0.000000
-326.563148 1816.433858 0.000000
-437.197022 439.986957 0.000000
-432.402046 448.717340 0.000000
-446.683377 421.389739 0.000000
-637.954031 160.009752 0.000000
-3638.005030 1822.999176 0.000000
-401.159073 607.953814 0.000000
-51.096231 1231.783466 0.000000
-14.923315 1329.368444 0.000000
-1386.841815 636.911929 0.000000
-83.622994 4204.180520 0.000000
-258.668495 1982.766870 0.000000
-2505.692774 8003.245140 0.000000
-6.842028 1344.272490 0.000000
-834.042717 444.374846 0.000000
-231.096689 1896.998550 0.000000
-767.329323 747.195533 0.000000
-298.492231 873.719138 0.000000
-2.991447 1325.044225 0.000000
-597.961544 47.069230 0.000000
-10.612522 1340.191844 0.000000
-11.081104 1338.085440 0.000000
-12.122667 1336.812803 0.000000
-13.488635 1334.560740 0.000000
-346.181283 732.523873 0.000000
-28.365413 1293.804722 0.000000
-1327.520266 6811.162184 0.000000
-321.032140 1085.498849 0.000000
-140.077916 1218.169871 0.000000
-1497.584108 828.333926 0.000000
-406.605473 504.113668 0.000000
-225.582085 924.200625 0.000000
-386.239174 602.278235 0.000000
-532.336854 379.356293 0.000000
-285.468167 833.908526 0.000000
-745.535531 1343.110724 0.000000
-364.451580 601.330011 0.000000
-699.162019 291.811506 0.000000
-453.408115 47.800107 0.000000
-448.322741 2046.374791 0.000000
-3.645545 1332.398505 0.000000
-758.754543 1011.716248 0.000000
-288.076751 935.522315 0.000000
-364.017433 1017.086800 0.000000
-486.303768 326.147108 0.000000
-82.622167 2335.039212 0.000000
-617.699774 44.377465 0.000000
-78.566361 1282.711423 0.000000
-1382.622259 2975.514704 0.000000
-1.055529 1338.574002 0.000000
-407.476548 724.486832 0.000000
-301.903495 817.404573 0.000000
-441.499639 312.405051 0.000000
-56.807465 2190.292229 0.000000
-3460.932512 4387.706977 0.000000
-1639.625464 581.792463 0.000000
-337.155994 675.243939 0.000000
-445.241940 634.833753 0.000000
-2297.963591 1524.518956 0.000000
-971.123398 3114.965908 0.000000
-235.055785 905.806234 0.000000
-395.960157 557.067912 0.000000
-130.064389 1171.049272 0.000000
-316.108107 819.383895 0.000000
-413.169454 4934.139082 0.000000
-694.398511 1643.005630 0.000000
-786.922221 1762.648332 0.000000
-761.171292 1856.683185 0.000000
-24.648339 1384.530330 0.000000
-1548.067636 748.573842 0.000000
-582.132082 230.230173 0.000000
-527.486959 21.562535 0.000000
-423.008815 665.903875 0.000000
-2.132826 1344.969897 0.000000
-1147.574915 204.702593 0.000000
-6.214755 1343.742592 0.000000
-402.376732 525.640171 0.000000
-650.821816 164.242191 0.000000
-390.928463 569.244225 0.000000
-127.779566 1074.625622 0.000000
-256.145390 1219.702444 0.000000
-780.528112 968.524831 0.000000
-5.150064 1388.243843 0.000000
-377.853108 702.774772 0.000000
-323.877653 712.852752 0.000000
-1382.134721 1271.456838 0.000000
-46.322997 1248.746272 0.000000
-417.193402 705.213699 0.000000
-9.680346 1343.432355 0.000000
-346.610671 3862.617554 0.000000
-2522.512370 628.838173 0.000000
-473.117284 612.116468 0.000000
-1352.005477 8484.875777 0.000000
-616.398919 179.540920 0.000000
-353.517230 711.204890 0.000000
-555.263036 100.905286 0.000000
-3.068929 1336.016889 0.000000
-9.162572 1317.918891 0.000000
-111.243879 1432.881532 0.000000
-2022.763181 909.189666 0.000000
-80.001683 1311.451754 0.000000
-50.059530 1501.043004 0.000000
-439.689869 623.570435 0.000000
-269.989825 973.370643 0.000000
-378.301888 776.498975 0.000000
-646.421063 29.419721 0.000000

CELL_DATA 13427
SCALARS strain_e11 float 1
LOOKUP_TABLE default
-233.979828
-81.816133
-183.835207
-175.797942
-89.398755
-161.973114
-175.464896
-254.477879
-260.028009
-254.182436
-190.421378
-184.034180
-185.617056
-258.691205
-256.795453
-209.772160
-148.137561
-217.184075
-257.216431
-269.632982
-185.438327
-185.153333
-206.663789
-183.299627
-89.813636
-194.416574
-184.059918
-142.087201
-255.470041
-281.182862
-256.449194
-189.322464
-116.990738
-234.022021
-154.402936
-66.160469
-284.177615
-256.246084
-147.599191
-118.702733
-208.564019
-66.833429
-189.752139
-137.356936
-301.288184
-206.947173
-138.529011
-190.222952
-138.151298
-192.310386
-147.817322
-191.746715
-277.179956
-185.736782
-4.490070
-208.883705
-223.644069
-277.039920
-176.136095
-129.643203
-112.251138
-89.929928
-250.189780
-255.375152
-186.272556
-232.132162
-209.483156
-261.067973
-185.696503
-79.202367
-277.712708
-74.218142
-138.017631
-160.066230
-148.369701
-171.139205
-149.021059
-255.252639
-281.253860
-189.944534
-27.201458
-184.379461
-170.453587
-163.188542
-284.103425
-145.408902
-252.083129
-335.095782
-98.582238
-283.396982
-284.328397
-282.347695
-193.006140
-283.391609
-73.544692
-92.408351
-177.605367
-188.969924
-157.866688
-72.733511
-191.088533
-120.592299
-280.542955
-150.787812
-183.402595
-64.473455
-281.778690
-226.654804
-243.979179
-246.912597
-185.898084
-72.789376
-155.504407
-268.630449
-282.900564
-246.093197
-186.513000
-140.139368
-181.649520
-192.691377
-250.722150
-250.043680
-220.655712
-191.961176
-183.929383
-185.085472
-189.541204
-66.699854
-131.050794
-209.740338
-122.620937
-79.216674
-160.248550
-185.914338
-91.161421
-184.947733
-163.787292
-171.189668
-270.327837
-207.149815
-196.566069
-251.776278
-187.836936
-269.108428
-189.040101
-30.501578
-90.127823
-267.895121
-249.907415
-221.536352
-72.626554
-191.991093
-184.914469
-16.388375
-267.541055
-250.027778
-184.743360
-184.711020
-129.530156
-115.232714
-119.891904
-129.249156
-180.193894
-184.826292
-277.248156
-158.229031
-112.777062
-254.251712
-188.393625
-136.173409
-183.255484
-183.773892
-243.162083
-132.978054
-96.306132
-1.825608
-173.819005
-276.772742
-185.369896
-249.888822
-200.021088
-176.354273
63.710364
-93.116728
-172.758687
-192.484269
-123.946400
-171.760732
-49.891567
-108.556271
-133.834636
-120.522059
-281.708040
-180.831421
-184.344313
-191.883077
-192.726725
-204.773969
-205.627589
-185.666975
-370.710402
-182.436772
-70.429179
-155.914927
-183.354041
-92.930337
-390.417048
-69.421470
-180.574433
-177.786959
-248.054071
-184.380533
-193.115978
-113.175178
-119.380087
-218.119405
-183.034373
-256.046160
-187.033167
-169.786190
-69.022931
-115.416143
-136.411198
-128.407784
-83.232353
-163.941281
-189.645430
-147.481694
-251.569298
-198.668384
-283.076546
-141.638334
-279.470563
-185.715975
-106.102352
-143.160754
-220.524094
-370.569618
-193.553081
-108.717849
-65.968416
-168.161155
-190.645123
-63.451500
-193.018976
-184.773131
-190.705549
-107.869333
-152.148323
-185.666302
-63.501018
-148.371112
-133.042735
-244.050889
-226.751266
-202.513562
-105.354560
-186.361516
-183.424030
-74.077539
-161.487377
-193.055764
-117.309076
-179.416183
-181.334934
-90.995335
-201.615823
-177.166837
-126.811064
-205.022323
-163.360690
-252.800512
-125.830815
-184.382672
-191.708603
-206.418238
-182.068737
-313.354196
-263.608086
-274.514441
-248.212885
-251.082087
-159.147358
-224.660052
-64.477337
-183.122773
-175.755945
-119.716940
-181.910648
-170.310464
-158.545739
-115.289880
-65.266540
-179.833260
-203.613965
-169.099562
-117.321581
-205.679205
-160.462554
-169.115838
-284.518751
-165.462443
-131.222287
-177.909230
-199.969359
-185.780269
-457.566154
-123.041119
-202.287364
-97.899307
-180.488511
-185.367328
-180.434460
-146.648007
-105.946195
-66.166752
-64.679991
-114.588218
-269.130146
-140.068897
-91.504744
-168.003846
-182.504766
-183.082156
-71.367161
-366.538311
-185.115387
-207.768277
-171.544706
-276.879185
-285.908790
-111.945430
-147.232413
-184.991144
-278.564646
-166.324892
-166.201661
-147.355982
-184.597868
-373.056750
-157.810038
-164.332112
-233.415619
-283.450672
-280.474145
-208.188506
-125.296776
-182.536101
-72.106636
30.112363
-180.608062
-163.920311
-133.829127
-207.245507
-176.471488
-284.940792
-184.659594
-147.567290
-393.630572
-351.861246
-193.257040
-269.389308
-261.665855
-219.938915
-132.966414
-194.483190
-250.411923
-190.580113
-125.700092
-267.949638
-139.172107
-185.068257
-118.839849
-188.861957
-107.717407
-479.104014
-266.630382
-107.895457
-105.484151
-132.962160
-187.791888
-250.958214
-184.929295
-236.861287
-285.405162
-284.748403
-350.576202
-225.502871
-184.903618
-447.923247
-206.810228
-197.172058
-170.517149
-131.925274
-190.721967
-188.542311
-182.289966
-184.702849
-275.311386
-169.730500
-104.643444
-104.310056
-192.763468
-165.742107
-183.488306
-86.739647
-145.637380
-185.697986
-150.323028
-181.058467
-189.740911
-254.114959
-186.391211
-66.556579
-278.659122
-180.487709
-145.769600
-128.006809
-182.191966
-111.330379
-111.286053
-117.018832
-194.181138
-185.797416
-143.797761
-208.109133
-124.953648
-177.187391
-113.275472
-256.143812
-151.490435
-134.436087
-252.739473
-73.701096
-105.089546
-179.387218
-128.156943
-249.675468
-64.056989
-182.967211
-121.734022
-281.300036
-171.543160
-283.994547
-171.502624
-192.519739
-179.888260
-262.973503
-73.484445
-187.056046
-181.753978
-190.507228
-114.948699
-170.432879
-86.943053
13.137812
-99.707798
-149.205533
-91.570214
-178.841850
-222.530390
-191.669937
-157.758318
-0.762543
-345.553270
-169.313503
-283.891200
-73.386603
-165.577965
-278.125312
-236.692320
-182.090373
-181.726571
-183.512473
-277.827089
-278.832632
-164.091842
-121.831687
-180.608213
-184.950163
-100.082446
-145.211120
-196.716715
-138.097083
-181.976917
-188.347319
-190.563833
-188.899706
-176.911051
-155.822110
-277.805887
-8.576020
-358.160891
-282.019507
-204.116550
-181.500406
-168.951096
-107.568691
-143.383021
-195.229661
-108.055647
-115.535777
-249.368662
-191.184077
-183.896434
-116.486059
-241.189882
-181.664914
-187.061464
-244.453359
-119.265483
-189.198365
-176.631984
-254.639191
-248.503419
-192.697580
-201.874594
-185.375712
-255.709068
-124.264748
-95.806535
-178.214803
-185.796642
-174.821266
-275.741409
-272.628412
-282.743360
-117.147473
-147.948854
-201.202267
-192.363662
-185.596502
-265.581679
19.018941
-124.583306
-215.126760
-150.719717
-112.008738
-281.678348
-187.934607
-252.949274
-285.161752
-117.788006
-130.026981
-144.396588
-180.022288
-184.466193
-127.937376
-254.826940
-198.992137
-184.579093
-451.079526
-241.460515
-163.655814
-167.962112
-282.014009
-184.320413
-125.450580
-81.765252
-304.173150
-248.538115
-107.966804
-203.706159
-504.891345
-108.475700
-15.105990
-247.203793
-110.898559
-283.279944
-282.482598
-237.527130
-142.231713
-239.636405
-81.387882
-185.683941
-280.001093
-202.101124
-282.523857
-258.953695
-152.468392
-179.716131
-100.337407
-111.222617
-248.668460
-75.424489
-105.820339
-185.858732
-106.696996
-63.562523
-284.063029
-106.252589
-72.009478
-280.793097
-193.547733
-188.279967
-257.441463
-465.078625
-178.866143
-180.772821
-367.833023
-265.906060
-185.587838
-70.739145
-184.362021
-139.367669
-128.747919
-167.605876
-184.940402
-193.659778
-148.495192
-183.025944
-283.822562
-185.402918
-346.998504
-209.198598
-133.122597
-188.887589
-179.781420
-178.316240
-12.609596
-193.561356
-193.165517
-267.297261
-173.481238
-132.004950
-259.259706
-250.827620
-472.041594
-137.097365
-198.385274
-209.916331
-78.057757
-184.446253
-261.159623
-154.302322
-73.013867
19.068312
-183.224617
-185.713769
-182.863814
-189.357480
-170.217578
-189.475654
-190.545815
-68.128204
-184.201751
-188.155964
-197.975734
-185.188871
-255.979152
-147.768025
-165.296827
-209.387308
-283.371183
-272.421460
-426.634131
-87.639951
-108.514322
-166.273888
-174.591223
-187.021447
-130.292218
-127.136654
-129.344882
-185.855512
-80.235736
-71.192092
-278.619532
-164.199225
-84.882241
-169.103015
-192.505920
-225.890172
-271.154503
-185.555847
-210.498515
-84.868430
-252.546996
6.054889
-211.964745
-132.036985
-181.861362
-188.379658
-108.377350
-186.901875
-261.309539
-172.414598
-183.089510
-182.153042
-158.180553
-129.897795
-220.644188
-186.290295
-188.849332
-164.477044
2.407834
-196.830560
-137.430690
-236.071562
-162.529748
-115.560360
-184.965629
-10.951095
-183.155199
-186.636470
-80.247766
-286.053806
-126.251453
-183.314457
-208.325138
-268.382866
-182.768825
-114.576077
-126.174108
-172.556640
-164.970223
-136.177687
-184.876242
-123.467001
-177.808924
-174.869361
-128.266329
-105.829478
-123.997983
-303.755452
-109.111372
-82.060915
-189.540624
-109.372179
-168.616614
-70.136725
-5.440447
-188.925622
-146.618543
-277.072834
-277.445687
-191.667246
-247.101134
-142.339338
-221.991572
-146.729486
-161.499207
-73.095664
-78.611371
-158.392818
-384.030720
-189.668904
-185.444676
-269.952212
-64.195865
-106.360044
-121.904092
-270.223458
-116.996679
-121.939344
-138.919028
-102.938731
-143.198070
-180.956122
-192.384553
-184.652548
-102.659264
-187.377725
-417.474109
-188.732379
-182.635587
-191.170996
-275.964639
-276.264819
-132.584247
-182.722613
-185.499559
-179.688272
-178.873479
-154.058065
-187.186329
-103.184557
-117.928228
-116.223448
-188.192785
-86.442523
-184.871480
-97.018040
-285.081707
-188.407869
-324.810148
-254.794097
-168.221665
-118.741334
-149.771087
-226.373587
-188.012219
-73.632696
-5.871525
-222.888118
-165.338174
-189.428236
0.287543
-198.070013
-196.902482
-188.284487
-103.033103
-126.566599
-186.000666
-222.990481
-262.453450
-263.565231
-182.066308
-142.483520
-143.975991
-188.893852
-186.402059
-112.298002
-67.611755
-107.305046
-174.308104
-144.917555
-184.687855
-186.464954
-271.146446
-187.952065
-185.178404
-114.404447
-180.247447
-184.563117
-283.205786
-273.147911
-185.501032
-158.205514
-185.671211
-194.406835
-179.879178
-283.142007
-132.209353
-200.177309
-198.665441
-164.826877
-260.553846
-188.624507
-66.293088
-188.065086
-190.453065
-105.733414
-307.785685
-195.395712
-217.526948
-345.993325
-51.510831
-64.673236
-182.443876
-464.916711
-286.699997
-167.567407
-185.512331
-162.588591
-240.058229
-193.186251
-235.089163
-197.106390
-184.607466
-181.867267
-320.956904
-64.475962
-427.254232
-166.100116
-180.360388
-189.736473
-101.378308
-107.540863
-257.980987
-71.944439
-187.989980
-202.459958
-186.119926
-233.867937
-467.022486
-76.630231
-65.794443
-284.489187
-129.243032
-128.922429
-331.641914
-133.024296
-328.439000
-77.790439
-185.749276
-215.263048
-129.715441
-269.825702
-274.021086
-122.937426
-184.772444
-180.468496
-188.477654
-77.539021
-158.009616
-182.909663
-178.263510
-281.397103
-285.137733
-266.071224
-235.856368
-186.488071
-118.737160
-185.636435
-243.060233
-237.515590
-175.071423
-404.968621
-190.185022
-168.149977
-208.876358
-186.144503
-135.407093
-283.964308
-185.828590
-243.599673
-240.705063
-258.871271
-224.008364
-247.421443
-257.417748
-249.314413
-186.862699
-125.233252
-118.838638
-157.778220
-197.394353
-213.319542
-195.378329
-201.954817
-96.703816
-276.220227
-170.624060
-186.236428
-154.648017
-70.075131
-172.685338
-267.864978
44.332655
-420.590562
-116.893253
-129.922780
-218.855657
-69.498641
-178.082048
-184.211738
-184.752411
-160.315696
-185.635064
-117.947547
-183.886612
-175.734201
-318.432613
-480.041904
-188.414885
-246.065915
-186.924779
-361.749787
-189.828791
-192.940000
-186.895606
-90.788030
-103.937847
-115.101003
-283.013998
-95.736681
-231.732088
-192.733740
-325.467775
-79.574395
-111.309487
-171.700292
-190.216063
-254.703024
-2.788841
-206.160739
-129.229620
-191.087304
-253.566476
-285.035946
-279.803550
-180.323183
-183.837265
-80.954566
-232.839382
-151.720134
-329.298810
-65.858181
-190.977199
-170.048176
-193.778587
-337.744713
-119.790396
-134.790054
-186.935473
-389.568285
-181.029909
-177.155655
-186.918835
-176.690878
-344.108900
-176.995403
-163.211134
-187.407594
-282.056455
-188.610827
-74.037464
-281.515127
-78.309293
-251.510176
-253.317916
-136.373240
-405.139518
-372.958312
-63.677744
23.171229
-241.840902
-188.026674
-181.952667
-184.409321
-497.150872
-176.978491
-192.737688
-186.366137
-187.126183
-65.536377
-225.554966
-312.066176
-188.773367
-137.105101
-105.170713
-82.439766
-252.249226
-177.305239
-394.085886
-241.731583
-185.308009
-147.825076
86.302091
-274.440469
-171.936441
-132.267202
-273.670535
-180.316918
-185.621565
-185.021222
-128.365364
-135.568900
-252.518439
-189.451984
-186.875453
-131.334154
-111.861422
-188.844850
-226.616360
-137.183498
-135.765609
-186.712289
-165.563655
-192.678738
-120.006786
-160.211836
-208.640257
-177.206855
-242.769429
-181.535821
-191.081009
-64.434222
26.143581
-81.767582
-128.147683
-195.000755
-195.081614
-362.175461
-117.474767
-181.154183
-245.619277
-145.872993
-182.458687
-239.260095
-193.034830
-187.037849
-167.915241
-186.007798
-328.036406
-72.895202
-75.786856
-188.141389
-167.631360
-207.824536
-188.232716
-180.171698
-115.317723
53.103127
-188.033960
-267.832138
-176.503686
-187.620100
-186.065196
-264.407868
-255.375191
-160.104144
-254.280977
-182.576947
-98.963319
-194.683125
-93.510521
-184.291905
-138.091066
-178.923611
-268.033389
-180.766596
-174.832427
92.427902
57.283592
-184.097492
-167.129656
-215.271094
-187.365122
-188.784781
-272.106950
-186.505908
-246.101532
-188.897524
-266.815186
-188.397225
-285.172943
57.642339
-136.429687
-184.741904
-208.540076
-194.721908
-146.706627
-88.265351
-79.603830
-183.028364
-184.489909
-285.732718
-127.444552
-130.234844
-129.454509
72.163031
-110.326827
-110.175650
-184.946677
-183.554651
-185.775569
-129.212368
-122.429490
-188.261542
-188.146913
-184.654916
-190.530068
-88.861045
-70.706007
-180.913141
-184.456335
-187.172307
-393.513817
-381.606334
-182.171464
-272.781028
-179.008456
-203.387100
-173.401273
-277.059269
-107.051433
-114.825723
-187.586787
-286.290020
-186.823112
-185.656573
-186.155444
-479.292451
-189.695117
-191.697295
-113.255051
-302.152682
-157.450258
-331.959202
-133.849284
-4.001599
-448.504784
-250.143696
-123.608847
-227.152321
-194.035318
-106.513639
-186.539390
-165.223795
-247.023013
-186.505318
-305.066614
-72.290283
-185.928362
-126.704028
-186.006629
-186.219001
-327.821499
-412.899385
-103.544946
-67.974903
-125.044746
-163.414131
-187.675592
-187.570703
-215.927607
-209.718092
-186.117339
-119.034363
-169.557241
-281.184107
-156.069364
-186.074503
-285.726937
-186.514210
-188.211000
-189.899295
-295.634347
-172.362730
-178.549594
-268.876090
-256.047205
-185.826471
-191.558072
-179.038155
-265.971134
-269.782266
-184.752532
-185.694078
-185.872230
-186.517956
-274.024125
-152.586909
-242.012967
-189.539650
-184.306267
-191.928308
-185.010377
-109.006714
-142.183502
-273.989457
-186.467622
-186.593344
-42.893092
-121.957370
-189.651293
-182.754915
-135.417323
-114.609987
-182.465589
-186.168448
-185.913368
-187.080377
-187.575341
-250.363756
-301.446853
-130.635527
87.125826
-42.277133
-110.036795
33.818403
58.900177
-4.126813
-125.896894
-120.691747
-135.568875
-188.484621
-119.705526
-187.939667
-184.395213
-268.813609
-179.535220
-184.017323
-180.807570
-197.826756
-310.072758
-193.005665
-186.749556
-446.720265
-187.641874
-252.061712
-75.850367
-234.397503
-158.250780
-173.344753
-143.791687
-182.248684
-127.888888
-181.765643
-146.396371
-185.035628
-276.667359
61.187495
-186.586724
-103.269395
-186.624965
-158.775727
-182.244734
-420.231443
78.338429
-261.917045
-185.629384
-185.811072
-142.169925
-178.490508
-173.659478
-188.208439
-184.295284
-189.805352
-130.152350
-271.217484
-71.483611
-186.435142
-274.603688
-254.086632
-185.479459
-100.544802
-278.126168
-186.555154
-111.007010
-192.114527
-185.302307
-162.395104
-72.094282
-176.006197
-71.732246
-222.512297
-189.004358
-184.735513
-185.045218
-185.734732
-277.903279
-372.920130
-135.916048
-250.945572
-188.494166
-186.624053
-187.662045
-144.749253
-186.614138
-188.861472
-183.609916
-193.998374
-185.723985
-167.457736
-388.387551
-318.467603
-186.582638
-89.328793
-330.007300
-397.206547
-361.012403
-176.429143
-72.876189
-188.247266
-186.245487
64.015907
-171.771335
-106.141297
-186.003733
-186.476578
-156.737484
-150.224322
-138.946177
-249.334158
-170.986103
-188.894015
-100.006871
-157.548478
-185.880014
-103.748481
-144.498863
-5.650396
44.518860
-133.784306
-69.714738
-118.537814
-186.337100
-274.964730
-180.183982
-188.795480
-186.334854
-101.093987
-177.781477
-175.045941
-185.919176
-181.317336
-274.130586
-186.589350
-178.312199
-182.709318
-191.448084
-419.119481
-191.056368
-185.682502
-185.715087
-209.344036
-169.911690
-187.085441
-246.356267
3.058761
-251.246445
-190.764751
-284.193211
-185.731033
-273.559914
-77.806025
44.502451
-263.724816
-253.604465
-184.926065
-183.366753
-276.637324
-232.571761
-238.398389
-280.150884
-185.614729
-215.324598
-162.935303
47.412809
-387.342228
-392.983235
-148.974726
-379.887090
-369.735781
-225.889280
-370.651297
-397.084917
-58.357892
-133.331209
-181.355774
-185.657202
-359.938850
-485.867746
-346.770287
-358.259111
-186.019496
-188.167201
-185.779040
-96.968033
-451.382850
-182.728649
-185.791967
-190.461499
-184.666842
-225.349339
-185.723378
-328.513289
-184.881368
-125.412548
-186.461137
50.843798
-419.209372
-112.976014
-137.465232
-131.546966
-72.110046
-187.641546
-91.007390
-68.713579
-286.598321
-181.993751
-184.511870
-185.638242
-155.680062
-164.983445
47.629314
-42.528401
93.980932
-118.425934
83.758649
35.414777
63.553875
-2.202533
-174.368632
-247.820914
-159.974010
-180.170622
-181.093452
-248.927936
-185.731960
-185.725123
-170.991830
-177.757935
-145.218191
-362.998093
17.925285
-185.788175
-269.971602
-308.263594
-284.770367
-153.307484
-185.754175
-188.154660
-255.721779
-183.076103
-182.120525
-375.202600
-373.195569
-252.935794
-299.997752
-185.750398
-187.166833
-180.655391
-185.507659
-276.799610
-516.744544
-182.240586
-184.508358
-66.307513
-185.725358
-244.092362
-157.152425
-20.294802
-184.660662
-181.555375
-167.389770
-245.809695
-132.671997
-186.486529
-182.424601
-184.723445
-299.384096
-163.922480
-185.278008
-146.585249
-185.245841
-185.768193
-218.623380
-215.285683
-185.710541
-184.635778
-280.934300
-183.702098
-271.465748
-181.527792
-187.572543
-185.323575
-158.236530
-187.082087
-39.263821
-180.764509
-90.546542
-187.326593
-180.142387
-185.688369
-157.600789
-184.559564
-167.577130
-185.539319
-188.189866
-180.814406
-252.136341
-247.690122
-351.253217
-357.059293
-184.248282
-276.842078
-185.773158
-125.296125
-90.884287
-274.752925
-275.075952
-185.855504
-132.562799
-115.028168
14.366592
-155.488338
97.946204
-107.917994
-14.968809
-51.124683
-33.199584
-172.447340
-202.663927
16.671305
-178.107119
-69.153174
100.066607
92.101455
3.951164
78.453540
-83.261613
-130.252988
-268.893117
-184.809231
-279.746555
-185.714351
-248.264877
-186.003748
-130.985447
-185.090218
-274.208989
-187.330076
-491.773507
-364.602975
-241.380722
-185.703864
-169.584675
-188.828771
-180.140731
-187.157863
-252.978419
-184.484127
-229.881356
-179.949817
-119.429115
-180.552706
18.459742
-185.300853
-43.081805
-282.077505
-184.455164
-225.800903
-184.666864
27.685459
-137.133408
-243.844224
-185.685541
-251.582506
-255.750645
-214.967221
-185.852055
-244.980986
-269.722296
-182.913533
-185.677160
-182.213841
-273.531341
-178.806687
-183.887703
-181.779596
-185.041191
-184.974143
-184.795583
-178.791169
-142.100084
-162.831151
-185.718724
-185.011878
-185.820371
-185.731758
-175.200296
-156.324488
-154.105859
-184.523830
-178.931200
-184.172551
-165.416569
-148.150599
-184.325541
-185.720468
-186.329644
-285.298127
-219.069012
-179.332669
-165.741241
-184.318439
-183.263097
-191.177876
-271.547513
-7.288051
-191.263530
-352.520081
-145.410943
-199.884721
-256.375841
-123.330622
-200.602081
-243.502152
-151.918419
-180.696580
-129.517128
-186.355239
-165.250920
-251.126819
-189.565395
-194.326640
-159.161200
-194.133590
-149.230326
-185.744837
-197.086657
-207.100358
-185.477981
-185.731185
-203.410924
-243.168805
-239.519959
-150.169544
-157.957079
-201.212845
-197.649091
-199.417064
-181.145597
-188.415630
-215.168158
-224.122655
-211.015932
-157.276915
-280.110249
-186.187410
-277.539815
-205.025005
-209.103417
-184.426938
-229.447808
-225.345071
-143.868382
-165.924246
-140.449183
-253.174780
-258.184240
-197.448108
-194.150156
-219.458922
-224.108025
-229.838985
-225.419377
-250.950998
-185.736786
-183.322546
-142.824556
-410.710708
-308.960578
-235.492931
-173.902958
-185.789977
-152.005126
-206.022947
-247.634769
-257.604169
-257.453360
-215.227185
-173.878684
-182.245291
-174.391511
-203.533055
-193.488145
-193.189289
-235.267822
-186.884695
-222.013650
-150.879578
-252.338228
-201.409535
-185.753080
-185.698286
-178.055697
-252.702950
-209.094891
-218.062221
-212.792186
-216.749761
-219.317102
-212.771894
-253.892860
-263.945818
-160.172835
-196.240985
-230.771112
-238.479858
-209.040995
-217.961140
-226.289159
-214.597102
-230.603303
-197.664096
-209.231948
-230.190873
-186.239394
-258.757944
-105.416401
-232.874235
-211.063925
-194.919212
-194.824788
-185.740187
-98.446507
-195.573886
-160.931457
-220.942754
-208.318691
-196.669415
-194.840897
-197.064317
-197.857087
-195.588362
-194.620664
-231.395188
-107.041384
-195.270570
-196.226860
-197.880168
-198.330263
-174.300921
-195.954874
-257.997695
-198.803061
-201.014039
-204.845153
-200.522031
-198.304377
-221.921283
-198.319309
-126.035109
-169.898388
-124.665832
-220.983687
-200.740807
-201.168155
-195.582813
-182.041610
-124.532450
-231.068350
-199.696779
-202.064591
-132.123651
-114.782460
-199.401022
-259.542165
-263.996307
-179.017902
-202.801179
-199.143046
-173.915339
-107.104527
-178.870215
-173.968268
-184.222340
-211.097462
-196.755889
-184.522687
-116.337809
-189.890926
-219.505123
-203.139971
-201.071276
-190.462453
-124.512142
-195.805349
-199.377544
-196.262995
-194.679808
-197.311339
-258.987372
-98.976655
-199.815371
-206.961692
-215.534954
-201.863998
-204.855662
-202.706747
-116.285109
-197.481914
-126.300130
-210.604804
-198.230207
-195.319718
-216.759606
-218.871834
-195.574333
-97.262345
-105.919202
-198.814128
-202.788351
-125.139531
-200.413704
-226.753915
-218.806627
-180.526783
-195.891196
-201.504947
-199.332262
-260.065935
-196.360264
-196.359924
-222.549503
-127.262749
-206.744717
-195.301566
-259.485808
-195.210770
-245.703042
-247.972225
-196.735904
-193.424593
-207.203810
-196.003587
-194.998749
-249.181088
-247.782537
-250.134035
-196.553604
-249.138362
-196.506746
-230.934518
-174.446536
-250.045240
-245.249847
-259.575873
-251.447396
-243.304242
-245.225555
-246.538625
-245.884304
-185.034870
-196.937248
-245.298907
-198.738347
-188.085576
-241.996333
-198.485492
-162.109347
-194.992702
-156.204631
-154.822288
-134.206481
-151.567333
-246.698752
-166.364654
-157.665074
-164.288987
-156.505126
-162.442164
-155.598398
-238.007445
-199.703750
-160.880718
-184.752811
-183.644826
-198.735733
-232.175654
-231.436908
-232.603775
-247.528027
-237.299292
-195.576225
-125.069586
-200.235317
-226.388076
-260.141550
-152.152659
-160.527706
-158.936070
-248.165986
-157.628542
-170.927473
-159.946627
-159.025817
-159.445570
-161.459423
-264.279439
-161.706313
-265.306949
-262.564319
-260.932149
-158.386734
-163.469530
-189.114141
-156.258723
-264.798365
-209.147410
-258.701687
-255.445826
-253.955399
-146.789207
-259.097102
-267.496033
-237.464641
-239.613327
-200.868788
-156.098358
-168.602972
-226.544838
-268.907003
-260.566765
-250.077543
-260.787160
-249.859811
-135.997265
-247.870663
-237.484188
-199.039090
-168.920256
-171.020406
-235.366718
-248.049200
-266.029447
-245.978041
-245.839338
-167.513655
-152.843650
-165.963576
-164.401297
-180.268116
-243.876184
-184.269152
-174.892948
-215.918823
-172.312808
-176.107820
-179.098845
-243.777478
-248.119948
-231.859272
-241.751879
-183.601633
-231.966182
-198.491732
-264.016653
-268.388334
-225.379952
-248.942346
-199.505799
-214.565596
-261.886608
-243.018435
-242.633249
-219.989665
-226.821556
-195.266861
-195.114900
-227.170536
-226.835812
-157.475632
-237.396828
-263.041818
-157.777506
-230.699502
-221.389535
-158.420653
-155.327867
-161.171395
-222.398709
-252.418523
-161.447281
-232.503644
-239.594060
-125.821120
-200.864776
-252.627969
-164.680319
-247.700150
-237.613947
-257.494557
-231.228375
-144.818871
-247.732098
-231.296895
-265.373902
-255.775087
-233.241183
-257.225650
-231.244806
-144.626335
-195.457733
-235.339303
-223.748141
-253.661782
-198.270695
-167.159868
-194.736403
-223.534484
-257.001843
-222.434978
-241.655465
-196.444963
-154.399117
-267.801586
-267.011668
-251.794918
-241.693085
-159.832020
-226.974833
-264.867267
-211.466788
-225.293698
-277.558689
-238.518017
-178.553163
-244.638544
-268.762546
-173.260400
-222.688724
-229.269870
-152.216832
-244.701123
-145.661401
-247.666847
-229.259030
-206.072607
-235.309190
-225.104009
-250.419705
-247.572169
-250.546347
-262.054725
-253.175850
-253.334408
-227.688020
-226.807655
-235.371226
-227.355748
-260.431848
-148.171666
-261.477983
-223.070949
-213.886127
-216.461215
-261.260662
-234.752390
-231.111564
-220.905986
-151.071273
-206.932728
-153.816312
-156.026209
-248.378181
-215.995445
-258.606282
-220.931849
-211.535471
-161.694359
-264.838306
-273.035435
-160.251679
-270.844515
-163.191846
-188.457061
-214.099622
-218.040597
-157.958492
-234.602370
-291.860447
-182.931759
-176.842746
-292.131539
-174.197393
-188.274443
-216.178570
-197.507441
-213.821873
-218.372705
-156.922682
-283.558101
-154.004934
-157.485137
-254.648232
-190.996376
-216.627448
-194.651585
-283.158889
-288.798837
-213.682156
-246.488560
-178.723328
-284.729078
-165.376369
-172.089040
-234.920908
-238.534245
-218.577881
-210.451088
-214.755521
-193.338462
-288.095276
-292.821002
-214.108378
-169.550119
-223.007914
-172.534854
-156.874816
-288.428145
-259.345236
-279.391200
-151.519482
-146.157785
-155.050596
-151.256795
-196.029465
-198.499991
-160.401103
-241.624743
-265.183829
-287.652039
-199.102269
-219.433125
-203.729918
-255.987889
-287.221145
-260.669132
-288.574499
-269.294625
-190.357136
-232.522842
-232.075775
-285.833152
-155.038919
-218.662167
-195.490777
-166.295525
-201.168570
-175.904243
-156.920998
-214.273673
-218.528552
-210.096869
-170.451194
-214.275161
-255.833341
-288.136034
-163.958418
-216.903562
-233.146983
-161.627268
-283.880332
-227.342751
-156.356886
-168.106028
-156.705651
-232.457011
-157.624501
-263.137132
-228.472936
-229.874363
-162.086181
-260.822649
-200.608325
-222.548502
-224.741288
-281.460255
-279.761869
-152.861085
-238.506439
-181.373726
-285.681339
-219.532681
-270.477760
-235.546356
-175.367549
-153.157480
-258.385125
-285.140611
-285.613331
-281.763332
-222.148549
-250.881974
-219.347567
-149.618830
-284.252535
-208.438382
-207.954989
-275.242658
-272.492597
-157.984028
-202.953077
-190.352941
-231.497017
-286.377841
-237.666416
-123.283481
-263.517063
-205.373991
-139.292741
-283.581135
-284.530775
-221.711302
-292.652973
-275.137615
-149.050018
-215.852713
-286.506496
-242.340373
-281.539774
-227.076495
-205.983453
-230.624839
-186.101289
-272.784747
-270.462587
-151.054920
-284.056388
-231.007193
-180.460624
-281.431941
-185.214649
-168.093033
-290.884456
-148.365167
-287.127791
-288.827452
-284.101349
-290.469791
-164.462866
-279.693475
-286.022627
-281.883205
-289.742701
-201.928983
-261.433947
-244.572571
-254.836275
-252.309205
-284.732622
-231.003887
-170.955680
-247.061069
-211.637963
-286.582735
-194.905847
-283.962921
-231.778807
-150.022397
-284.015130
-262.392646
-169.491440
-291.611284
-289.546808
-282.746438
-288.548086
-291.192392
-155.044493
-283.634430
-192.598507
-287.980370
-167.784710
-233.286068
-197.628297
-213.530104
-220.839544
-200.224679
-262.930316
-201.440618
-259.597936
-285.903374
-257.131290
-252.051123
-249.164588
-206.381975
-226.174572
-210.960139
-257.268551
-234.031012
-218.521238
-180.708826
-215.453380
-286.084625
-284.161381
-289.535139
-148.542397
-261.945374
-200.674216
-201.110916
-189.072108
-284.705556
-213.774531
-168.005105
-277.765180
-197.497744
-210.884054
-279.259432
-199.102937
-267.956551
-283.446517
-268.066184
-275.229480
-235.789807
-236.997925
-147.687352
-277.341059
-165.074926
-219.369305
-289.955574
-235.073115
-277.204378
-261.228559
-234.906489
-130.384063
-161.728067
-248.548118
-292.236092
-275.573039
-271.851312
-184.533760
-251.606171
-234.730102
-151.481678
-200.976230
-238.132521
-264.871459
-181.274591
-281.377696
-173.949560
-267.954359
-282.988789
-169.369864
-282.989024
-216.375501
-180.205898
-186.472822
-160.365372
-273.374156
-281.082454
-236.320960
-253.570976
-177.050538
-161.209858
-134.001213
-235.528783
-140.739826
-254.736882
-282.686197
-292.412700
-240.417890
-232.513991
-171.572233
-210.706578
-283.589913
-282.570136
-273.510069
-287.331319
-257.776179
-191.597984
-240.010020
-285.589862
-253.328950
-212.072274
-264.145653
-230.086184
-282.123810
-160.000899
-174.052909
-210.850276
-272.284226
-195.509553
-139.450587
-156.164250
-192.495064
-261.074093
-264.770569
-281.475888
-270.535140
-216.658648
-239.812993
-278.449716
-224.718604
-234.641197
-271.030758
-212.999098
-243.983774
-288.314310
-205.602792
-166.323213
-255.957193
-141.079470
-199.789383
-220.116292
-230.999297
-139.792230
-169.335725
-246.176244
-124.148921
-270.158940
-240.229801
-191.382991
-278.203512
-267.641060
-178.231789
-252.563550
-281.489746
-255.494680
-237.008735
-134.817847
-291.986908
-205.472830
-287.533526
-242.269851
-280.662004
-162.299426
-145.115878
-188.342106
-148.158502
-213.754181
-267.829753
-257.712956
-155.272015
-287.434630
-286.168887
-256.023410
-190.400854
-157.104274
-180.533879
-154.696862
-281.042644
-292.070937
-229.080214
-180.299840
-133.935266
-141.524840
-197.660349
-285.762597
-264.377083
-169.300042
-227.552870
-267.694645
-237.137104
-263.863721
-273.306860
-287.426163
-147.544904
-288.754932
-184.673611
-143.565262
-160.818603
-244.672752
-145.695649
-139.767477
-213.575239
-241.075447
-196.209020
-291.126765
-238.533444
-143.915626
-135.777592
-265.466290
-252.847507
-191.319444
-131.147866
-207.798176
-290.948232
-273.693828
-236.990947
-280.286357
-270.929367
-289.731463
-167.149611
-244.564188
-261.378774
-202.328740
-169.756132
-210.621632
-285.271686
-292.233325
-205.311399
-157.293872
-214.025961
-216.318227
-292.126097
-201.644262
-194.856034
-165.583054
-242.470670
-228.330633
-158.819128
-263.418056
-200.604553
-161.719408
-213.882564
-128.529509
-246.225348
-200.029328
-263.129564
-201.307474
-160.637620
-208.581386
-161.455290
-258.468315
-227.531719
-140.566269
-247.672271
-219.100926
-281.120430
-193.736035
-251.899926
-214.093984
-146.448852
-246.437430
-133.300957
-192.700664
-286.732493
-192.208354
-196.849408
-245.421523
-291.041583
-208.130488
-199.427429
-222.021097
-280.990587
-216.142365
-232.712622
-213.604910
-285.338364
-261.642647
-215.116061
-287.063637
-258.665572
-271.480201
-83.428823
-221.451991
-219.111730
-268.284480
-192.346070
-229.758894
-258.650918
-245.829237
-291.646450
-286.337951
-280.333426
-284.442744
-244.389446
-200.424676
-81.450964
-242.021994
-143.824108
-242.488727
-149.376746
-194.925105
-256.049846
-168.879455
-254.081815
-276.246319
-150.305650
-196.748047
-286.865340
-256.651051
-273.365951
-289.279592
-280.169682
-208.257336
-290.724796
-210.113951
-274.251630
-289.874757
-225.165717
-168.064187
-198.571009
-247.671973
-247.568271
-81.345356
-150.291999
-168.411749
-149.501067
-211.300252
-149.745980
-289.993665
-246.367010
-174.127135
-270.540269
-280.025085
-280.714503
-219.713772
-168.674040
-288.368489
-254.734243
-281.286519
-220.316314
-157.242608
-226.950822
-160.146501
-109.057830
-258.087794
-235.401958
-81.717370
-223.377111
-161.481030
-278.656632
-289.089810
-250.773468
-260.272033
-198.647985
-155.333091
-140.682938
-248.029277
-292.035134
-278.254431
-138.229248
-265.442756
-242.620752
-247.250410
-215.514548
-172.693549
-208.998215
-164.841732
-130.656678
-201.878071
-290.306815
-291.162603
-114.804810
-209.941187
-136.935773
-240.394868
-83.326806
-135.619621
-244.647699
-173.217869
-210.007187
-193.457685
-282.378784
-157.805240
-165.893965
-275.861150
-281.845324
-284.221707
-187.671791
-193.398956
-279.746485
-225.294136
-160.038910
-166.511366
-254.758740
-205.472755
-243.529647
-157.001275
-244.440340
-166.830561
-199.087817
-150.344718
-248.614096
-124.077303
-246.533192
-253.191526
-289.293779
-125.984764
-174.827019
-196.648552
-254.275460
-179.414030
-265.529091
-287.680201
-191.196631
-183.336786
-289.214301
-178.502251
-221.409282
-228.506205
-187.430738
-146.811089
-168.852685
-145.672615
-251.639152
-85.823472
-260.097657
-121.966928
-281.025709
-258.212794
-363.556087
-233.216217
-208.010528
-141.540772
-284.588011
-145.010559
-141.900240
-214.201026
-287.883859
-285.470596
-263.963908
-174.458910
-268.358172
-267.164222
-158.585679
-262.118350
-141.179883
-203.412271
-169.142318
-204.323867
-127.462330
-250.907082
-114.940786
-222.642302
-147.550329
-262.299957
-194.904549
-153.239003
-289.387904
-188.684973
-205.678570
-224.064363
-118.791469
-187.192507
-178.765799
-283.810227
-186.448905
-188.874322
-290.771920
-255.058615
-208.854262
-236.566560
-180.900799
-285.495872
-285.334618
-180.507196
-126.814666
-253.676032
-120.703675
-263.609970
-291.470777
-287.980694
-288.778375
-165.828285
-263.471289
-244.366919
-296.640486
-280.077442
-215.659264
-243.970125
-260.982881
-176.089504
-180.228229
-292.260554
-180.051525
-142.110126
-286.598981
-143.523994
-81.356637
-209.937120
-165.007883
-156.309788
-125.679261
-238.257951
-253.869863
-218.499847
-147.754757
-228.904086
-290.320211
-82.815084
-290.005804
-291.086331
-212.800465
-164.684014
-291.850379
-208.443920
-243.159946
-261.581449
-196.508915
-254.105967
-289.720377
-221.867161
-137.448138
-137.766404
-285.136248
-205.018034
-174.226859
-165.793263
-215.802682
-131.704797
-149.464907
-182.811732
-291.134754
-265.425298
-144.644888
-229.920337
-180.608627
-250.301051
-220.984760
-221.700072
-166.709409
-291.634564
-280.615559
-292.507095
-360.519356
-199.058444
-244.716875
-290.822178
-215.172094
-131.318181
-113.391395
-291.560693
-279.751239
-182.988070
-225.877898
-288.077243
-276.560009
-279.990618
-131.090406
-254.033013
-276.943746
-157.687027
-134.357778
-286.203437
-287.929075
-289.643303
-285.438599
-36.569428
-261.765868
-289.909032
-212.645202
-203.424673
-275.933637
-108.884193
-362.433327
-250.489080
-264.853876
-201.842250
-232.814023
-241.680384
-232.031749
-251.694449
-185.768626
-284.462298
-260.761352
-154.432853
-288.226776
-289.307297
-290.577365
-362.146637
-182.637655
-290.245296
-209.435345
-236.740810
-223.199019
-117.159568
-165.234760
-169.092117
-157.962799
-290.319303
-253.386609
-110.478208
-287.361153
-118.466031
-196.453883
-201.925253
-145.619928
-89.976820
-186.519672
-171.730384
-165.240084
-280.166737
-193.888208
-274.448034
-247.330958
-160.622751
-289.228032
-251.183534
-283.854001
-209.133036
-158.097383
-208.832721
-277.468412
-282.448026
-242.661125
-442.799979
-284.264021
-257.772999
-118.461291
-263.677659
-139.516552
-187.128072
-93.595219
-209.698682
-229.585373
-81.857747
-292.402177
-134.790583
-253.671058
-201.767811
-195.953928
-285.969952
-79.801452
-275.771473
-292.555992
-150.909713
-198.873513
-126.443385
-285.846025
-222.181185
-235.995943
-292.410751
-188.544991
-151.662742
-244.335349
-278.428292
-151.335366
-281.925712
-125.638641
-148.386168
-291.397959
-217.894272
-176.288909
-236.524673
-214.977769
-276.868648
-288.919663
-88.862152
-283.963906
-242.792523
-251.976119
-133.503231
-170.581520
-268.110885
-217.293448
-183.372045
-103.495236
-286.614106
-168.178659
-272.956448
-286.856085
-286.749175
-212.092738
-291.430113
-173.824302
-254.334026
-285.394746
-206.070840
-261.438799
-251.019745
-284.685721
-281.474060
-180.491096
-240.129891
-224.124772
-217.407641
-194.194629
-286.712062
-87.891166
-207.208534
-141.274310
-264.294532
-171.925669
-200.260274
-149.782523
-286.474533
-205.897423
-275.151954
-231.963815
-288.940577
-226.207613
-216.669247
-145.853719
-261.471456
-237.650894
-85.736178
-172.141067
-209.182752
-264.947683
-210.956079
-284.894799
-214.285381
-210.079658
-244.278622
-253.298410
-242.266906
-287.869794
-226.796830
-217.335343
-255.903608
-218.518469
-241.147450
-232.373146
-181.564980
-259.480189
-286.186129
-182.598789
-286.350540
-156.476729
-169.931771
-291.676386
-188.376876
-256.582315
-204.502990
-236.981944
-286.016224
-289.939928
-147.455842
-75.954401
-289.672387
-150.925560
-97.420892
-174.276430
-102.364996
-128.968974
-104.212077
-285.005520
-169.120693
-287.033678
-286.360268
-132.132582
-136.219550
-198.463518
-214.878843
-174.274042
-267.298980
-140.508085
-158.809286
-258.671679
-184.550628
-286.114384
-269.610021
-192.905688
-179.274249
-107.928417
-215.875910
-206.384375
-99.267052
-196.151208
-284.976441
-248.755410
-183.432008
-261.291392
-166.089340
-25.097926
-233.722212
-252.380633
-269.247797
-201.260382
-280.495171
-283.877134
-96.705115
-162.380970
-198.298472
-233.061238
-284.363231
-261.007505
-54.680548
-180.902614
-195.926336
-289.350612
-209.583528
-163.018709
-87.217232
-217.053110
-203.450059
-236.706301
-269.213192
-269.056233
-259.259157
-256.643775
-222.558236
-158.851376
-120.678871
-288.886812
-232.224161
-258.641868
-160.170603
-217.905972
-182.852373
-125.911548
-233.127865
-211.270856
-284.930214
-205.838288
-242.305939
-172.583459
-276.649818
-246.824573
-286.545261
-288.551948
-292.355877
-289.769014
-162.080351
-191.788521
-288.179961
-89.858925
-151.280951
-233.951194
-204.476734
-290.937135
-151.864002
-208.891958
-285.695258
-217.750101
-194.104208
-288.168075
-218.746249
-205.229117
-181.487055
-198.825010
-84.686363
-225.234043
-158.290336
-215.375104
-282.252558
-280.640781
-248.286893
-112.107677
-248.211168
-262.889794
-285.345443
-189.819413
-222.044463
-290.708032
-286.934536
-239.644000
-260.819976
-168.514228
-203.190798
-229.381513
-145.246959
-254.315801
-201.479865
-246.271694
-181.188251
-188.818773
-86.549996
-211.981639
-97.301028
-287.530782
-98.999461
-288.269574
-289.252632
-248.379920
-102.755331
-263.493380
-121.432721
-83.000342
-158.490532
-290.402982
-129.982686
-180.804841
-134.331752
-291.081625
-291.508224
-199.269938
-187.616932
-105.104618
-383.799084
-438.697735
-238.431960
-195.981797
-183.949393
-150.292616
-292.513750
-266.267542
-221.646465
-252.981402
-217.569495
-286.654860
-225.693834
-233.611161
-257.743566
-287.692964
-212.681157
-282.631867
-286.068245
-200.421383
-208.396261
-149.426732
-290.779724
-287.543485
-280.694961
-261.184583
-203.668832
-205.445103
-48.486706
-284.769940
-175.959310
-264.539657
-214.954873
-184.949099
-288.425902
-271.482201
-263.888269
7.185537
-287.384002
-291.513936
-159.794197
-269.866285
-220.742490
-160.907933
-82.106930
-201.769463
-258.003897
-167.862492
-193.632427
-101.700250
-215.200265
-213.135466
-248.468757
-135.348242
-149.474343
-186.629951
-280.306785
-286.420993
-82.200603
-282.316031
-256.931098
-252.248356
-220.781273
-197.881528
-151.544422
-214.702682
-251.257530
-285.958927
-177.590237
-134.932854
-109.954093
-286.011451
-103.776645
-210.080836
-255.940460
-88.783586
-184.265854
-156.865663
-283.463664
-88.375809
-191.405381
-106.183693
-161.317542
-149.939320
-239.522435
-253.039598
-158.372622
-156.944325
-223.135645
-281.851666
-202.975029
-212.430291
-234.138082
-216.703066
-215.527972
-104.791092
-173.955704
-184.812340
-257.114029
-268.305694
-159.444042
-196.320994
-201.551740
-237.415016
-253.585882
-286.852695
-246.069071
-202.421940
-287.522620
-270.486508
-192.963985
-209.119676
-168.555601
-163.705393
-171.746851
-204.595293
-240.581740
-272.604074
-249.570093
-96.799594
-286.746026
-170.583915
-203.918632
-227.521894
-237.752450
-201.726319
-174.120257
-188.631248
-121.855230
-197.486194
-208.646692
-293.093043
-258.321182
-144.557792
-106.505721
-270.449068
-122.364601
-175.740262
-291.653375
-226.927710
-209.202657
-120.652626
-216.175265
-273.514953
-222.880265
-179.238558
-246.317201
-169.119774
-258.683860
-230.517552
-121.331025
-216.310873
-265.908330
-107.683866
-115.195514
-191.468000
-93.585536
-140.794310
-279.318381
-243.990434
-251.476431
-71.151850
-268.736304
-200.565250
-123.946667
-231.206415
-180.679738
-181.146108
-195.141220
-222.600876
-272.168070
-256.593966
-282.024996
-111.089760
-194.793398
-181.960169
-193.153805
-217.834016
-171.462553
-220.495558
-186.073916
-164.732856
-270.075821
-160.994917
-179.111916
-117.940232
-283.988863
-290.406193
-159.249387
-287.447860
-210.234395
-244.261159
-131.639921
-282.956388
-151.344370
-308.493453
-162.907124
-212.116939
-212.251398
-96.526182
-121.631801
-288.244201
-235.861063
-133.869876
-271.256033
-131.640504
-286.777428
-213.541733
-241.667627
-160.336135
-134.774994
-150.352500
-194.235926
-152.869142
-251.235780
-156.181640
-228.627222
-283.549263
-227.007484
-288.443192
-137.033929
-133.761765
-223.663264
-190.610515
-106.125070
-152.623117
-237.423159
-254.867362
-197.426683
-229.272890
-262.361352
-282.342171
-117.316006
-222.299009
-283.308392
-281.130686
-284.933029
-218.524322
-100.912238
-286.269595
-237.558133
-107.603033
-130.366825
-107.967971
-104.880834
-286.235537
-53.622201
-162.140089
-185.227636
-185.538389
-208.536047
-253.044269
-157.978376
-236.339173
-165.749083
-238.975042
-173.085474
-234.301016
-170.583678
-103.897283
-196.601662
-166.933924
-283.473740
-227.495674
-208.333575
-200.556219
-168.473850
-285.738602
-208.362481
-142.336909
-213.454365
-190.798949
-228.825395
-289.851701
-232.790379
-214.133402
-259.845102
-203.043488
-289.966550
-268.842119
-268.125674
-278.020287
-175.150771
-208.538302
-224.368725
-289.567822
-271.360039
-272.339467
-118.371514
-185.047203
-118.751745
-207.739992
-289.868381
-227.208600
-169.830871
-123.976897
-88.197655
-165.232825
-134.138863
-215.518292
-101.856282
-177.131399
-78.690133
-115.531481
-100.685312
-161.304998
-226.064266
-133.334924
-254.807223
-221.394413
-175.536440
-184.175699
-250.372262
-289.493029
-287.984315
-160.564140
-290.418431
-291.859333
-184.028204
-35.808887
-239.877087
-215.815444
-130.874540
-280.683148
-283.066106
-249.999435
-217.172290
-149.235879
-270.850207
-218.777960
-222.081687
-378.813335
-219.647527
-84.799525
-290.369044
-245.823991
-282.783257
-178.917093
-247.010866
-69.981497
-187.766049
-284.451789
-135.597913
-207.980243
-135.275734
-289.139976
-24.095939
-189.383090
-281.969292
-265.865107
-265.358490
-155.374744
-226.148327
-75.685582
-151.040012
-271.130382
-283.251813
-227.322330
-261.292455
-281.159822
-288.718585
-188.935784
-250.507685
-274.314571
-235.481767
-250.628214
-241.404707
-269.760499
-215.205987
-105.108603
-173.689817
-289.487672
-192.806809
-222.707022
-113.343081
-280.711876
-289.055388
-101.003547
-152.063381
-279.047092
-219.857527
-283.222818
-287.811629
-251.494037
-180.888881
-256.119378
-141.296868
-111.279722
-124.289409
-252.187069
-213.618507
-232.326289
-256.851020
-257.884677
-187.274976
-244.032337
-291.392310
-284.784215
-208.423408
-292.687145
-108.106308
-135.032506
-209.125462
-222.015622
-264.013990
-170.245951
-99.439503
-275.037876
-231.856884
-256.263045
-273.192276
-89.044490
-204.674719
-175.966148
-225.230135
-215.043468
-305.058806
-191.257470
-145.280374
-176.916640
-290.921136
-178.200386
-233.671268
-217.212972
-177.450829
-225.690104
-268.608390
-144.177184
-128.475552
-338.589903
-230.447056
-176.871465
-175.547153
-126.878071
-195.672854
-192.077540
-231.208842
-214.950587
-173.241112
-290.414439
-266.255106
-287.888462
-285.412181
-276.081432
-173.123908
-111.793912
-311.533810
-243.445665
-156.947608
-119.034466
-256.905859
-269.375806
-197.433735
-146.414746
-198.523238
-229.115470
-211.081955
-239.777689
-230.006000
-100.987223
-226.782720
-103.491280
-135.390385
-280.989049
-251.772589
-34.248457
-283.203320
-33.714066
-151.670952
-218.467633
-256.764224
-143.991568
-198.662687
-214.411256
-202.035883
-118.579944
-211.994066
-238.058537
-174.984970
-222.879075
-290.312561
-259.046363
-187.216099
-282.115441
-249.696354
-254.846020
-227.380602
-203.539869
-256.948935
-268.206694
-301.366450
-88.061317
-270.623030
-198.699365
-115.505775
-249.574976
-170.292793
-285.752623
-143.755985
-146.213952
-229.163597
-156.485372
-173.544938
-267.359482
-193.311387
-260.017306
-259.776339
-161.768858
-290.497248
-127.225174
-287.849989
-162.317436
-139.389729
-159.129684
-263.248014
-228.790756
-218.610667
-227.355602
-219.753559
-3.988506
-287.694230
-96.404852
-289.950861
-174.765041
-96.248279
-237.381307
-220.016682
-289.449497
-253.565151
-291.966965
-158.836738
-267.836550
-176.852692
-216.453406
-243.603674
-213.539081
-221.226086
-285.016411
-288.166134
-231.805214
-235.822494
-193.750910
-285.462674
-286.282216
-230.884403
-123.253822
-193.697809
-273.053532
-244.184241
-251.530735
-161.123517
-164.981661
-248.014095
-288.867317
-288.063509
-139.754638
-215.231080
-215.075693
-273.586384
-192.908477
-160.683650
-173.192489
-252.679662
-112.054472
-216.372419
-99.010357
-284.652513
-218.723936
-260.206664
-162.532051
-247.303832
-191.297812
-150.103929
-285.613447
-278.310963
-286.589644
-119.058912
-176.550101
-184.191423
-189.661326
-241.720209
-177.966125
-272.470037
-304.404314
-159.361415
-204.318538
-62.942415
-192.542984
-229.499762
-86.391783
-158.990986
-261.840798
-179.355273
-202.650546
-128.887774
-145.336725
-206.823909
-88.189018
-154.893630
-256.956118
-283.771715
-201.963483
-292.546598
-228.147193
-227.457869
-90.999694
-244.518083
-134.621142
-215.889566
-193.748699
-286.530277
-92.411521
-199.022436
-175.784009
-250.103524
-140.818538
-163.000504
-317.546644
-216.575925
-275.887894
-218.689303
-161.232779
-256.553777
-126.770519
-236.228312
-247.656810
-280.388543
-131.283828
-246.389673
-288.877501
-232.983486
-203.628828
-259.093682
-170.091514
-158.404987
-109.732401
-238.557031
-156.622458
-237.167614
-176.486892
-225.178267
-276.311479
-273.901539
-147.831419
-262.958873
-285.719037
-285.504399
-285.817461
-216.513251
-284.966175
-232.083048
-161.964241
-177.571966
-266.432124
-204.331659
-99.848631
-185.885667
-100.719775
-214.184252
-238.189965
-287.034257
-191.152554
-79.964561
-222.556558
-200.589812
-188.629440
-95.119431
-97.251932
-160.104912
-218.709209
-372.062162
-131.228655
-240.185847
-130.646327
-195.740818
-166.094460
-97.529108
-199.520710
-262.090804
-215.577633
-198.825075
-121.966905
-264.071673
-265.023816
-111.420449
-268.915933
-277.680519
-209.722346
-123.509903
-230.187646
-220.213403
-235.429086
-282.143895
-141.925523
-141.591034
-276.747401
-263.645400
-265.197700
-247.104247
-166.533012
-279.591732
-146.872701
-231.824819
-248.880138
-169.987848
-202.885535
-164.965078
-199.996966
-142.857620
-269.391852
-155.043744
-187.151192
-188.577163
-283.487154
-135.784439
-155.534672
-86.364577
-178.809526
-278.666368
-208.012562
-188.362268
-193.109191
-80.892320
-237.694210
-65.962869
-196.522889
-247.002496
-238.169349
-285.028281
-281.545696
-23.763952
-170.681107
-102.525974
-213.726542
-178.169211
-154.302827
-266.682892
-149.445749
-204.013600
-283.119061
-277.619078
-172.136120
-278.640398
-167.180700
-171.631442
-195.430007
-228.318294
-234.926383
-259.714055
-292.021175
-123.315010
-91.986692
-263.045825
-225.401540
-260.130732
-378.783962
-234.535185
-238.912129
-265.233535
-210.813850
-258.761175
-270.461671
-170.686155
-206.795958
-197.658195
-279.927205
-188.037704
-102.983993
-211.352406
-273.723300
-211.662111
-200.865819
-156.199022
-244.102258
-193.863842
-209.167005
-228.144463
-125.358064
-96.317662
-249.595035
-231.470755
-199.906882
-176.631159
-288.386000
-165.301422
-225.280798
-265.378240
-214.329573
-248.619590
-210.093793
-246.656687
-133.845752
-90.404526
-25.189801
-252.216639
-388.802819
-274.883951
-267.135981
-236.299503
-181.281705
-109.520871
-218.131438
-164.453919
-147.961962
-159.880312
-194.320666
-274.480858
-198.439018
-193.382236
-259.613934
-157.105843
-217.550108
-155.805095
-203.010451
-288.748795
-170.504854
-282.573496
-115.095892
-257.719626
-186.001681
-240.110004
-270.856641
-190.136651
-279.788881
-160.169449
-162.137225
-143.210078
-157.774274
-287.265072
-290.396599
-202.780958
-280.139108
-241.470681
-258.051171
-257.402272
-202.930229
-251.651238
-256.892165
-277.418681
-278.281785
-156.775319
-111.465454
-221.779810
-287.009306
-226.989733
-192.526598
-195.202295
-199.166661
-151.246838
-204.322022
-107.217960
-80.370989
-152.995980
-290.560052
-220.221448
-273.820574
-287.242802
-162.858330
-94.737961
-182.015594
-222.772604
-149.103505
-252.403434
-143.690930
-285.069546
-217.053993
-198.014079
-119.665378
-284.879186
-246.767109
-191.904995
-282.006381
-273.371560
-127.891637
-284.137969
-205.996324
-193.126356
-275.441740
-290.970110
-283.280737
-139.119568
-165.869375
-285.092272
-281.494735
-275.979603
-265.307604
-174.831344
-276.425685
-148.422688
-119.553673
-276.560001
-283.425652
-291.500560
-159.131550
-160.888902
-155.936327
-282.306842
-167.721033
-270.765678
-158.723353
-215.312422
-133.309204
-265.231614
-161.982191
-164.721430
-217.090078
-217.194750
-220.128771
-213.976409
-277.643933
-144.568754
-275.976104
-268.040396
-61.506123
-105.693274
-196.120710
-232.601220
-308.226703
-158.649886
-131.842701
-161.432003
-227.298524
-292.657520
-131.092529
-106.916737
-198.495916
-104.605348
-233.325279
-211.215297
-133.978970
-278.865790
-104.131411
-215.342536
-271.763978
-136.853048
-188.665984
-279.901911
-288.357364
-274.191579
-279.731984
-201.769697
-157.894188
-240.670341
-233.772358
-209.282734
-220.054642
-124.012642
-175.364164
-171.760971
-110.402186
-195.471411
-199.955863
-149.838755
-163.532731
-284.311079
-230.393053
-241.432248
-197.001435
-266.539932
-185.885570
-292.980755
-255.839203
-164.140369
-118.520683
-278.077900
-279.263796
-107.626031
-181.432693
-253.732993
-322.935680
-264.190570
-178.534936
-305.226377
-192.057766
-102.885035
-244.004401
-106.693317
-184.205792
-266.892033
-180.699504
-173.687537
-235.540889
-157.472074
-161.686786
-258.052488
-228.801015
-139.760179
-262.392342
-157.455255
-286.006927
-167.279123
-155.018753
-253.487327
-173.367215
-211.876384
-108.825185
-258.600648
-280.321492
-203.775149
-160.031522
-268.569290
-220.441821
-271.027373
-217.347899
-264.823115
-223.985578
-206.964851
-99.265440
-120.559683
-259.968227
-153.143330
-282.669220
-123.841612
-95.750175
-240.897046
-258.878979
-291.552606
-245.485675
-252.372005
-284.350216
-227.641346
-134.297339
-163.859880
-279.084316
-191.316050
-116.276115
-287.079905
-278.746147
-224.678397
-222.632265
-176.882318
-253.894232
-78.720576
-289.344511
-206.818246
-292.439905
-119.022452
-283.521334
-291.812993
-185.423664
-286.950305
-287.877057
-154.402057
-267.196910
-180.382190
-288.259667
-227.642777
-108.815966
-300.703736
-160.148566
-437.782081
-170.848712
-243.792890
-287.066588
-184.077351
-221.108932
-265.913438
-207.166014
-139.304466
-163.052586
-141.668924
-229.793498
-217.456991
-164.916877
-177.845070
-216.669841
-189.580238
-255.497179
-114.798165
-162.563023
-288.211852
-94.825316
-32.720741
-198.483863
-190.976966
-254.013249
-318.135804
-190.234921
-140.472502
-221.540842
-177.634486
-276.926945
-219.667632
-214.307016
-218.003548
-178.788145
-283.887006
-158.977929
-221.324740
-210.005458
-280.838275
-152.609816
-230.925200
-266.163519
-194.210875
-241.259940
-225.550519
-174.458657
-291.616568
-229.865541
-295.919276
-262.265873
-108.693996
-214.365522
-327.709480
-236.858550
-222.423466
-176.654434
-218.990218
-164.813663
-252.168283
-277.745551
-173.739090
-253.628859
-225.133284
-260.556414
-290.101418
-208.040992
-218.236928
-287.206253
-240.665526
-138.567156
-132.507287
-155.417987
-291.410182
-282.956647
-288.089706
-137.559246
-195.789865
-200.214094
-129.694099
-241.178879
-287.853358
-426.104401
-184.621692
-74.291585
-140.638395
-279.823036
-247.873217
-145.950133
-148.738214
-76.982320
-219.592668
-171.491979
-279.181673
-253.333341
-238.109341
-238.272707
-224.003978
-214.158427
-240.581200
-198.961888
-194.279573
-230.133090
-154.536816
-261.267207
-208.190788
-57.435583
-276.054043
-279.419275
-258.820519
-204.064956
-180.128254
-283.688929
-227.727030
-100.114195
-272.983394
-157.116636
-257.808413
-103.926220
-109.200075
-250.107302
-184.447021
-165.734824
-218.257731
-58.801498
-244.776812
-338.300946
-248.508652
-253.048898
-259.842250
-202.693099
-273.805862
-281.410897
-128.458022
-33.811657
-125.942706
-164.303010
-174.223950
-210.456821
-208.100622
-228.005489
-175.557087
-281.162815
-235.276298
-290.746763
-142.866317
-214.640315
-214.959057
-288.969900
-139.622512
-223.112731
-153.219117
-288.126174
-250.914814
-112.937515
-325.559702
-141.800025
-162.683874
-265.957248
-270.540453
-201.051675
-188.261565
-253.877800
-267.071689
-190.146866
-255.310913
-114.609349
-113.637957
-151.885534
-262.684001
-112.629832
-256.887632
-80.034855
-270.957710
-223.880934
-213.671300
-109.456570
-238.930686
-192.095196
-291.417688
-95.780448
-217.082212
-138.583547
-288.404039
-193.111591
-237.379512
-162.198710
-300.213825
-99.236604
-104.741909
-145.109197
-108.587566
-267.575166
-285.808000
-166.390782
-268.222549
-288.635357
-98.170967
-263.436207
-287.137091
-277.438119
-164.227435
-230.375136
-194.902460
-192.595713
-189.213068
-210.943323
-186.845714
-165.245517
-289.271370
-259.699579
-208.711109
-214.049644
-209.431162
-264.404940
-160.836077
-107.175045
-97.801396
-221.897208
-250.365039
-274.296595
-283.550122
-199.335901
-160.098678
-74.495864
-287.408533
-172.456680
-288.234242
-120.624386
-163.205126
-241.656421
-213.932489
-276.048960
-267.114380
-127.544042
-136.542988
-290.772350
-255.612601
-197.053631
-146.819205
-139.039367
-288.826435
-231.566253
-209.279645
-196.133773
-228.184183
-164.621389
-289.518751
-153.200512
-266.548537
-246.226090
-214.700448
-240.586064
-277.186222
-170.164292
-268.629307
-223.563779
-240.917424
-233.796414
-233.633054
-96.365499
-227.311175
-285.423441
-166.701208
-155.038160
-266.837394
-271.197205
-161.690692
-83.752313
-259.926915
-211.168078
-165.439679
-166.786617
-130.528778
-202.578443
-74.569518
-172.962528
-185.727913
-136.600277
-195.629837
-94.435442
-283.961919
-207.525768
-210.173593
-180.097704
-213.911986
-269.022101
-272.946879
-289.530335
-225.375825
-212.796357
-195.953831
-156.890443
-290.276382
-289.153556
-287.525604
-287.023252
-216.218089
-198.418059
-155.916065
-193.167698
-2.657326
-288.522579
-186.950267
-350.859074
-287.042943
-146.618536
-175.979658
-116.936359
-100.033513
-247.269894
-93.273319
-83.766210
-256.080453
-324.400831
-159.469290
-78.423051
-220.431642
-230.044293
-271.008789
-227.641630
-101.094417
-252.518238
-81.851324
-285.214608
-236.279554
-167.133125
-267.684133
-98.415439
-143.450681
-159.476380
-241.925884
-158.184324
-212.559525
-214.923967
-285.494379
-288.857661
-287.399988
-152.358769
-191.573801
-232.741471
-252.486031
-87.932905
-198.362268
-211.566807
-213.382830
-107.829833
-212.674655
-291.148768
-319.860442
-290.044187
-123.414493
-82.883569
-403.272333
-222.586542
-223.270782
-289.112530
-262.494851
-213.320595
-282.497910
-285.116767
-175.455625
-319.565189
-191.662347
-363.675246
-256.743171
-64.007420
-152.876761
-226.205790
-264.710949
-280.255298
14.314743
-264.667556
-168.354122
-219.386781
-204.606471
-274.229272
-228.915626
-148.433704
-251.987452
-207.511510
-75.891689
-175.793625
-170.132931
-221.749328
-180.821905
-225.036996
-252.404083
-252.167597
-209.348588
-255.523776
-220.929557
-65.562937
-243.102823
-194.863090
-112.554978
-239.828115
-235.979498
-271.211039
-215.171959
-269.972813
-289.001021
-198.421292
-145.144720
-144.199374
-210.462033
-234.072385
-24.626506
-106.907057
-267.156361
-223.823245
-285.991298
-215.434337
-167.466530
-194.131563
-291.990895
-264.652172
-131.724310
-291.703230
-202.441936
-271.346510
-223.032187
-131.847426
-220.376548
-182.762338
-240.618158
-238.451923
-336.256300
-92.927541
-204.144389
-195.305666
-82.756088
-288.541215
-272.841582
-121.826600
-203.604209
-227.480107
-262.916571
-108.341798
-261.167713
-258.011364
-245.150400
-118.132316
-108.521645
-218.624329
-230.444323
-206.124692
-209.563018
-296.101626
-120.862403
-287.779249
-117.330049
-220.915671
-252.825382
-77.369762
-71.502234
-103.773096
-240.299093
-170.719534
-101.930814
-148.418900
-259.159871
-284.438293
-148.340348
-281.710009
-107.980645
-270.876883
-280.464387
-234.751427
-140.932374
-247.622457
-144.507939
-157.412783
-153.238367
-212.734316
-178.767353
-253.099054
-212.846284
-258.601322
-135.366912
-181.923920
-285.088813
-277.658706
-189.090723
-134.275095
-291.896442
-281.103946
-94.461701
-241.652963
-145.211176
-177.453811
-286.352536
-292.807616
-137.576854
-194.607756
-286.674468
-213.815405
-184.181501
-256.337794
-241.156801
-138.504786
-150.806420
-286.751144
-125.610108
-270.631283
-194.583577
-291.859854
-284.434988
-247.357403
-167.879344
-222.400592
-207.123226
-264.804302
-155.011012
-289.994538
-164.185300
-163.100254
-169.519846
-153.941992
-177.097516
-212.069572
-115.142739
-237.364757
-277.113426
-238.750335
-242.581931
-229.314839
-277.525470
-287.712769
-200.750010
-288.755617
-207.765974
-283.011150
-177.423751
-126.807846
-279.832277
-268.012382
-279.334854
-243.526994
-209.385631
-195.772239
-214.419762
-143.674658
-173.528365
-242.376693
-183.591290
-204.149686
-122.520987
-250.342455
-12.722432
-125.012384
-74.538073
-268.978371
-285.883522
-292.421494
-284.218756
-256.010970
-139.123614
-258.322182
-286.686011
-232.358770
-120.803312
-204.676128
29.146314
-193.401505
-265.809682
-117.671449
-183.646410
-284.424080
-225.824063
-176.555892
-184.464135
-281.925863
-277.856339
-210.704378
-290.698720
-260.214350
-77.693957
-286.663894
-196.131626
-49.505780
-257.636977
-372.178914
-230.342725
-268.362336
-284.521620
-275.373787
-289.000000
-249.339915
-231.539350
-59.745566
-261.021892
-268.898045
-268.414149
-259.741425
-244.371261
-301.303293
-275.980417
-198.681888
-146.635271
-263.121949
-292.379698
-99.864035
-255.789382
-220.977319
-77.684957
-268.057823
-229.691689
-235.854402
-236.023007
-178.577328
-286.907529
-147.449988
-286.578487
-88.954666
-188.421479
-222.499774
-241.196028
-252.779195
-292.573801
-171.997030
-309.283866
-184.126445
-163.559376
-292.094579
-159.052033
-209.472492
-157.811712
-183.933837
-225.186149
-170.795586
-142.057193
-212.061718
-124.655265
-164.116100
-180.128128
-184.664297
-282.585845
-196.395326
-291.812936
-200.706509
-139.723215
-261.949166
-120.218301
-278.520146
-291.066313
-132.698691
-177.285684
-283.118942
-260.801056
-418.686708
-212.759585
-150.742134
-287.179293
-273.565355
-170.489874
-153.139748
-216.242338
-212.967795
-142.314955
-192.118515
-129.688772
-110.977916
-125.136860
-107.562726
-158.758529
-166.940260
-193.377536
-208.611609
-157.578884
-280.181796
-160.747897
-281.834613
-158.614076
-100.396245
-125.877611
-137.397227
-291.848313
-104.076871
-146.612902
-147.826637
-136.906401
-94.776262
-91.201457
-229.360701
-109.150310
-144.335217
-287.032490
-138.005987
-244.954145
-251.918870
-242.565342
-165.540567
-160.820606
-207.924264
-152.289074
-68.789114
-84.964949
-255.076840
-132.378284
-177.227304
-226.430487
-252.116485
-253.959497
-259.476877
-191.753182
-201.526185
-215.186625
-202.913502
-147.377571
-185.511385
-277.441178
-237.933900
-264.594042
-273.593579
-279.611957
-164.112730
-265.610292
-194.688440
-222.298862
-142.615470
-231.870699
-102.894480
-286.758667
-185.686374
-269.220400
-210.236484
-173.964092
-280.638106
-292.000521
-219.684571
-139.313491
-259.435534
-161.111304
-215.152621
-277.846238
-220.766847
-258.597355
-284.183101
-287.080777
-256.846188
-220.872836
-216.782937
-186.611335
-285.865797
-281.804462
-193.335309
-85.326083
-279.394495
-140.617434
-90.957475
-74.101927
-173.021856
-269.507797
-257.240540
-166.067949
-290.458783
-231.779171
-192.886168
-272.909622
-74.537478
-237.378387
-215.896263
-210.009131
-214.873959
-233.853255
-214.510100
-196.468145
-287.659192
-286.025339
-88.694005
-253.792673
-202.459432
-125.142015
-125.359285
-212.253110
-281.648383
-137.684511
-59.643508
-199.431669
-283.844083
-226.387267
-165.674044
-160.265084
-128.805926
-80.678293
-270.322450
-248.220401
-235.590049
-213.562641
-234.614073
-97.009026
-290.465648
-86.996914
-273.108909
-30.463981
-276.221987
-331.066078
-280.721818
-272.153335
-267.481454
-160.768820
-100.757121
-92.878218
-234.057398
-289.611400
-282.883525
-266.154490
-291.211841
-225.786114
-141.783987
-238.795741
-290.212240
-282.567086
-279.738631
-288.160285
-114.742897
-282.677703
-243.025415
-318.904053
-287.411385
-193.879568
-252.076915
-283.601069
-96.215823
-229.741025
-157.487660
-281.620980
-138.120521
-160.046425
-284.441585
-289.961403
-175.536335
-189.880773
-163.750442
-264.712181
-123.868641
-287.349045
-231.249625
-287.891338
-132.124597
-290.597753
-178.946296
-154.984527
-183.845502
-158.431314
-204.211422
-218.924469
-123.078241
-103.958070
-285.315172
-126.748062
-116.865867
-287.095161
-274.021917
-246.305559
-182.713743
-288.258941
-163.675381
-292.034064
-226.445579
-273.372434
-154.833613
-148.317162
-191.624429
-206.679633
-187.017927
-216.598878
-153.506072
-154.651478
-101.150200
-82.056505
-152.593007
-113.728821
-246.609563
-142.830958
-64.212198
-273.264000
-201.082770
-247.843290
-210.465947
-190.913532
-104.902580
-160.403152
-194.474963
-284.196743
-291.244375
-276.962981
-136.186715
-96.285195
-274.330291
-186.402705
-153.654910
-218.045815
-150.617491
-183.605679
-72.889745
-279.548874
-173.053173
-163.191163
-275.793005
-287.816630
-388.131180
-209.751918
-162.649463
-292.812826
-276.516118
-229.667763
-195.368198
-126.148188
-103.583303
-63.991051
-256.525071
-40.108569
-287.824864
-245.639807
-157.619276
-183.726366
-2.789544
-195.937123
-172.289770
-143.290296
-178.306812
-31.851094
-220.968396
-231.396318
-189.937941
-239.527201
-149.086820
-122.662084
-162.451034
-260.567538
-290.007694
-273.932781
-233.436503
-181.061198
-115.094040
-249.857201
-274.462160
-281.960400
-191.325516
-286.927081
-119.453508
-245.754327
-94.684690
-161.015064
-196.121721
-190.589499
-281.782017
-135.935191
-288.549474
-259.895887
-168.000858
-157.142883
-280.655195
-289.265514
-287.511599
-105.477288
-138.870269
-236.615562
-139.275083
-257.476223
-211.819124
-252.023980
-288.421021
-253.217026
-135.378943
-265.691610
-286.079117
-91.503360
-270.468845
-181.353350
-157.820769
-203.940361
-269.538605
-168.374277
-171.263752
-240.543172
-149.755904
-190.620510
-287.115843
-122.568078
-210.394616
-211.167479
-161.670472
-277.056517
-171.012934
-285.872462
-61.010176
-204.419428
-107.179379
-317.389687
-231.618033
-169.602887
-113.220219
-250.892994
-180.737529
-280.364273
-226.025446
-178.521851
-277.579609
-264.034885
-144.874116
-232.378179
-126.541552
-200.048714
-157.756121
-292.274353
-207.477090
-193.062045
-152.155863
-181.901643
-71.031866
-181.348916
-155.225414
-228.019568
-243.365189
-180.169959
-265.248854
-247.717770
-224.174372
-283.379903
-107.226840
-215.841259
-123.081724
-92.309146
-165.961727
-222.110115
-103.231242
-175.301336
-242.162362
-89.236704
-146.768595
-147.956094
-231.517196
-173.543258
-277.183062
-210.520626
-117.826323
-205.116363
-230.901352
-283.418485
-241.979712
-120.751621
-211.134756
-121.158624
-180.965812
-166.774535
-250.217306
-188.793159
-201.617533
-247.423070
-229.552801
-271.512548
-442.842423
-159.629227
-134.180157
-150.974640
-260.365249
-245.319906
-126.306282
-214.491671
-223.749426
-222.522163
-131.566200
-256.323518
-213.420315
-287.660414
-290.715255
-234.099730
-183.238511
-191.892972
-196.163614
-192.908048
-190.118156
-250.304642
-287.150606
-197.211525
-232.537043
-256.145348
-183.628075
-289.726077
-275.655956
-287.042672
-244.689185
-296.794200
-296.773746
-144.216293
-258.900632
-163.283554
-266.755024
-191.983420
-204.361662
-282.694146
-184.226655
-263.457379
-259.310061
-203.463148
-236.133129
-224.709702
-217.684610
-250.607360
-206.797016
-193.450614
-115.036752
-227.592489
-152.553327
-270.400914
-186.144501
-289.282517
-146.212944
-205.598375
-190.378826
-153.132902
-266.527270
-233.580125
-454.035397
-259.723375
-232.962813
-274.824133
-206.181550
-161.078232
-89.880087
-240.968391
-269.398683
-232.954386
-211.947705
-164.129815
-264.517860
-186.437889
-203.554058
-264.759519
-287.556591
-263.746406
-139.835626
-178.565234
-221.725047
-196.516761
-256.824264
-212.229255
-152.450161
-240.110901
-273.687434
-245.024306
-200.770904
-88.537899
-130.452139
-177.513077
-288.808923
-166.260214
-219.766165
-238.296100
-221.444243
-225.296289
-276.196551
-227.902703
-256.332147
-186.217965
-268.126022
-279.161394
-261.530106
-256.850234
-224.962364
-149.266120
-205.062778
-138.559227
-162.438043
-117.756425
-289.512363
-204.985340
-225.331060
-227.097156
-209.270588
-156.459875
-139.054943
-212.913107
-208.014934
-291.335785
-181.386764
-186.004779
-281.373598
-260.548346
-108.300705
-230.367516
-266.868035
-181.967261
-124.752293
-272.628241
-193.125512
-205.029238
-299.170068
-153.289472
-238.163255
-262.822807
-263.749503
-115.068470
-160.006981
-148.764537
-174.413217
-234.174970
-291.127095
-210.444820
-89.422907
-280.293586
-213.687016
-213.168763
-237.979197
-204.617530
-251.148125
-273.956549
-255.601022
-169.095602
-142.929810
-170.988021
-260.700471
-139.003171
-259.315393
-288.180424
-165.472789
-224.012856
-107.404251
-166.474500
-169.463760
-190.791590
-117.262977
-116.631734
-165.986352
-12.475303
-257.762828
-139.277571
-220.035968
-194.269998
-256.942410
-230.344942
-268.268575
-194.535847
-208.493916
-240.134033
-241.670108
-189.088120
-87.588413
-246.437999
-190.760759
-246.286862
-289.264937
-280.234076
-233.146712
-224.595034
-147.350599
-191.529819
-259.436810
-289.090018
-207.755107
-204.363696
-280.418803
-172.008609
-181.445837
-264.462088
-133.584835
-285.256804
-143.033623
-249.395625
-241.753212
-261.757492
-231.891933
-194.319337
-161.393349
-208.050763
-259.700762
-155.132819
-214.321029
-207.405799
-168.710612
-73.521870
-274.884678
-167.253231
-201.122209
-151.399048
-239.066771
-237.200411
-244.382605
-287.501976
-285.096647
-156.094271
-200.154181
-268.937356
-176.901539
-199.383285
-130.408072
-230.436924
-213.472278
-278.395761
-257.388729
-112.367436
-199.217651
-211.613118
-254.572243
-201.088080
-258.738544
-276.020232
-216.374278
-153.840683
-161.843355
-218.053405
-281.078347
-286.565457
-134.191964
-288.825457
-181.184969
-270.099810
-108.106401
-158.988634
-259.708644
-284.430957
-261.256984
-262.995991
-148.329303
-278.991196
-284.803111
-287.286321
-266.200541
-226.323118
-274.011679
-223.060511
-257.679791
-287.769758
4.485775
-197.631767
-235.224309
-196.172012
-290.981204
-268.304381
-287.171163
-278.979099
-237.865934
-190.427224
-286.412342
-193.527087
-250.773493
-171.236762
-118.956020
-263.565485
-238.170187
-264.535307
-279.713642
-270.652928
-227.435099
-210.844561
-188.744262
-262.381643
-165.199505
-273.374244
-238.026569
-161.870581
-204.163701
-266.758592
-219.546162
-90.232146
-174.831644
-198.237111
-263.358660
-187.552662
-156.105549
-218.843621
-269.805387
-207.046710
-167.510154
-150.294880
-272.075410
-284.030239
-183.717322
-218.176366
-215.704830
-288.351545
-263.735187
-291.689791
-166.519861
-217.139672
-291.386448
-244.278852
-157.012536
-278.947237
-221.035762
-267.434953
-159.682243
-285.555745
-111.164714
-172.989576
-191.192389
-242.335383
-224.303401
-108.041193
-229.833305
-132.963708
-238.802159
-289.380318
-260.615182
-223.065876
-214.455149
-225.260244
-220.545168
-224.348008
-188.221797
-223.791408
-221.234860
-106.758412
-196.695201
-161.826572
-201.880373
-262.781732
-292.970489
-255.428119
-175.275077
27.856688
-217.925832
-192.424665
-185.482571
-233.998955
-196.281406
-195.923513
-173.172991
-85.388516
-278.406972
-146.446239
-262.292055
-194.087898
-208.181150
-253.631080
-254.130119
-282.767240
22.156593
-197.241282
-260.514562
-158.399653
-291.645041
-413.011823
-226.879892
-154.678119
-213.163609
-252.735357
-234.827376
-237.090259
-233.895708
-184.748843
-153.987049
-142.475598
-268.785834
-289.918377
-242.695341
-204.545166
-271.386551
-77.754582
-271.157710
-159.410979
-160.519592
-243.020797
-254.617136
-272.083669
-178.498800
-234.516263
-185.343762
-244.774248
-280.957913
-273.820726
-290.557144
-134.249573
-210.251229
-156.243963
-236.488884
-208.876452
-246.412885
-350.931292
-229.854801
-266.051526
-272.972357
-288.915804
-281.158532
-225.302669
-259.513240
-158.842930
-151.981716
-221.836716
-130.569570
-252.955140
-277.281738
-193.920519
-170.287875
-259.856752
-155.673059
-154.112665
-215.727936
-218.836148
-188.027093
-170.913099
-261.650330
-203.026150
-205.879429
-219.809637
-138.840216
-258.778363
-160.664403
-61.432841
-221.276377
-45.158267
-211.168281
-242.485270
-161.258922
-111.249101
-188.157674
-171.490543
-232.028304
-269.518198
-221.232876
-235.757788
-168.690157
-285.020642
-73.626600
-190.911280
-228.794235
-252.421958
-201.242986
-111.589313
-170.449701
-143.378229
-135.987773
-221.667517
-271.918713
-225.351284
-270.937505
-239.381848
-130.086055
-223.648056
-139.460298
-249.933389
-231.629486
-89.128217
-126.727568
-217.039386
-216.860019
-259.559775
-131.642433
-227.879890
-260.853974
-241.002616
-288.743284
-233.448001
-220.386901
-269.964083
-219.172850
-278.684711
-167.925806
-166.697022
-199.658790
-42.708943
-259.007390
-152.282855
-270.398998
-261.446503
-194.001776
-336.152904
-168.916812
-212.374063
-269.477884
-201.306494
-282.471140
-125.899214
-258.145797
-273.880202
-235.801928
-253.504362
-93.214100
-268.576180
-291.097757
-113.836146
-203.664487
-273.696750
-233.412821
-279.811433
-212.525400
-193.452218
-197.565693
-214.730437
-271.741807
-280.029383
-219.016985
-178.350731
-245.913358
-270.288204
-229.725565
-232.495107
-258.314952
-191.907435
-287.754348
-208.336507
-183.246580
-229.217656
-136.963527
-253.695684
-210.147190
-186.925289
-250.116031
-133.934403
-214.785158
-153.412360
-291.032915
-185.155290
-218.504545
-190.974279
-223.973841
-142.873295
-285.629755
-101.023765
-216.188921
-187.541372
-76.154852
-255.208217
-216.844005
-93.024049
-130.671394
-166.902974
-212.232285
-291.884842
-170.933413
-229.846201
-271.571739
-216.755288
-272.439750
-223.363621
-285.998068
-212.400583
-143.664287
-272.509551
-217.113024
-158.070891
-229.349029
-181.763789
-290.736817
-225.536242
-116.327591
-159.266638
-272.722100
-287.352375
-75.712412
-96.673686
-258.313150
-146.303720
-197.744416
-234.300760
-129.539225
-272.458268
-215.196923
-281.051327
-207.347551
-223.403878
-202.118384
-276.937208
-168.802430
-254.133985
-166.550509
-215.766307
-261.852528
-274.673832
-269.679883
-73.749541
-167.587161
-150.317427
-95.376697
-191.811379
-160.544371
-221.198904
-163.550815
-202.207123
-261.013697
-223.077577
-210.974261
-271.993098
-224.064145
-279.508012
-219.564922
-234.849900
-221.030898
-225.295952
-99.390061
-222.363206
-242.342077
-209.897518
-261.593210
-265.171146
-77.554173
-233.452097
-184.952918
-178.221614
-271.340429
-209.873027
-200.348867
-263.207471
-272.078453
-270.975348
-130.410047
-210.826380
-164.078328
-244.939586
-268.407592
-281.076845
-255.122160
-278.551642
-78.038812
-162.766235
-107.650112
-174.727431
-211.384006
-198.648620
-202.686410
-283.143316
-292.592632
-230.419083
-270.426460
-178.890371
-199.137030
-153.927245
-175.187184
-196.897672
-145.754845
-193.265850
-157.494501
-243.525853
-211.269541
-191.591373
-98.715341
-225.459944
-192.384690
-208.362340
-228.702388
-149.676229
-155.690037
-292.559088
-281.443979
-264.615044
-218.390839
-230.881930
-183.178908
-188.206091
-257.625751
-276.341668
-271.180697
-235.517647
-192.149488
-275.183347
-290.090260
-278.053491
-181.145049
-283.659822
-188.062288
-226.309130
-278.807197
-262.834241
-245.417739
-276.610637
-207.049105
-235.913235
-266.279689
-247.773266
-180.052120
-175.016741
-214.489568
-160.497747
-150.970113
-277.183944
-184.585029
-296.349258
-195.954349
-156.521291
-139.595344
-217.259721
-161.980047
-98.450869
-196.508285
-280.537705
-182.126933
-273.048610
-161.406841
-158.436924
-189.292157
-267.997968
-179.122527
-208.953310
-202.627168
-275.327106
-159.043067
-188.259861
-210.349400
-98.870946
-148.047404
-172.198417
-139.450472
-209.276020
-206.501510
-134.702827
-283.597320
-156.630335
-194.142494
-219.551403
-151.468290
-222.877274
-174.196309
-192.286811
-225.285940
-160.706880
-274.874742
-209.418170
-184.837086
-210.624497
-198.839562
-216.443506
-92.646306
-185.131937
-182.312850
-204.435542
-191.310527
-145.182690
-188.992675
-154.258039
-154.328878
-152.307669
-162.535677
-205.999687
-202.743783
-203.080219
-216.613539
-206.402026
-212.945716
-173.023600
-205.759654
-222.546371
-268.468397
-155.052231
-212.049631
-288.577875
-140.865509
-215.617202
-158.593100
-195.407186
-173.759540
-156.763149
-203.630193
-213.418935
-212.780706
-226.620562
-228.328501
-185.016790
-150.484533
-177.375039
-185.120760
-214.337004
-211.221266
-266.492652
-210.104152
-243.077681
-201.573468
-257.784285
-288.966854
-243.629722
-240.611911
-233.244187
-84.956104
-237.725183
-172.919996
-292.324678
-207.716596
-266.195172
-130.271870
-206.425655
-237.767588
-165.479161
-134.788460
-179.578421
-168.852716
-179.293190
-260.535467
-227.109889
-227.761340
-178.024513
-265.577352
-233.787022
-166.068915
-264.280974
-165.286216
-199.753198
-215.453135
-272.195436
-210.589564
-143.822339
-151.090034
-289.915330
-92.194203
-220.729337
-211.203341
-192.977480
-214.625557
-211.665862
-239.704178
-221.134845
-231.537028
-268.280226
-234.285981
-185.058033
-212.359567
-149.418694
-213.992300
-212.532938
-208.897822
-156.465659
-246.916152
-216.242668
-206.756365
-210.613897
-153.591387
-256.996561
-251.646363
-210.948602
-267.621040
-251.653870
-117.027184
-246.893921
-152.637072
-228.727325
-262.986603
-232.862694
-214.234184
-209.749383
-150.081719
-214.720119
-278.933974
-209.670376
-273.127382
-227.552049
-211.108507
-62.699508
-215.844721
-222.645540
-214.098647
-217.430188
-238.555995
-271.076821
-292.998082
-206.816316
-175.145538
-136.762839
-179.887387
-219.969007
-195.316602
-217.008011
-151.372318
-247.052207
-237.945515
-209.975185
-122.732239
-282.172620
-186.525866
-193.956366
-223.270245
-206.530061
-216.036296
-164.766107
-170.630942
-180.610843
-180.507413
-218.098372
-210.019235
-215.471667
-212.727766
-207.987423
-265.293487
-206.602360
-183.664300
-181.146646
-224.854293
-221.925825
-176.262148
-261.015855
-260.006069
-176.556263
-177.875744
-220.599032
-212.870137
-208.163363
-195.519409
-239.591461
-279.150618
-185.212677
-185.159732
-183.294515
-192.700890
-248.653511
-146.281741
-197.350675
-194.391824
-196.675792
-177.640425
-196.443913
-191.567681
-215.519895
-226.590529
-184.805175
-163.713935
-213.204956
-155.670494
-187.310218
-187.235254
-160.359011
-191.537575
-183.748091
-177.687288
-205.586162
-211.740766
-189.541155
-190.452901
-190.600224
-239.808248
-191.207092
-207.816310
-230.935207
-216.675151
-213.517911
-187.574993
-242.635735
-224.301096
-226.929428
-220.004788
-288.832659
-181.745102
-181.944179
-193.117749
-195.703391
-194.578096
-194.163762
-193.766654
-192.966182
-192.192777
-179.032034
-179.218727
-193.174382
-193.642638
-178.184586
-198.305383
-177.325763
-173.859254
-196.057221
-214.483486
-214.107258
-168.912993
-192.461285
-194.202682
-193.547599
-186.258391
-173.755338
-275.845145
-148.554156
-191.322144
-187.327004
-181.150002
-213.553643
-214.302090
-215.281843
-214.612922
-185.117835
-180.812521
-181.342155
-230.745106
-228.157018
-166.548746
-213.377701
-192.431027
-185.257627
-235.223261
-194.661979
-223.711821
-217.856828
-191.061963
-187.218959
-211.563881
-255.306116
-193.110534
-192.367783
-175.973145
-171.849971
-175.793123
-179.588221
-181.868449
-180.477622
-186.824472
-191.491705
-250.834772
-235.410229
-222.876245
-222.745163
-213.462349
-213.046126
-229.593145
-216.118571
-183.609110
-182.851618
-192.689456
-203.897249
-190.143554
-187.096151
-194.447653
-184.454897
-181.423639
-212.243619
-212.233541
-212.453948
-186.758488
-186.861717
-196.933471
-227.143940
-231.577513
-167.185505
-144.820243
-187.079878
-228.591633
-214.860164
-195.191953
-194.895752
-194.409665
-193.704422
-193.330921
-192.354327
-190.220111
-189.045333
-194.690220
-193.462706
-154.351175
-176.252579
-170.784590
-190.650612
-187.876594
-189.084557
-179.247257
-213.793122
-211.420099
-208.376430
-162.444673
-209.870509
-209.142878
-200.659687
-184.008266
-195.713233
-180.944119
-182.685039
-174.280236
-186.853135
-180.092869
-189.602573
-245.198748
-204.699793
-232.366531
-209.131063
-245.018149
-168.298715
-157.700718
-178.675224
-174.897253
-195.779464
-190.865757
-187.889467
-171.405769
-177.984277
-216.073715
-246.769967
-212.369536
-233.137685
-179.261200
-233.286184
-217.234111
-209.776509
-227.677670
-272.522826
-212.733616
-211.854852
-274.679936
-154.161072
-194.118468
-240.629312
-212.180635
-179.654433
-170.776935
-213.578264
-160.355665
-183.851616
-245.395705
-217.026760
-199.088729
-192.376089
-188.588926
-240.050142
-154.721650
-111.216773
-202.809357
-184.174946
-226.117314
-146.542964
-194.374735
-191.359628
-227.848656
-216.626392
-213.012143
-211.080034
-198.709590
-181.740776
-183.208071
-218.488013
-149.239208
-240.865003
-243.582636
-209.600589
-228.943647
-225.207820
-173.967207
-212.436627
-232.966542
-196.602489
-185.218004
-182.534827
-229.067278
-190.694532
-180.293085
-176.780915
-223.314070
-208.296393
-230.196638
-189.305334
-214.573334
-269.838964
-230.051166
-190.923521
-148.630304
-208.057042
-271.802261
-165.905358
-197.670386
-163.134362
-169.484704
-240.857015
-212.358624
-279.468783
-187.562356
-189.856993
-226.862298
-211.601207
-192.519222
-213.313136
-273.501503
-152.816152
-206.788343
-270.237983
-205.136326
-192.616566
-202.001796
-209.189742
-153.792404
-199.067408
-196.050265
-229.257827
-154.749427
-223.046632
-209.471277
-234.306282
-221.472224
-169.559584
-209.586576
-290.114898
-188.587193
-206.855625
-272.948909
-188.144020
-222.283227
-137.238630
-215.995299
-210.288411
-268.482926
-264.385640
-226.648095
-193.879549
-184.518398
-190.372621
-211.619751
-191.612220
-214.656650
-200.925420
-107.749758
-153.360833
-275.534950
-235.292467
-176.793177
-183.278111
-238.002097
-170.496948
-210.803948
-224.750940
-273.834826
-207.675355
-208.471821
-277.487420
-135.260479
-272.468262
-211.904780
-227.105805
-152.356837
-166.457029
-218.632264
-232.986563
-214.881789
-248.376153
-181.650897
-218.753572
-236.160430
-276.280539
-158.144685
-183.164110
-206.034573
-147.507363
-143.487281
-152.236258
-241.278694
-188.594302
-204.018802
-208.101653
-290.784737
-216.120931
-259.990759
-194.611409
-199.212102
-215.352962
-215.252262
-169.316314
-203.919857
-237.986756
-270.107447
-163.921903
-150.318087
-174.298267
-206.631758
-132.142890
-94.506709
-271.374985
-290.486800
-212.262588
-255.932117
-225.430095
-176.241797
-213.142559
-275.920368
-213.491002
-149.377564
-146.594275
-182.283870
-208.256681
-239.219004
-211.791818
-238.784990
-273.868416
-177.827850
-208.827799
-277.882927
-153.224590
-211.498401
-183.986488
-179.670382
-185.592965
-167.888192
-162.049365
-179.026376
-230.368613
-224.990493
-204.035483
-194.259082
-273.478213
-230.962516
-273.468828
-191.173690
-270.374671
-149.552651
-274.454873
-228.438492
-194.516021
-155.648081
-179.668244
-199.221567
-239.872948
-261.767834
-123.010499
-191.538773
-204.669471
-203.948819
-201.441151
-216.528202
-274.172231
-288.077637
-211.842336
-134.647868
-189.475604
-182.430515
-234.338207
-193.923037
-129.915153
-215.130682
-132.944865
-216.478460
-148.082413
-196.548067
-154.941323
-209.011473
-240.653545
-285.400488
-218.431766
-209.341183
-147.219122
-252.639209
-277.892596
-106.047546
-239.795153
-177.387150
-232.776197
-229.391303
-192.616481
-210.842807
-270.107610
-209.960814
-222.939613
-266.602072
-216.719671
-210.109426
-167.241873
-161.644534
-272.072652
-291.307178
-218.764531
-243.230637
-209.645299
-222.365267
-172.272622
-215.590414
-268.834512
-257.826912
-229.539206
-270.775965
-219.297634
-178.909682
-153.529281
-191.454965
-251.832717
-262.209698
-243.275081
-240.663207
-207.144944
-133.132916
-261.390203
-157.053570
-184.098039
-211.350686
-202.486021
-212.686426
-218.653446
-208.965736
-212.015008
-128.340090
-201.300875
-208.342133
-207.586458
-265.457040
-212.810817
-272.531222
-87.664599
-235.292966
-287.703411
-213.407267
-91.468342
-265.521971
-222.729968
-284.577907
-172.410020
-115.177017
-184.415538
-209.787656
-219.233724
-163.068704
-239.343896
-277.666857
-115.365329
-173.735802
-187.050976
-225.574004
-203.146267
-161.364514
-276.979971
-181.823647
-188.407661
-197.718695
-286.777214
-189.687943
-220.268134
-224.619606
-236.777899
-220.993659
-212.769486
-209.422468
-203.264403
-200.009143
-195.967418
-224.381719
-172.892839
-223.254832
-84.302925
-199.273491
-196.934737
-188.197756
-275.482563
-43.645690
-228.580598
-234.921387
-169.830681
-264.916685
-212.134376
-236.919555
-189.790530
-271.851817
-214.017777
-281.055568
-210.888325
-272.301652
-276.840758
-177.351378
-180.154498
-181.367856
-115.591697
-185.443837
-273.791220
-199.899454
-143.980235
-162.090770
-190.083696
-148.981482
-106.169512
-188.514450
-290.213164
-158.017618
-218.292299
-264.908761
-228.933022
-180.517264
-288.253184
-224.976423
-270.024807
-204.280908
-225.125829
-208.918907
-160.028627
-233.179821
-187.924420
-231.228578
-198.217867
-99.343601
-258.386895
-218.455117
-270.451961
-220.615769
-256.357361
-211.436038
-229.648011
-163.189220
-269.331672
-289.967842
-161.877463
-157.965035
-115.141561
-218.551649
-220.485940
-211.332764
-222.699858
-214.463410
-243.376680
-261.049051
-125.527850
-84.895625
-268.301983
-159.098688
-124.388500
-178.819894
-256.621775
-219.254093
-292.201506
-179.272799
-258.978580
-158.551113
-244.009801
-272.706074
-275.621362
-248.101796
-286.994890
-254.121505
-170.134721
-230.995287
-210.318836
-145.777066
-132.604844
-235.966754
-241.346491
-274.248874
-196.248791
-228.302493
-109.888657
-212.280566
-156.305600
-259.748098
-173.728807
-226.310212
-236.093498
-134.937428
-232.341731
-251.633025
-263.606207
-209.412785
-111.958917
-269.067628
-205.380892
-202.832655
-157.339040
-277.764819
-199.892588
-213.183370
-76.110684
-118.800094
-191.624758
-170.374416
-185.209998
-186.277282
-200.330837
-178.064387
-209.272513
-210.520948
-208.017217
-136.155935
-208.277085
-210.821943
-218.576061
-147.339384
-208.586156
-254.560046
-263.569702
-209.981260
-271.975064
-243.339335
-261.191284
-222.257342
-285.969209
-283.305063
-272.334630
-182.117785
-269.458076
-289.911253
-56.541416
-206.403091
-169.061553
-269.324776
-178.537544
-263.221321
-287.527875
-285.999770
-186.704011
-289.340251
-225.056432
-235.465536
-242.419094
-215.195112
-175.682200
-262.112351
-212.454552
-209.165819
-279.507629
-159.952417
-259.453896
-182.937212
-260.314743
-267.766322
-264.019157
-135.001938
-168.913117
-191.683956
-280.730213
-196.213899
-201.596621
-212.348602
-141.709042
-231.236966
-220.481082
-147.904422
-290.297409
-229.002703
-210.221279
-238.485602
-163.324727
-254.903428
-166.896586
-154.606182
-214.713723
-206.482841
-279.397537
-207.322394
-146.705541
-240.278477
-122.916212
-211.419255
-257.239108
-163.444699
-194.446721
-193.567593
-227.922478
-119.907878
-259.940821
-284.053841
-192.363763
-208.852860
-197.555367
-197.671690
-316.546825
-204.115472
-196.847621
-217.771997
-140.775678
-202.880102
-193.872349
-194.136171
-195.196758
-310.096914
-196.931478
-206.242912
-262.128524
-191.544101
-231.360141
-223.034555
-178.441834
-183.028653
-276.059555
-222.101119
-263.250129
-271.921971
-194.525967
-207.381738
-223.214190
-217.477671
-202.274443
-96.157842
-205.914554
-244.242880
-224.039347
-132.690017
-231.615161
-286.999765
-185.432531
-271.425966
-255.473247
-282.523501
-159.661960
-190.594334
-216.310062
-144.626589
-266.247008
-162.909318
-251.927593
-208.109632
-226.471377
-302.567405
-251.964684
-199.926380
-236.440483
-236.371628
-194.457253
-274.542946
-270.925504
-240.858080
-191.897301
-111.512409
-212.086603
-218.073721
-253.234926
-280.268273
-223.424561
-214.884955
-320.233691
-169.456575
-156.340487
-214.626187
-128.568440
-192.424313
-225.964624
-127.632606
-263.946579
-256.969973
-179.861142
-261.542282
-160.163590
-225.177340
-214.751131
-198.518109
-269.522728
-204.477138
-228.745705
-290.685345
-268.551163
-227.769434
-266.683207
-123.444774
-269.568109
-58.243843
-267.772291
-266.573412
-102.284849
-123.248171
-206.130252
-235.405099
-276.681552
-252.030177
-277.770943
-267.635733
-188.970498
-235.271271
-178.093007
-124.966537
-209.360530
-282.215098
-275.070618
-100.378609
-222.005240
-217.632222
-229.732894
-228.838106
-248.337798
-209.170747
-117.516953
-219.168795
-287.383767
-255.688723
-288.086321
-239.998333
-313.090021
-112.237305
-258.212569
-264.111370
-68.950597
-231.155400
-125.054845
-153.089886
-229.263932
-247.347805
-60.346764
-288.650419
-111.186754
-187.637383
-219.314090
-134.925198
-143.046999
-241.255275
-241.383520
-219.822029
-176.905631
-206.541069
-256.412229
-81.252855
-204.772628
-124.202272
-276.678357
-270.570463
-200.950422
-262.440229
-290.964505
-290.166201
-238.847499
-284.013396
-217.693569
-267.852154
-185.944714
-177.446737
-193.645354
-232.796970
-171.821316
-282.267726
-191.125356
-190.743313
-257.072742
-238.864593
-168.619083
-271.431231
-287.100163
-155.369865
-176.054975
-216.006867
-248.335360
-89.045718
-107.516377
-212.245008
-259.416234
-211.398346
-272.171760
-93.388758
-33.597800
-299.745290
-216.829047
-212.525629
-201.572717
-161.859154
-156.316832
-257.348226
-198.427383
-209.973339
-192.703432
-267.215332
-222.318535
-250.623247
-205.428473
-278.180891
-280.913295
-292.585193
-179.722522
-289.942929
-291.797014
-270.658982
-238.107187
-290.606026
-269.090985
-158.164886
-207.007797
-214.073597
-412.911003
-186.415594
-261.708377
-214.267891
-257.512748
-165.012733
-284.567367
-185.273221
-154.718266
-48.007883
-234.417223
-339.519213
-169.173616
-172.910611
-156.792249
-287.515202
-118.852040
-221.391946
-282.659073
-152.542024
-161.844027
-279.324433
-253.922782
-286.660207
-266.670390
-207.841150
-149.397870
-147.503921
-247.569177
-186.846725
-199.239985
-175.384050
-205.627697
41.695035
-273.691056
-213.602505
-261.065101
-155.655203
-199.557654
-230.624134
-266.464525
-280.140880
-252.748710
-210.089383
-228.979936
-363.538527
-335.692240
-285.579246
-208.839152
-280.174672
-224.512535
-272.043750
-168.007741
-156.378509
-231.811086
-240.188372
-290.775212
-257.372017
-212.267976
-158.521216
-291.715082
-164.713084
-214.063439
-237.451717
-157.862863
-173.576360
-292.413013
-264.329665
-141.708691
-291.037349
-118.463257
-268.119471
-256.327644
-200.139147
-82.927507
-236.646248
-131.001046
-208.027770
-146.743413
-197.677031
-223.693872
-216.292375
-249.777841
-214.026357
-140.245110
-156.989236
-214.952183
-217.561901
-262.668856
-98.426398
-181.034541
-276.101532
-180.716541
-203.480699
-190.195650
-260.303842
-208.087004
-264.556403
-216.556165
-272.206550
-270.713397
-260.232913
-202.010898
-96.617436
-210.357663
-241.454279
-290.848001
-285.279290
-234.950763
-124.636028
-204.971009
-216.133371
-208.649068
-156.760434
-188.487583
-134.732943
-182.782862
-320.021901
-80.043787
-115.865003
-142.838271
-212.953280
-286.780815
-283.099531
-187.450147
-141.524446
-292.074872
-134.092966
-191.883124
-275.981293
-90.141285
-161.410673
-86.058337
-165.961227
-291.794308
-201.162541
-158.770490
-199.736493
-153.144908
-96.460498
-212.762091
-169.426019
-46.486281
-168.437766
-91.895851
-222.226110
-226.661263
-283.744044
-288.234778
-202.202777
-165.400566
-257.047843
-194.925244
-289.494327
-160.254047
-280.484264
-205.951178
-163.149224
-285.478859
-224.417447
-176.979627
-215.050849
-274.113040
-215.794205
-286.774479
-267.107883
-261.218570
-214.147841
-192.709055
-245.062751
-116.507090
-282.198934
-101.166955
-146.497799
-161.719086
-224.568839
-223.890040
-202.119496
-145.833759
-168.542897
-152.817955
-263.404178
-275.951299
-182.573495
-163.366425
-167.792058
-191.189264
-219.334336
-285.853275
-227.032235
-226.399660
-273.632367
-127.175379
-206.767869
-281.930630
-180.843227
-151.420712
-286.792268
-200.042357
-288.431271
-123.026243
-219.857389
-274.721665
-287.345227
-230.064823
-253.140508
-219.143492
-163.587188
-284.175334
-225.154723
-268.607052
-256.008519
-218.721490
-292.337987
-166.583360
-269.943121
-291.451896
-86.416329
-284.213619
-253.242499
-269.576274
-190.261331
-165.133004
-212.693598
-259.530853
-122.155838
-218.021074
-208.111849
-281.977618
-272.256207
-292.733510
-220.514941
-206.884211
-142.969749
-138.862621
-275.402686
-139.144523
-181.846598
-268.917451
-236.722341
-62.483738
-196.810496
-224.775504
-148.061103
-256.441724
-237.995912
-192.518173
-210.287238
-245.246811
-220.761741
-211.675371
-289.544652
-207.754677
-286.163908
-116.352288
-123.856732
-185.621874
-239.987412
-288.546924
-291.464900
-191.459337
-145.992033
-204.284137
-262.269466
-281.564477
-292.177209
-286.403099
-155.491774
-222.296760
-213.234229
-276.583706
-217.167044
-240.221280
-131.333086
-163.748147
-274.879195
-218.103523
-237.075079
-154.472464
-184.269356
-211.652505
-231.098010
-207.927087
-238.254107
-211.346998
-215.586951
-184.226178
-218.924857
-288.429041
-262.026193
-290.515926
-220.396681
-153.745819
-222.162307
-218.066225
-210.609829
-284.762143
-220.091894
-186.019920
-47.679630
-260.628280
-184.043329
-275.866885
-226.001880
-74.616754
-107.925505
-216.089219
-178.034665
-213.997905
-259.929049
-210.383250
-265.837928
-162.637040
-181.671832
-168.364462
-141.708019
-259.630879
-147.825823
-146.550633
-192.354729
-162.166341
-184.309421
-197.816123
-148.134331
-231.938378
-223.008326
-238.615834
-214.145412
-193.093362
-162.880282
-284.460340
-249.737919
-156.600041
-218.880695
-292.399524
-270.670748
-76.873659
-262.435879
-292.290063
-218.171911
-231.447071
-125.347179
-107.532671
-46.975537
-218.035706
-217.585083
-232.627438
-235.350857
-259.247722
-214.382647
-237.102865
-58.752336
-196.249399
-257.610039
-215.899825
-229.659981
-214.061008
-118.823038
-146.995575
-283.576321
-170.703086
-141.911416
-125.316877
-154.812643
-169.989495
-94.406982
-35.556070
-220.389940
-250.167047
-222.037017
-242.649098
-215.987500
-289.341272
-291.395352
-151.308207
-206.121188
-91.356078
-170.533065
-292.306728
-271.084400
-222.708888
-240.565011
-271.432845
-288.480049
-265.636038
-71.611673
-277.241722
-240.992501
-212.766664
-170.587238
-147.450954
-267.295572
-191.963578
-256.294969
-285.142351
-117.526981
-119.779017
-177.527267
-289.447307
-221.818707
-284.942876
-95.772306
-157.562301
-177.827082
-289.367899
-171.081226
-251.995637
-197.525184
-233.811572
-178.125684
-146.954695
-197.295578
-149.470477
-134.001262
-197.079472
-253.212558
-198.303230
-193.410543
-218.171834
-197.394323
-239.139584
-197.087061
-147.111960
-254.576492
-192.309454
-168.162593
-155.334846
-301.127205
-205.565383
-267.027565
-103.737056
-285.427402
-158.263713
-211.540175
-287.797856
-184.129141
-254.463542
-57.735760
-200.475079
-274.159470
-134.415901
-220.705232
-246.350080
-276.505646
-184.233225
-58.478586
-245.833888
-85.494096
-134.479067
-215.848571
-213.413958
-312.809337
-270.972414
-118.352321
-226.558221
-217.734018
-289.551520
-290.517963
-290.455001
-264.023232
-126.489319
-286.600724
-289.250851
-290.802922
-177.229640
-204.159693
-181.111019
-216.909102
-115.394127
-273.594041
-257.541444
-94.260610
-138.638058
-142.714775
-196.580919
-187.081084
-143.283878
-174.916977
-182.833117
-40.108275
-331.257654
-48.934864
-138.387016
-257.748292
-166.052804
-103.472652
-119.170203
-291.457619
-159.919648
-129.920937
-131.589277
-214.072410
-41.646149
-177.023571
-187.584474
-175.699427
-62.778159
-162.237830
-151.982967
-99.627919
-271.945501
-264.392801
-216.220080
-132.713691
-218.095161
-138.538942
-275.313154
-182.761118
-162.821308
-109.937473
-225.321366
-40.511421
-179.319586
-234.146436
-292.775433
-214.949613
-105.108614
-141.262149
-277.281261
-75.431533
-291.337537
-174.903395
-212.140552
-176.547855
-238.335897
-217.701637
-196.046011
-167.118286
-164.987865
-94.798275
-282.280467
-212.580807
-265.809908
-194.564823
-124.671992
-263.187087
-262.532166
-88.571444
-224.964793
-211.888106
-208.253045
-110.126148
-154.876861
-103.954661
-220.186714
-237.898486
-316.220573
-93.648984
-266.861863
-219.488228
-286.574469
-260.484777
-287.533498
-257.742317
-24.621232
-291.878171
-211.519728
-253.468618
-150.100270
-220.741464
-257.965841
-227.061425
-284.305616
-229.768169
-209.642122
-155.946950
-193.671446
-163.456341
-287.431466
-150.168451
-217.918278
-173.296439
-226.154447
-159.135564
-193.154071
-209.648123
-290.342787
-152.409098
-199.468221
-220.462814
-156.519677
-235.334932
-143.157560
-211.785203
-216.762371
-191.150777
-172.222440
-158.988297
-144.172825
-205.874723
-108.216677
-290.971604
-195.398854
-217.280195
-249.835525
-208.764859
-163.181013
-197.407970
-283.477929
-289.830140
-232.705522
-99.801252
-98.271419
-96.908490
-187.496465
-252.154342
-262.642378
-127.912901
-130.862368
-185.021592
-145.757186
-187.082901
-241.137696
-221.655126
-153.326991
-290.598650
-231.797269
-160.254960
-128.722331
-177.014017
-248.331874
-221.909786
-230.461162
-135.770818
-131.662425
-142.905450
-283.210122
-166.289421
-162.808872
-267.077305
-139.535413
-285.726330
-238.140438
-110.836147
-252.618409
-254.010143
-178.570377
-270.323030
-214.683670
-110.206414
-201.381473
-134.651313
-223.640728
-186.583508
-215.563640
-439.910332
-217.954644
-229.612320
-219.881610
-115.573278
-286.287950
-275.184297
-111.358992
-232.184550
-269.915897
-177.304742
-267.587619
-278.598849
-205.720853
-147.058103
-287.837319
-110.551278
-124.260922
-292.538119
-285.808096
-193.886493
-269.112797
-344.149328
-265.233572
-212.839454
-244.186883
-288.108154
-231.939385
-247.638857
-145.260476
-171.269944
-130.077610
-261.246566
-263.145689
-228.700258
-192.091347
-125.192839
-176.971248
-225.332792
-141.114096
-118.824082
-153.490079
-255.920755
-150.585794
-262.124951
-209.183626
-276.347780
-94.117425
-288.181034
-276.590655
-212.416807
-97.353986
-284.072668
-275.489704
-228.118549
-453.275314
-253.426744
-288.900998
-223.615032
-140.027274
-269.241619
-157.664791
-174.315231
-188.093593
-203.710047
-157.809169
-219.343502
-292.250558
-90.274079
-187.859192
-198.945919
-264.424433
-281.458301
-268.898345
-155.720215
-190.068339
-292.721362
-257.043001
-287.857283
-269.885674
-187.421126
-262.724834
-233.967874
-101.056664
-226.167779
-252.671335
-203.101831
-119.662341
-194.806037
-135.653664
-248.948055
-238.196227
-388.018992
-275.377360
-120.413354
-285.863509
-272.573920
-163.484421
-284.204457
-275.588610
-251.502888
-185.030874
-276.074332
-269.094793
-217.559136
-273.029521
-217.670077
-207.846725
-178.522937
-220.458486
-280.560731
-211.820189
-102.024420
-270.611641
-274.094893
-215.175271
-291.709147
-330.864450
-282.449319
-200.321291
-101.262436
-102.706239
-174.720753
-276.742784
-315.194906
-129.205840
-218.957019
-57.627437
-131.378761
-290.407564
-164.309569
-183.118906
-245.732569
-190.437523
-278.483603
-205.572610
-242.293037
-78.395741
-190.023582
-266.585364
-217.718036
-270.301160
-224.999582
-285.622676
-289.533003
-287.304154
-256.522914
-181.990374
-270.836495
-146.650441
-158.327595
-185.283687
-265.962155
-282.252198
-218.794299
-217.540549
-228.051170
-179.860858
-230.591353
-215.765885
-185.392925
-224.860708
-166.141331
-157.749128
-192.299498
-130.180621
-63.074715
-189.543834
-188.738994
-133.310969
-223.187080
-254.286935
-220.706394
-204.802712
-202.772740
-238.174159
-94.588045
-290.961793
-214.543226
-253.590330
-133.963100
-179.448201
-219.629945
-95.668498
-172.185616
-155.654010
-188.358028
-93.804301
-284.795418
-138.289180
-199.076495
-233.344092
-143.448174
-281.209799
-217.046272
-278.414112
-356.213812
-219.516319
-87.035346
-169.074442
-319.145683
-135.611946
-204.291388
-104.151550
-174.744096
-124.077984
-265.800050
-180.574106
-173.207978
-273.688055
-260.415584
-285.480185
-202.330085
-218.389113
-218.209262
-288.388964
-99.018964
-210.007436
-121.188700
-64.321977
-284.507916
-259.483398
-282.173571
-113.916473
-251.808727
-218.761958
-150.956097
-172.610204
-225.551393
-249.071638
-262.610410
-103.003480
-233.676857
-104.270641
-290.350733
-267.749295
-291.761387
-184.336021
-265.501235
-277.168458
-209.996965
-261.832003
-200.193367
-283.963992
-258.666176
-115.958735
-252.469994
-284.510612
-254.111029
-259.992767
-201.391465
-251.415627
-221.523305
-193.647644
-204.022466
-202.500791
-179.734399
-231.166658
-260.447061
-95.363538
-277.578770
-275.215917
-275.123911
-153.083957
-83.314675
-245.552612
-306.477953
-158.583637
-287.515790
-267.788593
-202.264577
-260.378453
-258.627370
-287.378847
-291.235694
-259.979320
-227.527054
-282.791511
-92.392319
-226.297646
-315.877904
-116.187233
-49.051549
-292.694624
-248.521006
-277.156134
-201.927023
-426.186599
-186.972240
-280.575597
-94.164644
-155.381846
-272.973301
-235.628991
-214.690595
-260.297109
-403.688588
-219.737201
-281.512783
-126.059733
-214.910094
-250.589814
-233.165946
-54.221696
-315.719068
-286.968855
-191.915837
-235.188931
-290.507636
-360.563679
-80.951792
-287.779618
-206.683632
-233.849653
-284.919331
-205.314607
-142.475880
-205.735356
-288.106948
-236.254892
-171.224501
-111.386165
-291.271150
-232.903876
-237.098595
-230.180669
-199.095522
-236.310992
-170.428504
-196.604836
-286.587951
-289.588172
-287.788313
-218.809875
-236.968433
-195.426647
-103.445901
-249.641696
-273.883057
-221.577023
-204.709808
-202.415592
-285.366178
-112.941940
-142.638152
-216.485708
-159.376719
-275.177789
-261.729267
-141.410064
-259.771605
-211.721142
-206.730681
-287.908993
-209.618166
-126.286350
-354.370909
-277.822957
-143.311330
-300.752053
-227.170807
-197.139950
-109.332592
-155.944948
-155.083328
-142.271936
-263.005963
-141.990342
-136.859189
-142.297919
-258.574560
-93.209116
-247.003987
-119.173890
-248.946421
-142.828336
-279.495400
-232.740829
-205.014938
-256.999302
-318.537064
-201.950199
-281.466613
-100.929849
-192.258664
-210.937358
-275.116733
-316.802309
-279.917991
-76.600220
-261.813767
-284.300925
-197.806757
-213.577479
-287.401863
-155.260150
-282.500771
-81.136972
-233.620335
-189.428128
-158.493639
-195.159936
-189.420640
-214.707446
-129.740900
-200.009521
-206.647632
-143.434225
-148.541475
-223.112750
-232.031489
-264.865671
-267.728198
-241.574860
-273.995475
-151.640545
-340.850551
-253.104646
-238.724572
-228.116983
-261.617210
-85.897552
-226.239906
-202.720087
-210.147351
-222.549638
-240.006254
-255.302501
-228.316999
-286.290344
-220.641627
-196.689641
-223.098029
-279.909208
-292.060108
-171.058551
-285.557120
-210.292529
-78.645519
-283.109832
-122.229389
-162.574779
-253.933234
-209.735288
-184.313513
-159.158856
-286.447922
-226.487339
-60.105111
-99.309440
-259.673915
-106.182019
-250.508035
-157.262800
-260.370746
-91.839618
-248.128455
-282.523074
-270.976521
-167.660403
-195.931868
-221.722151
-248.915670
-155.827696
-221.371091
-257.708288
-127.196607
-223.630716
-194.224991
-236.100192
-258.609893
-249.275134
-259.991507
-169.509910
-223.688961
-285.615004
-257.873951
-128.600508
-285.066734
-225.393037
-204.368282
-179.224253
-288.325490
-265.677391
-117.519068
-195.489543
-285.785302
-279.425445
-285.924139
-212.361940
-133.576990
-182.073881
-286.644392
-169.668781
-258.373458
-239.949499
-282.332488
-162.894667
-344.706242
-264.470687
-234.959055
-284.791351
-212.476115
-286.056046
-278.586482
-80.534015
-217.137686
-196.126546
-274.858909
-85.792520
-155.286156
-90.810519
-179.766786
-238.307460
-282.393328
-166.258895
-287.196740
-193.929804
-206.751915
-155.438340
-170.122215
-363.429463
-284.050053
-120.597525
-409.456890
-287.350171
-144.263937
-242.192277
-207.381112
-213.279651
-119.807550
-288.211889
-65.276628
-169.767421
-263.835001
-123.862811
-275.653836
-167.605474
-209.897575
-240.902524
-122.747947
-102.252701
-218.000225
-273.059930
-251.644476
-207.712682
-204.410333
-32.637233
-82.186318
-152.981636
-154.634612
-216.445137
-279.960787
-149.950059
-288.699247
-165.568481
-54.810832
-214.150845
-290.612766
-198.829096
-253.190819
-169.204722
-107.106730
-383.735368
-264.270437
-243.060078
-265.662262
-259.904987
-214.376383
-193.546384
-163.716283
-216.062346
-229.549707
-111.117432
-287.876979
-132.058975
-170.568370
-272.220742
-344.197962
-159.715638
-95.971085
-196.699986
-266.659471
-169.485395
-129.056662
-282.607836
-235.671241
-172.273489
-201.000186
-267.994055
-207.088793
-242.644418
-222.950886
-224.414528
-205.600862
-281.994072
-128.627041
-202.914812
-256.745220
-278.155805
-273.320079
-258.320626
-247.950886
-260.917581
-165.662515
-243.326477
-157.799452
-278.208373
-354.380719
-267.285671
-290.801391
-250.803834
-279.376813
-218.243720
-198.866994
-197.830481
-195.461243
-280.116763
-195.398509
-198.195132
-263.857795
-135.356540
-153.430245
-292.996359
-188.923536
-290.803694
-201.813352
-254.152083
-124.150196
-256.664945
-247.079711
-215.005166
-249.636131
-283.661432
-190.747302
-221.170161
-141.610759
-107.765287
-200.574919
-247.109205
-184.298907
-192.651572
-258.100979
-237.695854
-211.533836
-220.327997
-227.108472
-198.917297
-173.777401
-360.602131
-261.503204
-87.899996
-32.957745
-257.170739
-144.034229
-278.605239
-279.481841
-237.464565
-221.107115
-226.915135
-224.889703
-170.914338
-152.731046
-207.875560
-190.275707
-268.332486
-213.272914
-260.521721
-272.470096
-206.537123
-197.264493
-67.527558
-193.516090
-201.974324
-224.144642
-288.584019
-110.423572
-267.370795
-131.636064
-272.177665
-290.891301
-199.652922
-128.443282
-256.939777
-285.225668
-92.738737
-187.577613
-215.095805
-158.976800
-439.768384
-201.712401
-34.537276
-138.036402
-164.494141
-163.298863
-136.966720
-197.226214
-277.174884
-166.150483
-237.059816
-193.855194
-229.447016
-140.326183
-136.443838
-286.523932
-166.598134
-223.195387
-199.585799
-250.934671
-284.396397
-79.922020
-254.777138
-120.161950
-246.117871
-261.708160
-214.242190
-274.004253
-246.995366
-196.693690
-193.443597
-157.381815
-190.391616
-172.820096
-215.028737
-166.897615
-85.023891
-179.751397
-282.844512
-42.997707
-285.063005
-244.238618
-235.160998
-289.921420
-137.375158
-190.945749
-199.430511
-196.582636
-126.776651
-232.152251
-217.337657
-290.967135
-192.064082
-240.420958
-271.984157
-249.912094
-75.841503
-175.491908
-288.564657
-232.526055
-83.373325
-221.288888
-161.992739
-90.609681
-275.882489
-242.452511
-275.140888
-290.265543
-43.244906
-289.601222
-193.438344
-202.103430
-255.843714
-144.856604
-168.997333
-206.325329
-152.812640
-245.905601
-209.728490
-217.472358
-224.092137
-193.377874
-31.524317
-162.769295
-211.688560
-220.728102
-147.887449
-229.140101
-237.913524
-212.363576
-163.245827
-183.912317
-205.187040
-169.502919
-210.227560
-188.672477
-206.747821
-146.449345
-161.997493
-217.991454
-213.158891
-173.712224
-278.162584
-264.290901
-107.716277
-291.490124
-190.907233
-181.361300
-122.391325
-225.008748
-104.236565
-212.410332
-146.789258
-202.456229
-126.372791
-277.645677
-154.065621
-135.650694
-227.166222
-265.401248
-97.352610
-195.102824
-282.990248
-264.270506
-327.025983
-216.763370
-168.480915
-128.114442
-167.489024
-260.480098
-227.447690
-262.897088
-77.394842
-220.701297
-199.210346
-152.010949
-280.543381
-242.328706
-262.668341
-271.474198
-187.784846
-195.583478
-274.375790
-107.357859
-285.614108
-289.292478
-269.917156
-182.667273
-233.665589
-119.486886
-245.872261
-273.581584
-133.208901
-254.119121
-192.381915
-158.182325
-335.491882
-282.039914
-38.157270
-253.525966
-231.907263
-215.229114
-301.843290
-197.363053
-146.867746
-270.678217
-266.318238
-275.052101
-229.721149
-149.412888
-265.764468
-195.497356
-170.181040
-286.943271
-259.532485
-183.571860
-179.805689
-126.673031
-281.743806
-276.314390
-287.038202
-146.540796
-209.809500
-150.125591
-230.515184
-112.388804
-91.011620
-108.838186
-261.371063
-220.205527
-264.828520
-295.763111
-280.247921
-188.451013
-207.610465
-219.513953
-214.891106
-247.076192
-250.142225
-126.604487
-116.430520
-222.721841
-241.021697
-249.493389
-217.187727
-288.024600
-111.137658
-246.458808
-216.979745
-136.093083
-221.044241
-167.622096
-140.092677
-277.365238
-245.161208
-271.871706
-93.891249
-227.364479
-159.509251
-203.215551
-274.865867
-280.702439
-284.139010
7.829978
-285.863690
-264.813311
-277.185621
-202.537401
-409.556323
-291.200746
-278.235177
-220.059278
-180.025206
-225.719705
-185.658858
-211.109016
-151.697032
-285.884606
-294.824838
-175.590917
-288.908714
-242.462218
-261.919455
-287.863330
-86.844324
-156.118065
-285.896337
-105.811733
-185.481803
-290.721216
-290.618868
-263.598088
-272.311635
-177.110073
-78.605907
-136.407895
-262.721263
-202.196286
-290.853196
-250.892758
-284.871619
-276.421916
-264.918926
-158.460412
-290.445265
-281.911195
-194.549678
-216.333038
-216.641719
-289.604044
-217.714983
-393.373294
-291.185820
-155.010615
-107.797437
-235.326921
-234.905244
-257.082135
-233.795164
-215.756244
-283.091273
-126.311222
-279.778812
-218.949524
-46.670414
-260.908009
-275.565520
-282.973651
-174.789409
-295.978065
-288.495915
-265.815266
-165.538579
-108.261042
-182.113058
-123.877085
-149.801191
-175.230979
-209.355140
-179.218868
-279.827213
-213.131741
-276.812323
-236.002416
-150.298916
-232.138224
-247.277717
-194.503534
-235.692516
-192.653909
-235.991411
-142.366705
-262.856732
-260.863234
-158.940735
-275.971744
-31.142932
-192.000728
-245.977927
-215.588074
-182.696448
-283.882273
-267.359098
-93.135895
-287.510673
-107.914614
-192.309691
-289.797754
-214.422134
-253.730948
-246.556718
-269.090320
-136.065971
-265.958413
-241.967129
-221.174005
-261.960314
-175.701851
-363.193840
-154.041359
13.636301
-261.311837
-221.381540
-135.845680
-199.960800
-201.121906
-281.957468
-254.479471
-184.503355
-218.605612
-171.143808
-200.156852
-270.611249
-78.628225
-128.814785
-141.645019
-81.073966
-217.517526
-231.692831
-166.322782
-248.612132
-216.116954
-269.675177
-161.976349
-206.092737
-145.412985
-197.629369
-283.217289
-116.011916
-224.600269
-292.190778
-237.713033
-276.724284
-277.561858
-269.911572
-291.471067
-160.905930
-222.427586
-133.774587
-259.263671
-276.836285
-157.879343
-137.427300
-280.016072
-100.862723
-155.626305
-278.047033
-287.863011
-290.062500
-144.513956
-291.675091
-241.809096
-229.268120
-148.459067
-271.785186
-341.128313
-167.031581
-252.330279
-77.928242
-289.878816
-296.382990
-221.016307
-263.906306
-163.099868
-160.075011
-146.334642
-120.327141
-209.961277
-156.363210
-168.738788
-214.170980
-339.071216
-286.168882
-207.167416
-236.662076
-106.459820
-285.454180
-273.100429
-206.186722
-261.947900
-149.231686
-221.790530
-202.533997
-235.914312
-185.050246
-117.127661
-210.371213
-292.694406
-237.685632
-192.556036
-282.404695
-220.822299
-201.613434
-231.106289
-114.990025
-282.664770
-244.342113
-176.919722
-81.149869
-277.057481
-237.292015
-183.517931
-285.602504
-158.686585
-190.053214
-143.668629
-284.449157
-147.949588
-162.968772
-115.764374
-339.905115
-287.201462
-150.154999
-269.098400
-154.657190
-268.772554
-171.574361
-263.154896
-264.648645
-163.386768
-224.955744
-107.389431
-188.095078
-274.161382
-159.291948
-203.570068
-203.072324
-217.494323
-259.509346
-153.962177
-114.615059
-220.799079
-250.729171
-245.155292
-182.545808
-249.351085
-204.970327
-274.556583
-278.804722
-179.877394
-139.947425
-219.992778
-196.834175
-169.636756
-218.610886
-235.498261
-226.789547
-276.313762
-179.503940
-255.007636
-156.703026
-192.528078
-203.035432
-191.276797
-211.262664
-253.987135
-203.825494
-279.000618
-229.680270
-265.989387
-292.293789
-283.023605
-285.210046
-283.523619
-198.227069
-163.879701
-264.843872
-138.024826
-84.638457
-139.690460
-180.507484
-252.135025
-131.572417
-110.857729
-279.155831
-285.660960
-115.821326
-109.267446
-145.764746
-144.765079
-135.801274
-27.481272
-103.830032
-215.538166
-244.149231
-182.415901
-252.816268
-233.950746
-282.072403
-255.590251
-211.323878
-288.910250
-213.543740
-208.957136
-175.682245
-198.782323
-215.585893
-103.006551
-232.043788
-207.031814
-153.926630
-207.480041
-291.098653
-240.957160
-234.590927
-291.880899
-285.945643
-269.166316
-205.644411
-191.987180
-286.404728
-141.972622
-138.219065
-274.389038
-219.870288
-153.497466
-292.052151
-245.988309
-340.253587
-159.386915
-84.721328
-172.206845
-133.426826
-180.598745
-226.998523
-135.187831
-283.971163
-286.826321
-267.814157
-179.587433
-205.420806
-217.764647
-115.166886
-207.869495
-287.761530
-235.583345
-251.512967
-291.987380
-180.203478
-96.360217
-277.991919
-234.378518
-126.850327
-250.710910
-205.126375
-148.128808
-219.799712
-286.463369
-262.962744
-154.482709
-98.770356
-176.039115
-186.864577
-137.414245
-288.888331
-278.765583
-285.063316
-248.595894
-209.897691
-290.971584
-211.036757
-173.061775
-171.065245
-213.922227
-179.052244
-166.914104
-188.968532
-202.445147
-194.620473
-200.124504
-195.204405
-198.229249
-289.255727
-173.911724
-210.700551
-290.219450
-200.853902
-201.168588
-200.784086
-279.761908
-285.223041
-103.145069
-153.830901
-285.982771
-166.183339
-132.356281
-267.695844
-175.524139
-216.585449
-224.668857
-181.460938
-291.370704
-289.927508
-287.053254
-164.151772
-129.561961
-81.773472
-213.721882
-163.016728
-4.611350
-165.991618
-234.818759
-266.696755
-276.611917
-193.654339
-197.116397
-226.054197
-271.152964
-138.556369
-166.548770
-97.822669
-214.530246
-183.154235
-91.719175
-234.174680
-183.548229
-288.755693
-105.091690
-210.849550
-268.535590
-270.445919
-292.120928
-284.554367
-225.809839
-266.272016
-167.535994
-259.224583
-137.846891
-218.844959
-299.217954
-180.452232
-210.390267
-214.008587
-88.697088
-213.208764
-255.746724
-15.962496
-163.025049
-212.238703
-194.948721
-233.971284
-165.303979
-131.594703
-246.973415
-221.064016
-218.205580
-262.985551
-245.709629
-262.798679
-202.414042
-215.497532
-247.501133
-101.165533
-214.806128
-64.124149
-289.355901
-106.854366
-278.804192
-200.247374
-239.369382
-257.037523
-88.547533
-74.578861
-265.617703
-241.674099
-139.198828
-217.021129
-87.160113
-258.997956
-82.863383
-197.421710
-139.959539
-272.789157
-202.936328
-97.090870
-289.177881
-274.709384
-246.825166
-356.329598
-181.107691
-291.591667
-416.992166
-147.117149
-231.439479
-95.605287
-264.951143
-143.401118
-241.826473
-184.305866
-97.582525
-288.396317
-285.753764
-215.398279
-208.869025
-152.445599
-248.715565
-265.500741
-153.653508
-119.767994
-147.466885
-211.086813
-209.926410
-282.163362
-247.029626
-196.931768
-267.698409
-241.447653
-255.779214
-236.941300
-258.374482
-285.419766
-140.047820
-261.078890
-206.621505
-272.740931
-259.541397
-291.279551
-251.263909
-114.678910
-154.668096
-170.431600
-252.112581
-223.299004
-263.446510
-162.103370
-187.438441
-292.553561
-140.404290
-215.273991
-248.534513
-139.342285
-288.912631
-107.539634
-211.812275
-274.166481
-206.391579
-194.576716
-216.055292
-278.971829
-211.866596
-279.033383
-90.831916
-236.680594
-273.791952
-227.697244
-192.669934
-159.038961
-116.860284
-171.060738
-218.298533
-157.522151
-266.884504
-172.386952
-98.102441
-276.909398
-193.883857
-213.377563
-157.878698
-174.519871
-135.331174
-251.272898
-251.020497
-265.567125
-133.967099
-230.464681
-187.318143
-263.592717
-211.460879
-216.180586
-60.206186
-174.737934
-336.029960
-197.842462
-288.557644
-284.293158
-286.571037
-181.619135
-325.729560
-291.689350
-156.053722
-193.765971
-291.599715
-363.438308
-121.738107
-64.889185
-178.658759
-298.817354
-154.263696
-288.548846
-121.787121
-272.001053
-285.917801
-170.370935
-282.378290
-214.708225
-160.110608
-199.213101
-288.422430
-268.770703
-196.632885
-122.174397
-291.832203
-156.010330
-211.297626
-226.593785
-289.023022
-214.098869
-230.976669
-285.321654
-331.407422
-274.490959
-235.330211
-167.112577
-170.644220
-122.899079
-126.793133
-138.234742
-218.376799
-213.137486
-172.717447
-242.112442
-284.892632
-277.754943
-140.354586
-242.507560
-210.363218
-269.255259
-287.481587
-273.337430
-336.772177
-228.647341
-149.842074
-111.338183
-255.138256
-234.128513
-153.765047
-218.696564
-240.241682
-163.808257
-162.033722
-255.485231
-145.896495
-293.071707
-127.493877
-243.551034
-205.851522
-160.974681
-81.281229
-101.216706
-114.340429
-185.120543
-245.559104
-131.339053
-208.307278
-275.160754
-111.500391
-267.676390
-211.818316
-246.815587
-201.899161
-262.063672
-178.527797
-144.533474
-181.631742
-290.308658
-180.172286
-284.064734
-176.241725
-201.369275
-47.159957
-131.144842
-118.332292
-122.520989
-180.950666
-109.088948
-264.414316
-216.173605
-155.901163
-167.318676
-149.004342
-185.906669
-222.443461
-284.468591
-282.305772
-207.736192
-286.305192
-272.360361
-219.100592
-144.100471
-195.792019
-220.008610
-272.594688
-236.825185
-194.319558
-244.281426
-153.151554
-289.816946
-157.259822
-200.362874
-192.307613
-222.760153
-265.304178
-124.570960
-218.177591
-274.651250
-173.429618
-283.334355
-214.808135
-146.604577
-359.921478
-149.624696
-240.138108
-282.130268
-240.223814
-155.581888
-124.492490
-158.092717
-164.214583
-228.283517
-266.905108
-112.209462
-254.394639
-152.966457
-154.387957
-417.490704
-191.863282
-201.964049
-259.014412
-193.503434
-155.248187
-168.401281
-143.869122
-110.900340
-213.719834
-257.233922
-149.078363
-183.975921
-115.082709
-245.568580
-191.133733
-288.895392
-150.252739
-286.610975
-193.715939
-186.581355
-221.001342
-222.451102
-203.741810
-155.374332
-121.557242
-283.842534
-88.774140
-277.775719
-263.496316
-242.385798
-273.245927
-269.601815
-171.149086
-179.726291
-136.817706
-158.409717
-150.722392
-220.515076
-248.679384
-287.493425
-271.758986
-168.733100
-139.842329
-219.957497
-142.274695
-263.750888
-237.781631
-268.432913
-286.747379
-204.002429
-130.979024
-130.729811
-61.981357
-121.850527
-213.822361
-286.239303
-111.009107
-277.428054
-189.198357
-120.101910
-159.394677
-161.480344
-279.519027
-107.740964
-240.324304
-241.486732
-84.852171
-111.117263
-104.952107
-246.624906
-142.239158
-233.738338
-263.163072
-215.597839
-153.868030
-211.699455
-214.703383
-209.355866
-289.223672
-168.301747
-127.450356
-156.744301
-220.200146
-253.774799
-216.579569
-183.272044
-197.967414
-169.301074
-215.542027
-269.429212
-290.468797
-201.673483
-128.152704
-136.345166
-118.058110
-215.865102
-156.118818
-223.975088
-268.719852
-79.462957
-289.618403
-273.571035
-267.329241
-291.005472
-284.549585
-225.586788
-292.721189
-233.230857
-393.329789
-286.315258
-155.133028
-228.835898
-180.318417
-147.663589
-188.603711
-140.242916
-137.630441
-145.991617
-251.188783
-159.174485
-93.160648
-184.824253
-284.802388
-183.684907
-270.974016
-214.820850
-107.216968
-117.104314
-181.301223
-285.547016
-140.032587
-124.541355
-287.120443
-4.301929
-278.089124
-152.790488
-292.109576
-208.970188
-287.186800
-253.118535
-289.584749
-292.546877
-291.917473
-270.511818
-239.099151
-270.655874
-157.041661
-283.144763
-244.661384
-176.576969
-148.106304
-214.166584
-285.646768
-292.779000
-127.585388
-138.870916
-280.496253
-155.884802
-227.609249
-169.500732
-178.248336
-283.792477
-143.668555
-143.894504
-278.123938
-174.107653
-189.383454
-90.458795
-222.180947
-165.972522
-286.159571
-220.583597
-283.358436
-248.842337
-123.038987
-286.246504
-172.731852
-19.355357
-215.528435
-185.446643
-268.784923
-199.098672
-160.458001
-279.780250
-129.816182
-188.728880
-180.352958
-136.390749
-274.821561
-267.563125
-172.668996
-217.958165
-288.228262
-258.202716
-259.433298
-228.812735
-184.246541
-158.081586
-284.341311
-289.927241
-147.163607
-88.367404
-197.802788
-279.582359
-205.311860
-2.694401
-159.918248
-151.710436
-228.957704
-291.310923
-277.009846
-318.980466
-219.882722
-249.806624
-124.694589
-122.324848
-140.904876
-241.777765
-189.463119
-222.472816
-184.478937
-154.353178
-192.608181
-288.745602
-206.480140
-111.554166
-211.309809
-263.156823
-96.273749
-233.221554
-214.143392
-260.646733
-262.951047
-165.166833
-234.318622
-160.229530
-117.381585
-190.802119
-188.857103
-148.331728
-278.399663
-248.205655
-150.113820
-246.295971
-238.874561
-274.276792
-187.988714
-276.222876
-185.931472
-274.997313
-184.432409
-281.247389
-142.313595
-228.867006
-198.512988
-288.727745
-111.257182
-257.549534
-189.248658
-275.886980
-245.285927
-141.571272
-146.507341
-159.708753
-257.384154
-140.992094
-179.831429
-207.216170
-252.023151
-229.540733
-285.221570
-289.572377
-291.298473
-200.106013
-196.817546
-139.425359
-277.001175
-80.012921
-196.388727
-139.483974
-290.086483
-190.641677
-187.975353
-154.958713
-220.173373
-291.566062
-177.718223
-186.095668
-147.374015
-158.830499
-276.338093
-260.248606
-274.993769
-157.409904
-275.463275
-156.246266
-185.447908
-173.897884
-259.356854
-257.057980
-199.773318
-249.919305
-282.267696
-238.834296
-291.098316
-290.902253
-289.512285
-225.983935
-144.580961
-153.104963
-207.741484
-285.522989
-123.384659
-206.129357
-109.781306
-289.849266
-245.566841
-292.154623
-270.761094
-188.032891
-140.586376
-137.236324
-125.759745
-157.120154
-122.699254
-249.795597
-180.561020
-290.431897
-277.761745
-122.230304
-186.596919
-18.396801
-173.287736
-129.427317
-185.678268
-174.222079
-111.334298
-111.590915
-192.105608
-272.477714
-133.242256
-384.173037
-111.949271
-143.182356
-288.441405
-176.587132
-241.254131
-291.035299
-292.944607
-292.513955
-208.641934
-281.797546
-283.770015
-260.881598
-239.563631
-182.933704
-302.713417
-202.349889
-116.270187
-292.221721
-149.376312
-218.402505
-155.796336
-223.941170
-156.985918
-214.159338
-177.793445
-238.803807
-284.994480
-289.070540
-240.070477
-111.948304
-255.919753
-257.991197
-128.082524
-227.419730
-271.116430
-210.306873
-286.963655
-195.791037
-159.966435
-251.180578
-265.864278
-181.593674
-149.368640
-210.482722
-138.903622
-290.011567
-191.463807
-255.387024
-276.662864
-198.819492
-236.958184
-285.394892
-139.343655
-270.818691
-151.202664
-275.151085
-114.678522
-292.673120
-148.634017
-112.674226
-219.048535
-226.139321
-220.347452
-256.603119
-270.743280
-288.951863
-258.218826
-164.751081
-270.207655
-289.664826
-201.106120
-181.154662
-291.449077
-171.118948
-290.119608
-143.586339
-292.968229
-148.415783
-207.580477
-215.334040
-212.825872
-242.238669
-292.301255
-177.810080
-289.519693
-141.369349
-175.775724
-213.773780
-241.332418
-292.628829
-229.413040
-209.189339
-111.866661
-292.393523
-142.138826
-146.467767
-218.110350
-268.371209
-154.378302
-160.485907
-244.163547
-148.129594
-126.632424
-256.630534
-273.273970
-182.265400
-181.700611
-271.444207
-197.086520
-273.917043
-218.739695
-198.085139
-200.658054
-196.412600
-196.882481
-198.723868
-126.317841
-290.765901
-207.347947
-289.833509
-166.705180
-126.968992
-170.865291
-287.975674
-243.810336
-165.255885
-275.703666
-222.608424
-230.130001
-277.998698
-273.108423
-117.769429
-150.369433
-183.176827
-188.018530
-263.349985
-231.428764
-257.782580
-286.180535
-172.862532
-182.693645
-265.621883
-255.869756
-116.749519
-278.946743
-184.612484
-141.501239
-281.949033
-216.253172
-226.444693
-203.156458
-191.729140
-293.029097
-210.666151
-292.378005
-198.383434
-283.233112
-253.493493
-292.574942
-215.328429
-267.307291
-281.603129
-113.126487
-220.049844
-206.831133
-152.750358
-231.882690
-233.234477
-170.584383
-288.871969
-285.936988
-241.811751
-139.724201
-187.004628
-227.368066
-204.744137
-213.018814
-145.950897
-242.421538
-207.882157
-180.387911
-218.636789
-272.787539
-174.468746
-273.568317
-188.420304
-257.605451
-262.730629
-228.867292
-195.335916
-285.717258
-288.830399
-311.729288
-290.873187
-278.344281
-283.472595
-266.334295
-262.383702
-141.027847
-257.379907
-214.664334
-290.331271
-255.373055
-252.012313
-186.733482
-228.287288
-268.399964
-220.841253
-242.846331
-253.393786
-259.518315
-259.411144
-256.701546
-292.402084
-290.202651
-188.911556
-268.760104
-247.476450
-259.086335
-153.326650
-265.595645
-215.391282
-264.768014
-205.067180
-275.713058
-273.459196
-262.043016
-125.650482
-174.685274
-221.638639
-276.046182
-127.437278
-170.225739
-237.354717
-239.371313
-224.156729
-262.629738
-183.207872
-244.071124
-302.970373
-278.530695
-275.472375
-198.760001
-270.011153
-202.583571
-148.086538
-238.678269
-221.894315
-275.531628
-265.828624
-285.062124
-292.788140
-245.841681
-190.009812
-112.098644
-289.401471
-267.975415
-276.232626
-268.584164
-208.115663
-218.058518
-255.423179
-149.854133
-282.143223
-184.047478
-191.723953
-292.333322
-243.655345
-292.909819
-271.012782
-289.986956
-211.555534
-291.918508
-210.165525
-170.452702
-291.648358
-248.050656
-217.729413
-284.639548
-190.914082
-181.837986
-286.377509
-226.050335
-277.950046
-289.177228
-237.914806
-171.174523
-283.405461
-189.418303
-273.953497
-189.906157
-289.271869
-138.877413
-303.519759
-187.503123
-247.341832
-192.100907
-272.528673
-204.065873
-227.100576
-271.369521
-190.097403
-192.999292
-184.407506
-266.512651
-242.037748
-248.380203
-291.413885
-284.950647
-252.030768
-287.723614
-283.759584
-271.412092
-187.595204
-243.547449
-291.808110
-214.800391
-287.345468
-218.554786
-119.228035
-234.810515
-289.530780
-289.901836
-276.142483
-242.885610
-223.277394
-184.804236
-268.149161
-275.522900
-207.578498
-249.085313
-223.112977
-242.351393
-265.480523
-205.030776
-271.064708
-176.477067
-253.310135
-272.127082
-190.950379
-292.319108
-178.274967
-284.105962
-289.064611
-284.872991
-191.037836
-210.638513
-187.120342
-216.346739
-289.551361
-218.261241
-170.070336
-184.515216
-236.914543
-197.124087
-139.099420
-249.637351
-257.243345
-229.652320
-158.310567
-255.593209
-177.808975
-159.869161
-289.979582
-238.094673
-287.402504
-191.236139
-278.818937
-223.215621
-283.063225
-121.766479
-221.911018
-188.308976
-269.206703
-184.971400
-279.413287
-216.542983
-287.749538
-167.488862
-234.944487
-197.030601
-231.760654
-275.084368
-292.007176
-288.774428
-291.249171
-202.301300
-207.763874
-265.640830
-260.290473
-262.405620
-271.687967
-266.824402
-283.434311
-170.023804
-257.543910
-279.601126
-287.612675
-277.433951
-228.648491
-286.876480
-280.036534
-276.068027
-290.355236
-267.673213
-265.626424
-281.888275
-263.951237
-291.061952
-287.988580
-262.737871
-265.369161
-243.309847
-170.705570
-275.109354
-239.724927
-285.204141
-122.360055
-280.079484
-287.687868
-283.074842
-216.771858
-245.974201
-289.302643
-216.795314
-289.138139
-268.769542
-284.046134
-135.454989
-129.508914
-184.354690
-156.368023
-276.531614
-233.253668
-241.720478
-283.916317
-172.733970
-216.629269
-222.669797
-190.337810
-246.755847
-217.695629
-241.931515
-242.147417
-237.301251
-288.170560
-169.110856
-275.723224
-225.472906
-172.744439
-158.840613
-265.305968
-265.319475
-171.511728
-257.590321
-237.994441
-254.841874
-182.963558
-292.083197
-286.647336
-280.524519
-275.355088
-288.681962
-250.461861
-235.638639
-272.937000
-204.648106
-255.248615
-148.720175
-151.267482
-136.787968
-231.984739
-179.801314
-212.838418
-284.841151
-148.208909
-206.283254
-280.233503
-282.252506
-226.954190
-256.637561
-210.848627
-288.529229
-288.788992
-226.121998
-145.626429
-148.621389
-266.600047
-289.224818
-185.625586
-236.940673
-290.427304
-276.845284
-200.975798
-284.117611
-277.323183
-251.893975
-277.385891
-290.018216
-233.328631
-280.743686
-277.899000
-247.677671
-175.213874
-289.738959
-277.409086
-199.354013
-229.905279
-280.734958
-280.248098
-267.464958
-169.362665
-286.663009
-253.030466
-263.537574
-144.893598
-195.653806
-216.163302
-288.515261
-264.568933
-178.446830
-265.298796
-252.568580
-291.651011
-239.375189
-287.008630
-198.008016
-202.250317
-199.012815
-201.460061
-196.082107
-188.804272
-224.910787
-225.447621
-177.653008
-233.354474
-158.571110
-226.327044
-290.004627
-288.029245
-262.888164
-214.607773
-277.753747
-215.166710
-216.292417
-265.628699
-173.391872
-286.559016
-191.789531
-278.382560
-267.943670
-158.393019
-274.580696
-265.022872
-277.874800
-275.705429
-257.120619
-286.997053
-277.486501
-207.101933
-265.286738
-141.320166
-278.253568
-277.848088
-260.924196
-255.774213
-290.720496
-245.133828
-171.571047
-287.817924
-167.790585
-292.535463
-267.862025
-291.667736
-252.347692
-161.388177
-158.955737
-265.732542
-283.913181
-292.440652
-149.102675
-277.768890
-158.288628
-204.400487
-154.989894
-193.459971
-141.687795
-186.600843
-188.187316
-157.784719
-194.065679
-261.828153
-181.743699
-169.731874
-166.809388
-145.280449
-225.995656
-174.619364
-176.470054
-234.914079
-292.100223
-159.654480
-249.299292
-156.856248
-188.264352
-213.304384
-207.886974
-153.773709
-270.610596
-169.521472
-228.685894
-269.750270
-270.357907
-267.765839
-168.445660
-268.240167
-157.770773
-153.523490
-162.204065
-292.015964
-164.526740
-149.472604
-149.434281
-130.526225
-154.921180
-231.593467
-217.748670
-238.682245
-230.700785
-217.902867
-154.444228
-141.986765
-163.627933
-162.966005
-150.341618
-135.248198
-147.005658
-204.947251
-148.299574
-204.106509
-193.339546
-194.516771
-145.927372
-150.105950
-231.536026
-159.654282
-134.633297
-199.567521
-201.157403
-202.175632
-198.646049
-202.822629
-236.787226
-236.791286
-234.876628
-186.947002
-176.677912
-180.479288
-256.900606
-250.218168
-181.822840
-189.517920
-209.568403
-169.674556
-154.719440
-204.951438
-188.993556
-194.111967
-130.498523
-136.569920
-226.746075
-228.810551
-239.008887
-194.597091
-183.787268
-194.334581
-139.817308
-203.455622
-199.646933
-198.150799
-190.903886
-202.607486
-193.160110
-252.633861
-193.394926
-190.379205
-203.041321
-131.574463
-226.583768
-228.879888
-235.010237
-136.429880
-137.919920
-200.235419
-204.291281
-205.190230
-192.531947
-189.883702
-260.378787
-253.656109
-191.597746
-191.349626
-194.307266
-138.114308
-235.277463
-234.429943
-126.389414
-192.365224
-195.003529
-203.810453
-200.110625
-206.131705
-256.178888
-193.033387
-183.221605
-198.048670
-141.148930
-133.269679
-128.434761
-230.865095
-234.281695
-229.750186
-226.161389
-125.143116
-114.580484
-199.970791
-202.175487
-204.003454
-205.070049
-198.514708
-267.059846
-256.942585
-183.968475
-200.509951
-140.069597
-133.317073
-235.555514
-239.951594
-249.433543
-239.830234
-117.951305
-116.958861
-202.542345
-200.009660
-223.560712
-227.227590
-259.883250
-264.231797
-185.275820
-188.309453
-174.984603
-134.939641
-138.207995
-213.204315
-239.684600
-235.312957
-197.414662
-207.951215
-115.972286
-105.276011
-211.820147
-196.694194
-203.169625
-237.171942
-222.463934
-226.302917
-260.625241
-209.483553
-213.792119
-176.287645
-175.247745
-226.725327
-142.842550
-140.986517
-258.545524
-244.446426
-245.036560
-240.180886
-269.527692
-107.310026
-213.196131
-205.457715
-202.752343
-243.452830
-260.425972
-255.948665
-261.348779
-244.880785
-246.611088
-225.094547
-181.804986
-175.955243
-180.959598
-173.623957
-138.316520
-153.413619
-141.909975
-239.902096
-244.629236
-255.625790
-171.124798
-105.832722
-204.875490
-205.596149
-180.681329
-160.417540
-199.975386
-203.510845
-206.630248
-246.702838
-242.330370
-213.482242
-213.377236
-208.946731
-248.887840
-255.996641
-318.790102
-166.527669
-166.922282
-166.297525
-165.036275
-155.576097
-427.837184
-528.175885
-149.276617
-202.491276
-420.992751
-295.950649
-412.451778
-433.047635
-152.388354
-146.246367
-402.453952
-496.568801
-249.067469
-264.278816
-169.608101
-228.885769
-321.346396
-99.398844
-437.552614
-543.531248
51.022544
-153.388348
-171.310933
-197.911579
-202.295616
-266.012024
-89.132662
-283.820673
-294.699393
-251.585034
-169.420872
-146.331544
-376.120582
-470.560001
-124.625628
-158.015712
-164.902101
-154.547189
-348.586880
-436.769767
-390.173361
-194.963613
-158.885010
-159.596053
-229.373586
-147.388488
-185.128292
-252.430121
-248.705532
-260.334814
-185.712957
-144.153312
-276.675770
-259.078397
-98.292595
-363.986545
-171.806769
-257.545687
-186.366802
-306.046221
-270.656025
-185.778298
-491.697937
-109.659013
34.274949
40.858426
-8.683995
29.771063
-231.016928
-202.939402
-264.863690
-222.179175
-274.247639
-320.312219
-296.381011
-464.003014
-251.658806
-202.879118
-188.653560
-244.660941
-186.311849
-189.211698
-280.601916
-186.031029
-130.400289
-186.029573
-240.342645
-397.832107
-309.113796
-278.197312
-84.202333
-281.119277
-275.789376
-245.031570
-240.853936
-188.002921
-185.773947
-97.248757
-96.870553
-153.837558
-155.854468
-148.521474
-238.346472
-183.793536
31.786779
-190.215296
-197.581158
-278.712031
-430.368695
-249.597735
-185.098753
-276.615565
-279.206308
-182.547798
-145.995503
-224.851504
-248.678810
-250.222152
-195.142752
-191.315119
-248.408866
-287.427306
-320.117410
-295.456548
-186.525636
-156.146033
-257.847905
-260.861586
-211.229075
-172.076590
-138.318401
-125.814089
-184.617136
-330.634687
-249.952000
-91.647664
-240.393095
-186.371473
-79.400083
-124.483251
-199.467508
-132.568928
-69.683725
-81.105683
-107.897390
-89.971965
-188.696457
-153.506468
-125.113729
-128.273206
-105.146301
-137.230267
-178.515001
-174.348281
-176.547655
-170.654241
-175.579976
-138.893142
-134.756085
-178.973135
-147.993590
-142.149358
-173.958264
-175.481731
-74.505431
-104.409996
-172.752299
-72.391015
-77.809335
-85.522605
-115.401019
-186.596525
-186.002370
-95.661367
-91.495770
-237.348416
-173.264820
-185.695503
-232.240423
-235.937598
-163.561338
-98.636329
-37.420441
35.374002
42.036070
-73.099456
8.518708
-357.895392
-222.412343
-187.170542
-198.486903
-70.612217
-286.932105
-189.300487
-280.059231
-284.324586
33.001274
-203.865598
3.329001
-85.252080
98.660543
103.239806
109.553297
-33.302425
107.719795
-110.142632
50.625279
-53.516169
16.731208
-185.841691
-158.187258
-133.637989
-184.419124
73.512864
85.338246
-290.093599
99.868779
-19.964330
-62.644542
74.837532
-13.596895
-74.513880
-138.474055
-95.252753
20.611243
-209.447396
-201.075211
-291.511973
-313.523579
-246.263438
-165.898636
-116.748593
-255.935299
-255.398043
-184.245308
-324.283139
-222.225712
-187.717057
-217.564212
-131.480639
-187.964973
-184.924628
-271.898142
-120.104109
-185.627133
69.828822
68.440990
-61.614484
93.133462
29.567492
-91.707431
47.396984
-20.602749
-175.708621
-235.900970
-245.443352
-186.808837
-198.521762
-185.071416
-372.271439
-229.172883
-264.646503
-186.896927
-185.584189
-186.991158
-253.623327
-152.197271
-282.521112
-185.293211
-185.486450
-248.693302
-235.389626
-325.380152
-285.981214
-204.550998
-172.694322
-187.945917
-211.066045
16.426351
-240.516654
-9.890507
-173.818388
-185.966168
-83.734193
-183.859192
-130.422579
-70.933129
-79.528619
-134.739015
-111.553531
-126.301346
-140.413466
-136.824627
-173.528187
-176.053569
-175.364757
-171.753689
-174.953276
-174.137731
-105.057172
-87.576469
-194.350742
-83.316012
-119.716548
-186.185882
-122.448750
-91.466583
-187.236508
-183.827994
-390.980895
-185.704816
-185.665520
-85.951394
-81.234832
-139.149738
-72.797136
-151.127038
-137.518732
-143.759981
-522.095266
-152.371758
-143.217583
-232.538597
-247.184372
-66.241449
-287.312859
-247.528020
-186.391836
-189.776119
-253.884784
-325.134637
-183.989412
-184.726435
-183.398433
-186.076225
-104.196906
-137.189305
-139.900048
-186.590955
-77.469467
-68.601381
-114.563000
-251.591809
-290.338552
-79.584712
-128.669113
-186.019537
-183.174680
-184.766471
-185.577856
-157.145151
-107.120313
-188.892726
-338.496961
-402.588513
-185.417547
-263.297715
-170.899322
-174.971272
-182.841765
-180.689447
-256.895516
-73.879793
-69.249065
-185.389071
-157.700952
-185.784795
-173.051512
-186.354231
-129.760963
-185.334240
-182.289285
-186.304051
-199.999185
-185.592398
104.902457
-190.060144
-184.820601
-187.910053
-89.927494
-138.861593
-184.293457
-185.995295
-121.810612
-237.090072
-352.657319
-150.654600
-301.944207
-232.116369
-134.805280
-185.167386
-104.645648
-189.784450
-283.557683
-185.676309
-193.591895
-185.959838
-185.326874
-68.800071
-186.177968
-154.871486
60.578996
-490.174374
-78.128541
-182.020316
-135.161740
-173.657010
-185.723872
-184.218085
-187.079280
-206.038147
-212.610036
-166.319245
-186.216835
-185.537570
-186.320788
-124.805860
-258.094881
-261.626690
-185.426257
-151.313290
-84.906335
-162.412424
-184.733848
-171.116469
-180.277257
-285.184424
-185.644404
-185.746037
-182.431641
-184.965593
-185.195050
-185.894291
-190.052745
-186.197172
-104.150960
-185.518557
-185.756983
-184.047321
-183.236422
-85.782982
-146.611686
-173.243872
-185.180922
-69.243238
-138.400741
-186.083313
-185.773370
-176.885323
-142.864122
-270.389720
-161.297430
-182.907104
-186.387311
-184.597062
-182.565825
-234.427828
-283.237713
-186.793547
-186.007715
-187.776051
-186.301557
-186.378237
-68.671880
-189.129847
-91.840935
-90.720561
-177.439395
-185.377821
-185.916423
-191.532061
-184.846551
-201.754439
-185.678547
-186.676015
-186.034892
-166.310414
-166.482437
-333.196528
-278.667503
-151.495823
-182.882496
-185.268023
-186.574969
-177.815167
-183.683565
-185.037024
-242.209105
-245.916648
-187.510394
-185.300546
-185.955932
-172.374743
-177.533537
-185.428797
-392.169369
-187.150041
-188.744153
-221.308692
-182.793069
-184.062639
-100.712677
-184.657399
-186.774480
-186.068183
-183.226264
-140.292590
-82.344799
-187.004471
-186.360905
-185.890177
-185.723250
-188.906435
-185.706629
-282.250160
-184.367658
-186.050879
-187.682861
-187.210906
-185.044150
-185.567834
-186.133529
-187.886133
-186.309708
-251.877608
-177.564852
-111.572315
-186.223733
-186.475068
-187.299235
-183.577295
-209.961673
-208.284488
-95.349808
-388.389533
-418.756204
-84.690942
-181.628630
-153.588904
-185.950845
-185.327532
-180.392910
-182.396364
-182.179075
-113.110191
-186.627883
-186.071359
-187.808342
-285.719422
-188.729186
-187.751794
-187.623608
-183.517194
-184.230539
-185.754657
-245.647016
-236.411122
-392.043382
-172.440663
-199.938276
-187.493634
-136.009410
-185.649696
-186.742576
-186.687972
-188.371446
-267.574289
-184.846728
-184.675262
-128.716267
-184.964179
-185.031536
-142.301703
-183.994509
-183.789424
-184.273209
-187.962044
-184.989446
-187.137849
-306.650117
-187.428882
22.292144
-132.043166
-186.640550
-281.148738
-121.068280
-157.731652
-185.950127
-147.501664
-187.009987
-255.966404
-187.485630
-96.935667
-185.755347
-185.518594
-176.816171
-247.738029
-190.924767
-186.168667
-186.945760
-175.368253
-168.588900
-186.867978
-142.399831
-280.770395
-188.222454
-185.681104
-186.856136
-110.033851
-136.463496
-284.377599
-195.787802
-187.588111
-190.279732
-286.131007
-185.788386
-347.841063
-189.061517
-187.587231
-187.560291
-176.435572
-37.117882
-41.790462
-185.679854
-187.920844
-191.399867
-271.869209
-167.638194
-186.873736
-185.618187
-186.339557
-271.763382
-190.328665
-113.938388
-127.012695
-165.896496
-121.974131
-159.396688
-251.724274
-266.845635
-185.809098
-220.977615
-224.880437
-189.646606
-277.553821
-280.842273
-188.178043
-197.043806
-182.514794
-185.754663
-116.355961
-182.432073
-187.455785
-188.232782
-186.002400
-186.738715
-188.692644
-269.756001
-199.813596
-182.863263
-243.375872
-188.639492
-271.085249
-184.071811
-187.029273
-185.771892
-186.820961
-83.495980
-187.381253
-213.868933
-194.720891
-185.610045
-229.597987
-176.654628
-185.446995
-108.636584
-185.625602
-185.927278
-186.179328
-186.792029
-108.321140
-531.332840
-539.447775
-185.964665
-247.258925
-245.630320
-188.523866
-170.743385
-195.578788
-63.767091
-104.495336
-187.165531
-185.729483
103.923245
-182.757096
-245.585975
-156.763722
-185.701504
-118.604532
-135.197131
-87.982627
-189.121138
-205.462209
-181.874513
-190.375494
-187.677515
-185.109876
-182.367145
-151.296454
-187.599303
-193.698833
-184.084513
-175.107904
-188.808494
-261.305291
-243.516473
-202.658527
-112.398030
-185.011128
-183.705530
-176.148785
-146.416688
-303.690308
-185.718865
-189.718836
-188.278085
-186.464773
-109.506804
-190.403393
-186.182910
-183.951315
-184.119418
-185.723892
67.369039
-156.013054
-276.389990
-183.973377
-142.166213
-182.436458
-186.294478
-197.681083
-186.150735
-186.145056
-360.971440
-268.988661
-514.751551
-186.289495
-327.814108
-174.453497
-178.066192
-189.983850
-271.593634
-193.852677
-245.712168
-377.214991
-213.106552
-142.894665
-128.174120
-132.689218
-185.233933
-209.661142
-179.651662
-76.051773
-213.016632
-93.395151
-109.897451
-176.887892
-232.108085
-151.406606
-142.308572
-190.382883
-185.077623
-184.400919
-180.753602
-166.787582
-189.107517
-184.664922
-112.717475
-185.453383
-190.452357
-76.886638
-114.097838
-182.554016
-181.879273
-185.292544
-187.179461
-271.818457
28.734009
-196.309719
-200.540395
-150.304928
-114.090164
-189.346343
-146.066335
-260.155610
-263.210561
-166.187409
-254.955847
-242.086211
-182.237327
-389.166705
-262.952417
-265.134073
-85.452384
-257.717600
-256.896183
-176.418598
-179.433406
-266.531479
-263.155188
-56.616917
-76.694089
-224.986985
-146.572461
-121.726968
-186.707420
-147.789431
-183.389486
-189.426986
-194.278114
-193.336142
-151.946793
-106.590345
-230.818490
-185.580268
-164.617457
-105.092075
-178.656165
-78.317849
-189.954581
-153.897536
-156.073062
-253.795942
-186.513066
-238.324897
-157.318738
-83.041277
-184.931671
-187.577044
-265.405207
-140.858981
-104.218068
-139.528303
-207.775263
-388.768348
-248.509572
-287.685169
-318.580953
-257.117393
-148.270084
-159.105737
-117.422835
-120.509312
-118.709253
-158.478436
-185.904877
-183.580441
-187.574975
-81.655096
-208.360372
-174.436575
-190.762119
-194.457777
-269.932968
-180.540102
-180.470404
-142.754728
-114.426885
-110.719848
-182.464895
-188.764524
-188.091577
-282.981332
-358.683004
-187.581965
-123.206562
-150.307609
-335.229934
-187.550728
-264.081947
-252.615961
-265.451204
-177.249672
-187.953308
-226.947687
-282.279853
-79.909981
-279.652007
-231.790645
-253.486528
-186.789348
-188.135892
-192.643481
-18.042407
-80.454183
-78.361305
-210.017444
-185.613014
-150.861637
-184.755625
-266.983597
-114.461045
-185.776017
-185.422554
-73.897303
-236.980982
-283.330288
-138.654503
-106.564431
-176.057538
-189.718534
-74.455706
-14.759972
-101.514795
-188.473662
-139.693329
-94.854812
-144.608457
-158.340301
-266.996926
-107.184472
-184.741357
-345.702598
-357.214176
-176.524607
-185.413783
-102.895584
-187.193721
-189.739521
30.737457
-185.710575
-199.538197
-182.698646
-189.876657
-172.346112
-179.050360
-191.617590
-103.575730
-190.849711
-192.994569
65.074955
-4.862603
-183.320176
-66.494130
-186.519302
-219.809291
-75.851980
-197.779543
-177.180042
-152.554708
-190.701843
-183.156482
20.910093
-170.513244
-187.547800
-185.794882
95.325499
-130.233788
-190.282496
-185.192495
-141.992659
-187.038901
-189.675468
-95.335904
-187.582229
-189.247063
-181.145246
-182.758581
-104.345192
-186.337730
-152.427994
-36.632666
-185.946384
-183.329516
-195.264879
22.525645
-206.629250
-185.136388
-189.804528
-64.153151
-208.966203
-77.824382
-178.946569
-333.207468
-184.705748
-169.033428
-184.894781
-399.891071
-284.406900
-186.119335
-302.351007
-179.066445
-185.778740
-276.951617
-220.780170
-126.447948
-192.616178
-74.286097
-184.718068
-107.586080
-208.770105
-185.437101
-129.479525
-413.491944
-173.072719
-153.064747
-175.063850
-192.666181
-227.875511
-183.278630
-168.677613
-185.456488
-186.056939
-184.018566
-275.899321
-194.689841
-267.090554
-81.405083
-170.503177
-176.710394
-79.929704
-183.440843
-173.232974
-170.867783
-174.073463
-308.034223
-347.550918
-160.358523
-134.712737
-198.392787
-215.206280
-256.741822
-56.437750
-230.410836
-113.819743
-187.234839
-165.028771
-191.395817
-209.768458
-284.134151
-83.845121
-73.687525
-76.510447
-130.717255
-191.807316
-186.165255
-67.842537
-472.467768
-245.937752
-150.339197
-187.028331
-89.416102
-255.278670
-182.251899
-157.660439
-119.209366
-134.429663
-242.139823
-508.077534
-196.583867
-68.021282
-88.249266
-184.379661
-190.215937
-189.304620
-197.472112
-184.901293
-264.878363
-192.893629
-183.578803
-277.819558
-82.301166
-223.074771
-184.826576
-191.093489
-120.166489
-66.267591
-71.911952
-181.912879
-76.479076
64.966389
-74.531677
-85.019718
-247.306097
-244.444051
-190.436549
-344.388389
-289.343124
-181.842198
-152.226837
-294.889281
-202.875766
-256.963294
-181.712783
-194.146511
-138.788221
-65.009956
-150.913001
-141.035032
-146.990771
-271.318766
-185.703439
-187.550496
-184.640841
-232.624247
-191.975189
-168.293492
22.937728
-185.507941
-110.977937
-183.545065
-90.594174
-76.904326
-188.618644
-188.221368
-282.146424
-63.062954
-187.222368
-66.979004
-185.729152
-185.231966
-111.662944
-276.433195
-276.545144
-123.916359
-185.653402
-196.238759
-198.644937
-191.730187
-181.407541
-68.515490
-190.726832
-78.089882
-146.759152
-145.449972
-77.984867
-106.316582
-204.693021
-281.638984
-344.390416
-155.544323
-150.345970
-111.010983
-249.495880
-75.127497
-173.687637
-232.324302
-234.894773
-271.098758
-157.108212
-163.009447
-175.744031
-272.344905
-235.426889
-252.469549
-114.110403
-178.047756
-150.223972
-229.177501
9.373906
-97.702023
55.400187
-132.276905
-73.283031
-118.136808
-181.843332
-204.714241
-211.233708
-184.062226
-233.803253
-169.035090
-186.173754
-143.198383
-183.100016
-183.828000
-41.656863
-110.920973
-188.066155
-183.607661
-272.925995
-205.743428
-300.724782
-69.343324
-156.711409
-144.278484
-182.882326
-140.291742
-51.177035
-230.722234
-182.248401
-180.980078
-32.758049
-136.793323
-187.910893
-225.222919
-221.096058
-115.013476
-173.744627
-143.772778
-80.911333
-69.815096
-206.525960
-204.682234
-186.471405
-169.864462
-195.995950
-381.089514
-185.708801
-259.255440
-185.714622
-185.265815
-187.294041
-98.475712
-132.783687
-185.690964
-185.759203
-121.235504
-224.989512
-169.486920
-263.171507
-185.072776
-253.189761
-208.431416
-266.247818
-140.076253
-239.847810
-194.479668
-388.539497
-186.435951
-261.969140
-134.762394
-183.975728
-259.090593
-167.000932
-151.077885
-117.342966
-120.090882
-266.734082
-263.712160
-177.165648
-137.648896
-61.166101
-182.076238
-181.943574
-80.759238
-82.336255
-279.644113
-278.445808
-185.291023
-303.505649
-74.379811
-116.876612
-116.365690
-175.829431
-185.121263
-257.566116
-188.838488
-184.985440
-175.995356
-251.474869
-104.645772
-226.767083
-230.429620
103.447413
-116.141139
-184.308286
-86.795667
-214.019900
-402.300531
-172.950053
-191.801540
-182.815856
-200.309613
-123.980899
-140.535037
-533.565656
-164.344040
-406.254130
-532.266301
-190.817062
-440.021725
-543.587232
-104.794219
-129.138755
-140.210016
-177.733931
-128.860064
-187.482493
-86.100075
-261.189973
-252.455616
-222.898598
-192.406143
-240.082305
-139.934922
-87.290028
-253.513470
-270.828192
-199.704020
-192.258977
-231.240458
-137.863587
-133.369282
-210.295525
-187.899463
-66.079139
-280.507635
-206.824248
-103.034489
-281.636535
-185.789350
-317.020175
-256.876246
-185.848428
-242.561055
-150.211506
-173.293906
-185.568583
-135.137021
-265.597048
-234.435972
-91.447157
-84.823199
-123.962824
-181.589069
-273.412083
-112.991984
-263.697022
-87.556685
-185.073877
-286.486819
-184.896592
-171.347627
-175.146664
-149.255878
-176.938839
-105.410909
-189.881298
5.177606
-197.578258
-93.068624
-65.592053
-308.032695
-185.228674
-138.779217
-245.671412
-18.375145
-177.479066
-277.379183
-133.585858
-91.443159
-181.437155
-113.705810
-196.247068
-266.397331
-85.740879
-267.192942
-233.233362
-166.225002
-150.596057
-256.017902
-282.667110
-129.307244
-130.658124
-276.921040
-114.175934
62.350599
-285.595866
-178.685729
-184.177555
-179.713105
-202.449066
-184.430773
-285.887181
-224.926542
-253.064612
-263.415129
-184.398528
-249.253068
-179.877496
-186.405386
-188.136428
-212.890578
-210.077202
-251.792965
-190.387147
-206.209509
-83.267697
-280.799149
-131.516740
-151.079479
-186.896998
-264.141434
-118.819715
-282.251962
-182.379825
-140.584444
-193.466894
-97.671072
-280.645991
-282.525259
-193.188819
-184.452051
-184.639599
-237.572684
-96.609963
-114.218460
-154.819975
-131.908569
-323.088782
-193.498156
-240.659935
-270.614656
-139.224688
-235.802211
-138.273128
-166.851536
-142.036864
-137.048186
-133.283957
-185.720953
-185.713240
-110.653673
-264.609841
-36.118808
-17.404721
-139.702220
-123.347289
-183.081979
-163.388494
-145.450509
-142.954692
-105.667165
-462.480003
-176.437429
-148.101754
-224.540277
-228.757959
-118.852471
-234.110759
-66.347887
-195.248541
-167.176580
-188.170731
-185.088006
-285.650134
-271.308632
-123.234279
-175.372599
-448.306917
-136.765431
-199.607044
-141.782393
-75.932572
-254.525279
-100.850629
-211.083815
-209.708914
-199.092245
-215.644662
-194.470473
-193.880420
-281.916946
-147.960808
-339.010460
-327.002001
-179.948627
-190.950629
-204.325307
-179.992449
-139.767018
-191.072934
-108.233783
-210.446932
-172.069770
-284.185144
-113.189917
-191.392691
-229.032454
-125.034038
-283.732567
-122.213847
-181.637340
-122.376054
-67.522568
-186.893999
-165.585535
-275.561397
-78.809917
-68.433170
-355.453587
-319.109021
-285.087740
-285.202646
-283.697753
-185.402529
59.744530
-184.340244
-67.212497
-185.216603
-188.970580
-116.791225
-91.325386
-211.409694
-186.444481
-186.486687
-168.991718
-110.045812
-281.222614
-146.150067
-163.337288
-190.188176
-157.042781
-190.116815
-128.801518
-182.532559
-185.580613
-161.270425
-169.954229
-193.470782
-185.903842
-187.124687
-183.929822
-111.227500
-91.677431
-113.348071
-124.197808
-187.349864
-185.233293
-172.501094
-182.661485
-185.703026
-180.208997
-245.130513
-190.560487
-194.227607
-131.318510
-187.423366
-282.906709
-125.266239
-138.549651
-156.535739
-204.363576
-109.726408
-286.748363
-73.011257
-175.582455
-201.992291
-137.737821
-181.682057
-178.363734
-138.679621
-188.934174
-207.730455
-123.334660
-189.801875
-248.313947
-257.759600
-283.739317
-155.070130
-193.591051
-185.077086
-190.854367
30.318629
-181.574760
-196.474155
-194.787105
-297.213345
-182.021879
-68.076959
-181.566131
-183.740870
-275.308703
-208.317459
-115.081808
-163.969117
-185.820746
-180.938799
-78.269840
-66.465541
-206.532579
-136.518592
-228.093738
-119.201105
-124.958984
-286.091164
-179.739369
-141.129894
-185.434430
-191.870360
-188.283551
-205.738291
18.335962
-182.844380
-75.224282
-106.220683
-165.685996
-185.934457
-297.592903
-261.735127
-121.364767
-186.976528
-257.540094
-9.886453
-151.640249
-182.567142
-141.651560
-192.874886
-101.625526
-161.660363
-204.727668
-186.166116
-157.504320
-186.059805
-182.808964
-284.148677
-278.654348
-106.312529
-185.381559
-174.820931
-79.247082
-134.520373
-203.253775
-185.036269
-282.178946
-262.179192
-183.859635
-79.767526
-112.273268
-172.739445
-186.393920
-185.365527
-187.488092
-113.585481
-257.585468
-157.386926
-187.241139
-215.299025
-185.518485
-261.866862
-74.205026
-180.504075
-190.291283
-283.214629
-181.851412
-209.964491
-173.184463
-488.817424
50.098712
-91.994404
-199.871491
-210.629076
-185.245772
-165.827533
68.284349
-130.471805
-264.207188
-239.686393
-148.825923
-261.600070
-11.228303
-201.413376
-188.791467
-187.215721
-126.440063
-281.511218
-444.433114
-188.900800
-166.793250
-102.103804
-180.069211
-258.162708
-170.291385
-146.497624
-204.664906
-35.388209
-145.015474
-128.727171
-83.642989
-263.302689
-266.986048
-98.209957
-203.150484
-183.545875
-167.332509
-84.065882
-160.888528
-114.734874
-178.461037
-193.054032
-274.555606
-278.701954
-116.542856
-186.669203
-225.482635
5.887011
-145.118385
-270.707982
-81.717398
-149.669326
-243.010116
-185.373333
-171.886959
-69.341682
-108.658580
-251.116961
-146.883444
-185.003663
-206.647289
-206.269575
-227.396342
-237.721163
-334.114883
-206.139683
-186.130777
-179.147008
-261.896120
-183.281387
-186.607373
-282.539590
-155.814779
-169.007981
-127.892634
-109.393052
-239.848306
-148.511153
-206.010508
-190.964823
-176.038643
-180.839902
-294.951815
-71.378586
-173.860858
-474.181055
-141.606912
-269.387994
-129.073698
-188.732614
-181.627829
-181.216204
-78.218009
-131.062457
-184.695624
-209.280390
-184.516038
58.909858
-190.841156
-178.716812
-236.641685
-282.926468
-10.639739
-104.918924
-187.741825
-122.940311
-202.392128
56.205892
-88.529609
-261.629074
-90.375813
-266.229159
-87.451004
-181.764539
-187.017087
-184.822809
-511.447292
-216.132417
-197.185608
-173.272332
-140.765587
-273.584335
-220.241528
-195.764179
-194.826245
-253.772887
-184.871301
-267.326312
-182.792043
-116.093796
-189.257616
-91.439750
-280.478948
-265.567836
-189.767097
-185.672021
-185.422679
-258.315213
-282.898996
-183.001496
-193.259207
-193.647675
-223.507759
-72.584120
-96.560064
-124.629808
-125.641608
-139.191817
-185.845048
-217.502181
-153.549465
-283.038284
-178.261986
-249.201374
-256.115406
-230.819107
-193.699991
-159.729703
-64.046930
-275.093884
-192.255579
-283.503103
-204.260782
-178.656634
-190.466829
-164.548677
-161.202682
-108.872472
-69.714131
-96.253091
-187.086725
-222.446759
-178.279738
-182.992842
-190.947105
-207.208172
-115.498394
-185.188590
-114.936806
-187.072444
-82.049759
-245.946029
-199.250627
-282.002231
-208.142828
-281.290000
-86.984755
-90.728477
-171.752247
-334.188335
-202.244766
-185.284595
-244.683979
-249.063832
-175.213438
-147.487384
-265.321953
-184.779056
-18.013579
-187.860779
-272.341494
-206.291889
-184.213280
-162.615583
-158.986956
-98.646134
-178.594727
-108.694494
-183.047018
-191.788944
3.610276
-53.649022
-198.642827
-269.827452
-245.960246
12.954562
-81.876569
-269.775820
-121.868273
-13.662787
-120.104011
-191.804306
-185.045757
-161.220859
-124.665033
-42.563792
-225.013977
-138.550367
-39.707771
-186.873330
-143.851771
-180.817971
-160.029565
-200.289908
-270.297162
-106.408713
-267.681627
-171.463351
-183.722568
-285.748906
-187.515334
-158.849932
-202.749413
-169.296611
-69.506733
-194.758702
-174.664216
-187.068616
-135.321586
-181.178077
-186.109820
-130.245349
-71.393527
-73.602533
-185.767476
-78.325343
-185.050502
-190.348855
-414.039524
-149.455576
-179.028590
-387.804129
-191.439432
-133.924119
-439.509274
-218.984515
-111.180510
-210.112263
-193.268287
-193.785634
-85.316944
-262.520680
-199.036018
-77.006616
-184.578910
-239.400155
-153.572715
-77.743367
-205.517826
-220.794673
-184.217348
-184.462571
-259.677968
-117.213945
-174.532142
-260.522789
-176.948807
-117.184171
-67.487549
-135.458251
-272.888330
-260.050413
-259.739960
-69.448155
-83.444290
-278.511608
-171.237499
-250.869465
-165.520204
-246.612540
-184.829882
-135.945501
-73.309652
-184.686248
-137.784045
-203.953379
-71.742223
-121.034538
-81.075679
-175.914202
-185.005184
-38.985464
-149.667091
-184.766481
-151.820553
-226.518313
-185.893365
-181.295973
-197.729040
-125.109626
-265.321395
-230.377892
-186.001038
-179.210307
-281.997161
-111.664548
-147.056240
-224.585455
-206.482812
-202.551361
-182.248925
-184.957640
-173.492511
-184.482871
-200.766831
-123.636166
-181.346849
-135.505100
-127.749353
-72.346576
-212.683956
-233.741279
-206.863191
-184.577483
-267.173000
16.871252
-160.393906
-220.995797
-198.918934
-139.751594
-185.667582
-284.715398
-282.801545
-71.090137
-189.809241
-183.305104
-46.583823
-185.707387
-157.827403
-180.693579
-120.632014
-183.018385
-181.900396
-256.171752
-159.822333
-156.205223
-179.604612
-280.327757
-183.370289
-220.988113
-179.658496
-180.861167
-124.134012
-193.707714
-186.431491
-106.180210
-147.380006
-185.998155
-224.475182
-13.174181
-152.005130
-185.220887
-185.189058
-145.474769
107.643972
-182.135765
-180.530516
-202.158552
-269.469976
-87.367704
-230.417853
-195.935123
-129.018724
-234.737520
-185.551524
-146.187039
-142.440832
-282.708686
-282.742214
-266.892585
-105.106100
-74.856445
75.769207
-188.453043
-198.844981
-186.862765
-216.433681
-185.973728
-187.193552
-126.569926
14.894315
-72.226358
-72.157705
-205.054492
-174.814915
-248.347763
-286.626802
-185.664102
-510.373920
-114.071235
-274.620216
-276.138567
-149.721263
-134.152292
-41.322397
-212.561844
-185.416032
-185.712364
-233.273489
-94.539142
-142.625276
-180.716520
-142.355398
-179.783009
-179.849605
-185.714881
-166.322287
-182.288790
-182.460098
-286.044878
-188.144880
-201.644005
-259.276499
-197.484099
-173.567333
-411.145431
-191.475462
-272.658293
-187.326916
-182.131498
-253.764757
-191.097210
-169.831832
-185.967999
-106.563128
-187.962896
-239.568550
-188.537173
-193.660081
-185.213571
-285.820961
-173.794730
-122.175143
-210.641136
-190.382821
-239.523577
-183.650822
-210.834954
-190.688581
-188.272658
-65.873748
-250.778667
-283.805074
-210.570641
-116.234645
-108.085178
-263.848460
-186.308366
-269.925272
-94.598987
-96.105365
-186.234885
-181.859936
-189.264594
-121.984534
-152.978105
-184.691673
-279.002575
-151.526982
-185.928119
-246.070558
-102.920395
-257.659328
-229.076138
-111.040333
-72.231659
-249.689931
-176.694084
-281.365626
-204.609332
-194.078630
-66.495585
-266.653347
-184.912030
-193.231968
-193.091609
-189.539444
-192.702093
-164.359614
-241.808648
-110.870029
-202.049576
-60.067072
-182.475913
-182.875381
-281.507701
-403.201659
-544.984506
-174.141920
-94.534369
-112.798109
-179.878681
-270.440284
-185.861703
-186.147884
-185.861326
-193.555540
-194.683118
-154.895831
-186.140019
-187.710662
-124.832342
-83.961918
-158.400889
-213.976393
-186.326620
-19.427606
-102.965863
-179.802308
-184.413139
-479.588728
-260.113194
-232.312586
-286.505501
-135.513684
-39.131272
-504.703778
-281.357471
-280.804762
-165.387902
-248.935178
-479.785262
-185.715533
-185.826378
-74.390357
-219.392938
-184.579385
-21.675287
-236.144428
-24.625094
-103.384748
-189.553578
-272.858177
-179.481669
-71.391346
-181.964951
-159.984784
-283.470016
-266.149048
-199.473420
-111.109027
-174.621416
-186.058589
-163.330105
-249.604947
-182.201540
-146.743566
-76.214496
-168.987313
-462.274607
-270.607563
-153.932590
-186.653075
-279.780373
-124.923075
-283.807297
-256.151271
-224.536027
-92.376798
-226.801801
-119.947928
-195.030721
-229.788850
-185.191000
-191.433152
-189.599759
-190.369419
-182.241539
-184.745486
-185.868065
-254.201195
-263.257598
-121.154150
-184.767550
31.400326
-279.752266
-448.701980
-159.976404
-119.835717
-104.712783
-131.644345
-186.673642
-129.505591
-77.854207
-294.726628
-186.807899
-142.276124
-168.690509
-191.403522
-182.727906
-173.649769
-215.237363
-200.235151
-72.128253
-73.567538
-185.423810
-156.770169
-248.879369
-149.814195
-508.929556
-292.917001
-114.361509
-190.407924
-281.884136
-122.455941
-68.521788
-242.278013
-85.159040
-181.060520
-215.101980
-116.156561
-186.047429
-182.411836
-185.922303
-184.836915
-186.734160
-183.812096
-193.321297
-217.549221
-105.023998
-272.960069
-107.909755
-24.628215
-171.778712
-127.346536
-209.205122
-201.963307
-190.188019
-285.538868
-128.863942
-128.160614
-210.039458
-152.594632
-413.576474
-183.294939
-181.666230
-193.333120
-212.895603
-189.465109
-67.313826
-208.391414
-281.109506
41.888613
-195.241382
-191.197970
-216.810474
-193.761457
-185.438944
-115.155364
-182.695964
-261.243866
-335.577903
-282.643628
-189.054919
-282.510595
-163.353643
-132.753452
-130.597198
-193.911589
-216.212456
-4.196066
-279.277261
-209.847936
-152.539036
-200.663620
-257.201230
-77.069853
-77.007307
-187.372458
-211.231757
-94.972961
-207.368292
-239.092905
-153.554733
-279.598610
-267.979139
-285.025768
-188.565591
-79.328450
-78.043921
-106.732773
-261.724047
-46.078570
-106.064165
-300.691418
-180.741575
46.139031
-267.927358
-183.500871
-134.027575
-122.377954
-185.531036
-267.425500
-148.803929
-148.030237
-142.655696
-189.815909
-83.566889
-266.355085
-169.660551
-163.462571
-185.714028
-188.986590
-192.372118
-204.611219
-185.716286
-132.098309
-100.572242
-170.329156
-185.804366
-109.075286
-127.936914
-163.653384
-213.601935
-124.337912
-239.759353
-68.724106
-185.358480
-159.370539
-177.271644
-181.944586
-210.884792
-139.359883
-85.042156
-143.376318
-122.545420
-281.835995
-279.156847
-201.103028
-68.933471
-191.107780
-258.766317
-85.393175
-270.865410
-106.524270
-116.939986
-114.469068
-239.266200
-281.667218
-156.845826
-225.235308
-109.797330
-87.187030
-132.028020
-64.451129
-240.023503
-184.268363
-168.439360
-102.824110
-183.499767
-184.421563
-186.602086
-129.765460
-107.873708
-111.086004
-181.154710
-198.965638
-181.341535
-129.318152
-194.676731
-182.590765
-500.915976
-136.923233
-173.971012
-202.205123
-182.333864
-10.159635
-251.530962
-250.017799
-211.302373
-158.138152
-282.027623
-165.843009
-13.306586
-125.830846
-161.469250
-248.752647
-181.346328
-136.074631
-272.183382
-184.204002
-171.738038
-177.359919
-186.155924
30.472092
-167.559621
-246.762319
-248.678925
-7.632309
-259.652351
-112.373817
-263.763474
-126.697133
-183.473449
-127.867465
-222.031750
-207.496177
-185.053379
-130.362896
-152.705664
-183.118040
-182.795295
-181.493900
-170.738355
-213.727119
-179.390251
-241.610947
-187.998501
-183.124246
-249.919395
-54.888132
-252.445617
-248.160591
-107.597804
-134.894050
-193.439101
-251.479717
-72.916934
-179.617119
-74.688069
-110.395425
-159.723958
-88.802263
-127.194254
-272.183591
-81.721088
-82.251167
-172.753886
-282.537393
-159.328405
-180.802295
-118.691756
-132.003271
-74.548434
-72.243968
-202.492639
-248.316214
-84.385165
-137.517015
-187.959198
-105.087421
-260.336218
-209.190409
-92.978014
-164.885290
-157.376239
-130.154523
-159.241422
-281.669538
-282.641851
-185.637969
-182.530737
-239.362225
-119.313999
-204.638316
-282.221983
-174.462104
-247.826203
-191.500866
-239.285806
-284.189307
-205.517911
-164.770588
-255.462894
-223.740692
-248.048662
-253.287798
-234.733725
-241.502504
-270.903315
-230.514028
-260.869603
-183.514194
-111.909396
32.990388
-246.281497
-272.996943
-241.354047
-281.966566
-198.755398
-189.360500
-157.179669
-212.436678
-214.929148
-182.690163
-150.842878
-182.619741
-273.779629
-130.505902
-195.293176
-222.992749
-282.887074
-174.990943
72.872990
-280.891470
-127.697806
-166.887187
-251.504739
-282.426673
-192.181568
-184.672167
-132.723960
-237.367094
-224.973558
-195.220996
-184.795508
-281.226986
-278.871040
-247.261146
-279.586770
-283.185167
-184.493593
-186.966764
-130.839743
-135.814413
-191.443171
-283.955722
-107.278098
-198.339864
-222.402197
-279.488331
-212.851579
-191.785945
-72.880255
-137.214550
-213.297802
-256.995705
-196.674013
-278.044085
-162.289411
-242.145063
-284.392537
-219.104936
-208.235024
-282.048710
-149.933220
-123.922112
-229.195855
-225.791121
-230.137348
-223.789554
-226.177487
-159.945968
-258.085195
-254.008897
-79.491610
-185.807008
-193.602033
-236.548631
-278.242640
-193.638072
-241.142441
-188.118119
-278.831635
-233.310421
-244.185850
-181.220178
-145.393069
-137.186899
-265.313957
-257.186535
-258.746648
-244.426670
-244.028787
-182.534764
-136.031984
-249.182379
-213.497328
-262.942631
-259.574859
-131.092610
-275.992794
-177.457359
-166.715110
-206.980137
-281.142183
-184.478491
-184.436018
-184.127794
-283.464931
-231.229805
-110.760158
-206.136873
-188.149585
-242.358259
-82.097466
-281.972548
-265.109940
-75.468469
-186.160503
-270.766564
-180.768314
-212.619004
-282.422904
-276.030826
-253.257537
-208.719369
-208.701199
-78.006225
-151.096916
-168.126560
-205.949664
-186.533776
-113.082711
-285.745327
-143.010931
-238.703294
-192.171796
-233.400087
-261.554516
-279.952621
-239.982913
-261.063036
-281.146330
-78.110879
-285.897376
-280.601848
-74.568376
-192.364308
-206.648186
-179.425251
-207.449571
-179.423320
-186.155421
-162.432316
-159.617639
-230.325669
-283.654245
-145.510360
-155.532822
-206.812744
-168.953950
-174.696070
-252.909636
-257.674891
-248.898019
-223.672983
-271.333166
-205.319780
-178.541230
-205.300362
-192.431716
-208.634510
-207.419141
-189.481978
-196.808292
-171.755457
-188.784318
-188.783411
-253.978278
-253.279963
-252.022957
-254.532029
-108.558167
-105.442871
-206.656001
-203.613545
-190.425945
-172.395792
-188.143230
-247.861651
-246.037140
-280.852190
-173.301008
-234.929771
-254.115981
-258.507547
-139.431082
-145.785978
-284.047568
-151.697526
-147.508472
-203.945345
-208.688630
-282.587359
-84.539585
-85.176242
-285.821112
-199.409640
-100.950057
-240.500176
-202.488372
-283.022476
-244.579551
-106.991499
SCALARS strain_e22 float 1
LOOKUP_TABLE default
399.892150
121.137067
429.867834
472.471097
242.136013
589.996187
469.939062
578.507301
101.475300
584.411942
438.556890
432.635736
433.304189
453.577367
504.525646
359.225393
438.557118
413.808318
582.967229
476.727265
433.229929
432.246666
447.376361
432.407835
237.318941
751.637988
456.063090
440.768209
505.064567
516.079990
502.119202
437.949985
575.560430
401.803223
372.547999
103.172312
560.433326
575.715275
438.632999
582.775648
458.430038
98.072064
438.662236
442.980467
118.798014
454.669526
343.016135
736.686657
69.679190
438.255251
440.779107
438.528803
571.070898
434.182334
96.372096
457.525448
590.054608
496.338986
399.642168
69.712401
473.966545
216.553572
527.726135
500.156565
434.034599
85.780334
459.642208
96.769841
433.341827
66.284493
572.929192
194.769009
58.206827
388.558972
57.278712
71.026664
363.830199
576.678192
571.695575
437.969051
45.992157
433.099820
399.404215
349.466512
528.178721
62.826728
489.033276
131.670650
147.083109
518.126137
551.269358
549.083161
440.078743
529.307351
183.610718
135.740824
418.266809
438.427811
62.991544
88.680461
442.767233
59.841651
567.926316
600.857765
432.320623
122.182779
524.213211
437.824106
587.572292
514.377644
433.669862
87.908392
437.156896
552.142515
563.084857
422.461727
434.849529
228.158653
436.655874
441.270279
506.451906
515.912517
375.544688
440.118500
432.833721
432.479113
518.627329
108.979104
614.190462
462.039060
454.809442
67.253818
439.914322
433.512872
236.288893
431.025459
435.528370
64.203928
578.117908
457.190509
429.417055
92.712554
433.778446
478.890207
430.285929
43.977533
133.674587
107.493495
429.398565
399.746613
47.012400
439.029119
432.261124
282.158727
561.067798
433.374165
432.998356
440.419128
59.585203
461.891032
489.294026
609.635892
423.876643
430.536843
567.802591
70.140351
555.575483
490.540118
448.573666
342.251243
443.813589
732.542194
98.838553
619.285019
48.348396
98.355875
713.289762
490.060707
432.366230
838.428785
461.170439
401.037424
178.517059
238.242969
408.451170
439.317964
449.721177
700.737684
487.122390
474.941072
621.213684
67.309981
525.551703
718.044788
439.150732
440.229602
440.251979
591.064628
588.058916
433.212732
151.330151
431.332031
161.081716
377.973225
429.685332
246.477047
1070.257362
162.629849
301.114812
435.282321
860.352949
432.714141
439.835293
463.798246
537.268354
373.153131
432.235041
507.074681
434.744960
435.180122
482.647190
553.978111
603.426018
605.294729
75.930978
435.331826
439.540907
593.799927
526.083434
514.624498
533.518811
581.840111
527.745774
433.337000
504.530331
442.671084
407.624299
1023.357210
439.876147
546.079973
151.307046
436.318078
458.969892
120.779792
449.841908
433.920163
438.377820
541.063877
666.427525
432.954021
127.964285
654.411640
215.064046
586.311445
447.845660
409.653048
484.706412
432.393659
432.362816
186.784949
389.103971
440.403107
303.579818
434.881800
424.164598
132.596638
439.567808
418.078083
200.581850
444.725720
340.142110
529.490460
196.170190
446.918687
440.700734
461.405813
427.185416
127.279905
540.842105
489.282071
436.257191
500.319174
307.141105
581.844354
109.294462
486.542663
483.727725
451.170574
427.511667
435.260494
586.009454
570.778382
103.711097
434.865538
440.325526
332.133203
487.998184
414.773225
386.954934
279.561311
559.669810
444.096279
605.934031
419.077993
443.804047
433.455212
1184.176501
485.405419
447.939771
145.172194
436.681052
432.586076
298.069563
61.387635
488.762784
107.414737
111.504059
564.389303
575.055179
443.321529
239.297350
508.078049
431.628594
432.090081
182.547438
1020.996333
433.921026
348.527340
409.083735
493.021341
558.433666
546.545761
59.494221
431.868670
570.878933
384.105111
697.486673
69.735114
433.467640
1043.705261
321.339232
442.810636
397.678509
540.738137
505.696145
394.432186
450.791290
432.096911
119.722157
217.257316
430.929284
685.846044
589.210502
451.909394
416.514441
559.720194
431.212184
61.585008
160.924180
1035.157505
441.049084
572.797508
547.655945
389.326054
617.837470
443.682851
511.724629
441.548317
537.248887
544.956059
468.103429
433.452770
304.233315
437.320001
507.929051
1205.491619
548.795854
510.721061
527.949194
612.410579
458.804850
525.925283
431.233203
529.219846
552.856941
531.225731
136.445296
414.644550
448.394956
1148.048240
445.859279
431.424738
69.507919
595.561795
435.903350
436.864224
426.907441
432.492967
490.100791
436.394710
518.335517
490.379865
440.640157
391.163861
432.224402
231.342072
72.228753
433.346705
367.423757
431.439216
425.217272
511.037189
431.497548
150.705175
567.221547
425.185618
465.207315
603.278554
431.683318
540.064659
464.781431
461.182436
442.962438
433.338644
230.298557
450.772642
593.195430
417.732851
455.856594
524.159845
598.892870
334.985630
541.696819
162.373997
494.965731
435.208419
602.186065
427.619470
127.874560
430.040911
71.514551
568.302361
512.088121
532.325057
404.607395
462.344653
435.743301
561.747495
92.764137
434.970150
431.447273
438.797180
254.482674
342.791785
212.986087
267.760446
148.056827
588.187855
209.864873
444.173783
404.225304
460.804551
67.022949
337.413295
1016.008739
443.535702
532.443450
546.671234
600.973685
566.503179
584.188063
431.596352
455.778444
428.319575
573.270031
505.603232
436.750334
61.812413
456.969372
431.733935
65.114729
232.082073
429.318606
591.460714
428.824010
458.457952
458.729985
441.875534
588.060353
309.260768
101.277816
107.483967
997.728196
523.933100
465.238771
431.637440
405.536567
538.349424
492.829423
455.461848
162.822378
454.785461
431.658793
439.281463
432.553315
464.748826
419.360863
426.797575
435.073415
519.580038
253.384594
437.479854
444.466064
536.519864
536.975753
462.396812
443.135814
435.230806
528.129892
641.818518
544.550419
343.398645
433.513414
440.148857
494.307536
501.308249
566.929209
576.431071
447.205027
464.313751
426.444482
433.286075
473.942328
332.049447
196.763902
427.567469
309.495495
555.010690
526.219871
70.557108
522.548497
556.735219
186.904179
611.679533
642.531365
430.871331
432.768822
208.763849
511.029645
432.916149
430.708737
1126.317416
414.043280
443.598727
398.388221
531.907123
432.881797
447.794135
105.255565
121.476916
582.572277
281.525037
460.963039
1208.060372
533.858316
86.540418
532.425639
546.682338
524.971519
527.927468
585.959677
598.253299
462.700037
108.098631
433.370306
570.539347
336.632376
533.524610
452.762743
372.483788
423.623995
158.104176
551.526160
533.529609
101.429450
513.617975
433.553428
533.818982
132.322730
533.807281
530.062724
120.949774
545.668533
443.184972
435.737881
505.738062
1167.464764
421.161599
434.803673
1004.188719
485.136082
433.383366
174.941295
433.107291
350.357871
603.634673
322.669583
429.831221
442.741881
487.698565
432.368442
556.253559
432.621694
971.576941
373.720230
610.897111
436.946818
452.387352
452.003297
50.164813
442.623272
441.995513
564.985590
435.181798
332.672723
575.700027
432.577891
1169.057759
555.724537
453.914062
579.907619
205.837572
418.238408
575.721393
437.216371
126.781671
126.510149
434.200041
433.336223
430.170444
434.869815
446.067855
437.112163
435.149940
102.414104
434.179506
435.459913
589.303441
435.414074
511.938813
70.426579
396.013767
463.550227
525.664336
481.470029
1123.062955
226.981899
471.245221
442.238304
441.879299
436.741543
601.954832
596.609638
67.468229
435.201605
213.858435
90.766000
504.599016
589.071249
73.399815
333.784800
430.337442
405.705353
481.515342
433.336943
586.826702
202.574166
503.633405
126.565557
388.735043
325.076225
434.741930
436.383173
535.147976
434.910269
559.723400
505.269396
412.515332
437.674777
499.497337
605.123629
414.163178
459.747835
435.931410
438.862920
67.046013
431.537457
441.389565
532.799252
594.301527
181.298712
433.108542
297.995058
431.359853
509.463399
193.498505
543.772055
593.474116
430.583087
455.291768
483.496626
431.309883
564.985995
306.247277
701.479857
439.177080
443.635138
427.141267
581.741937
435.329415
731.633999
449.120103
510.039756
586.997965
122.269170
555.572343
79.824243
436.785383
471.786483
515.256406
159.466596
369.166616
442.111694
653.900604
495.999734
498.882774
441.101768
506.766237
442.069174
410.639102
485.257417
435.781558
115.633107
123.922828
320.005557
1063.738667
437.798676
433.504353
489.500721
137.867614
167.578388
587.768049
490.013012
459.855586
575.567722
455.650191
496.816206
643.696707
425.543553
442.603554
433.272482
241.709893
435.456117
1088.465392
434.888506
432.203385
438.357433
570.255904
574.996906
595.930901
434.482691
433.280201
508.382532
435.280222
376.262161
435.067807
237.590083
544.595944
570.621988
436.330738
229.990900
431.196158
226.115401
546.891517
436.740442
991.149870
500.027489
435.264515
508.517905
368.343854
402.465351
440.391689
159.419392
316.345167
390.347925
594.754454
437.362911
49.480568
583.861551
462.511705
436.631005
506.751370
593.438783
433.685792
584.324050
579.768979
581.977116
427.528406
590.202249
464.012553
437.339611
432.029103
532.702760
113.663687
156.006252
443.782734
598.308656
432.971546
435.472000
565.792959
440.374844
433.439766
168.996346
451.192709
435.306793
531.378143
493.911432
432.905619
62.742007
437.406444
442.070286
435.177290
530.674975
446.090796
439.753245
331.045604
493.814989
455.266165
439.944944
110.631105
434.172618
439.152413
522.202597
117.686222
444.079946
408.844254
134.264550
77.698734
513.546469
499.980109
1177.303235
551.533052
513.545302
432.719019
383.886683
583.235273
442.669808
444.460429
462.168467
423.463648
431.141026
931.381634
147.116259
1112.850075
464.077229
423.234369
441.513660
241.364012
474.427085
533.115647
132.347297
436.244451
339.077334
433.139194
401.769761
1155.109618
132.392673
125.347733
546.165621
447.575114
546.208482
127.737761
559.841587
125.777935
163.607935
433.256078
403.715580
548.826353
575.821134
484.402728
572.949883
435.246869
434.839457
438.451385
516.551865
678.979322
430.985766
420.418963
528.030159
549.289127
538.380178
408.112273
434.295646
459.837250
433.303055
470.973322
463.482014
345.609168
1094.526485
439.310812
402.811078
459.577894
437.210975
594.003279
552.042993
433.585521
457.353717
458.094328
521.797429
426.100220
473.395731
513.239427
470.195655
435.557245
297.527221
558.571851
383.433064
504.008453
363.834172
453.194645
513.819892
255.794813
493.284732
542.683982
435.251015
667.316988
89.317943
514.011154
579.893049
248.273395
1107.507251
564.203793
322.954237
530.957114
107.186980
412.148163
301.401517
432.056529
439.638833
433.338088
468.339587
432.692867
519.728509
950.987946
1212.776594
436.753849
424.360979
434.390036
150.445482
439.084476
441.508131
434.695596
67.216204
279.850030
545.043853
532.089053
233.947030
86.391670
441.407928
132.942577
104.837257
513.478415
404.240523
437.754872
534.953845
342.652788
82.127252
565.692525
557.271838
495.590891
535.764864
571.341627
458.839978
457.453034
104.619028
406.005430
306.512041
125.793647
129.647437
439.313330
521.016377
448.189385
130.831822
577.162576
442.775897
433.516780
1078.697683
424.889036
292.404372
435.174975
77.909004
142.357370
404.926251
436.401211
433.439221
560.690336
437.085832
87.309113
554.101296
126.946941
482.033280
481.642626
326.878011
1079.521885
1033.542241
137.430633
286.116715
434.130659
436.357135
430.749273
481.687559
1237.671443
478.918977
442.222914
434.378842
436.693390
142.605968
382.720749
125.888033
436.918166
601.432315
522.519190
134.195606
529.516177
361.989126
1071.367543
418.512031
456.255068
443.235305
201.245922
490.176527
526.375819
561.718717
562.482849
550.155024
432.893547
455.026562
446.150812
574.301267
484.215872
436.407153
438.748219
452.225875
460.744123
437.479664
588.447726
456.520067
469.409426
434.587940
527.652471
441.615374
579.686874
509.255094
387.130512
541.629167
584.944056
427.224837
440.158489
125.200386
65.855260
199.322941
280.628712
443.466823
442.930356
141.132974
569.529057
425.016854
484.248854
604.439924
425.338324
419.575576
452.076706
457.384814
534.847052
434.388446
132.650898
169.955175
174.260741
441.996497
57.142582
454.360543
437.024038
296.636355
480.585452
92.014089
445.842756
576.444314
440.492997
435.986432
434.392536
535.534413
534.617493
435.571350
504.948359
434.956283
264.700853
443.144204
47.868578
421.217034
486.503638
512.781527
570.402266
437.719506
438.065091
224.092155
286.408601
418.331737
534.176106
399.761207
434.712123
437.372779
575.937974
434.316176
422.198304
437.753855
535.936039
439.918836
552.679153
246.292890
473.773069
432.911289
460.598745
443.507321
65.585177
125.394022
111.006452
298.185601
303.371670
906.590840
323.196384
598.094564
595.472202
175.723325
521.070863
513.371917
431.767800
434.829661
433.796693
578.236892
588.568675
436.964360
437.295910
424.350406
437.300602
122.581859
169.782314
549.395657
557.579117
440.654728
156.724906
150.959006
430.865730
480.847175
293.248304
580.768374
438.414585
551.675865
503.300945
511.799786
435.346031
556.527244
434.664952
439.038875
432.343401
1164.334851
438.797257
441.824111
480.493351
119.359639
378.524493
135.892040
444.986018
161.300528
1120.991930
585.985288
62.305046
588.227769
442.983765
528.240976
434.164723
267.510499
427.676742
434.900170
123.309603
94.731877
433.839698
601.355471
433.787744
434.885125
127.102527
1073.313180
502.839566
164.435011
311.994885
520.946978
436.160451
436.523144
387.419991
462.491271
440.011785
470.553871
519.701660
530.434303
519.491049
433.949803
554.494228
435.947015
434.607930
440.878221
112.134808
527.484034
526.350483
476.788502
516.737528
433.110430
421.559404
358.633306
558.691643
561.616426
432.914992
433.295243
435.251428
434.819091
570.365739
481.331294
421.284400
438.366601
540.727251
439.702866
433.041513
542.582523
453.888049
575.370915
434.714196
434.467390
45.464068
465.458339
438.726099
434.919003
56.710264
178.673762
429.911476
434.032897
433.452426
434.988426
434.445804
95.878259
909.558124
315.677512
51.421077
492.726098
37.159473
22.502505
26.774805
418.431343
588.611240
565.645292
449.581856
435.386148
576.363121
435.060766
432.747574
575.401863
435.727837
432.662368
345.586663
497.393359
118.174745
441.116632
600.829338
1170.542763
435.938946
500.826248
170.375903
584.951908
69.118237
445.402342
470.350482
429.323062
321.541913
435.055958
340.877039
433.146984
498.302266
315.241671
434.595265
510.786319
434.403762
528.038465
429.831000
1128.509589
227.970568
584.214154
434.240463
433.552190
229.405955
410.230669
406.693704
436.697557
433.706343
441.910382
325.250422
488.314584
178.481629
434.189777
550.683158
556.795483
433.959775
69.878911
548.597834
433.555554
290.997678
440.717024
433.828868
390.977910
112.695121
415.539368
93.152594
531.619083
425.922602
420.227630
433.047993
433.395372
543.339174
1044.533098
617.584490
554.843274
361.796551
434.578668
436.282554
310.557527
434.404225
437.787002
432.548118
442.228252
433.359932
577.303621
154.194516
960.259165
434.382668
170.229754
134.132344
158.244343
1018.201750
437.754212
193.178743
436.382204
433.848125
221.500775
435.843274
253.880144
435.858444
434.283240
520.830792
521.101616
337.147654
551.945358
438.296769
437.145247
249.800601
66.285111
433.496352
265.072920
528.649100
422.967498
82.052017
450.561955
95.459762
481.001617
434.229477
546.357119
444.176621
438.194758
433.985890
262.662978
541.613557
534.390896
434.332836
426.447109
487.877917
434.634252
454.884572
432.020189
449.423358
1082.964959
441.598164
433.340505
433.339588
500.438265
390.322084
435.787923
550.811751
107.228078
559.386007
375.813205
556.534316
433.405175
554.483424
150.267336
317.765985
532.538316
552.616599
433.026962
437.627115
555.510418
419.235719
431.633296
550.085199
434.018965
374.514209
544.252110
85.108514
166.330414
169.355543
461.497566
162.062644
1030.896572
382.639837
157.016409
172.130845
44.532619
670.413613
430.776846
434.612065
151.472500
1230.790013
144.387101
137.014913
433.925343
436.651485
433.434765
248.603940
1180.998230
430.250308
433.383856
436.749849
431.914733
451.474717
433.360130
121.981528
431.527119
580.550926
434.280063
223.402710
1136.944412
61.327183
59.935549
601.836447
184.378611
434.832757
131.109865
125.785096
552.591863
431.724749
432.860953
433.606755
256.624912
526.610360
348.361002
532.903743
59.890194
35.529698
252.445476
18.183728
30.370181
455.358546
533.631993
557.749451
555.742377
430.787072
431.288342
548.036868
433.381226
433.394638
441.602368
592.573188
344.610960
141.963222
314.033998
433.496454
94.231103
971.046597
546.344500
536.334666
433.434898
437.149962
489.419196
426.673400
430.544016
1071.134243
146.806290
445.691702
113.353179
433.381181
435.598188
431.019817
433.534001
544.036542
1273.364102
430.029053
430.749983
161.156738
433.338466
560.289099
436.885463
423.090281
430.965610
425.999086
435.278908
425.995257
602.858110
434.284009
430.439352
433.028828
117.899183
566.734024
433.149177
362.721953
433.153371
433.482903
390.669371
389.640207
433.318953
431.363458
510.682402
432.395294
495.962018
431.348565
436.310720
433.380371
436.009397
434.260310
453.451115
431.158063
170.365129
436.653899
430.895361
433.358385
257.488517
430.739853
582.139323
432.822050
435.987416
430.844171
456.473075
446.088394
145.934720
148.898746
415.346447
111.105101
433.469094
555.185822
159.819694
538.515835
542.550132
432.641424
443.592435
244.597079
382.927957
683.918146
153.891568
606.629099
16.476678
21.249062
17.907949
62.962761
760.766927
17.147589
725.676119
25.767272
128.155476
176.806647
14.563458
42.669361
566.616101
642.219527
105.195230
431.332609
545.833904
433.342995
562.042975
434.636537
297.758609
431.742313
488.434015
436.454078
1187.444696
151.616740
429.154199
433.339693
564.940669
436.200902
406.782944
434.980301
567.508100
432.504685
404.598258
430.889967
301.849219
431.077201
123.953312
434.034116
43.078280
519.565676
430.408541
391.222572
430.985395
264.529101
65.392408
443.076099
433.217416
549.576432
554.156401
403.192000
433.601520
431.949521
104.619742
429.324154
433.363913
594.671657
105.616635
291.432109
430.439413
430.833722
432.054630
433.242496
432.402939
435.293850
298.814641
568.806575
433.356658
431.573824
433.469026
433.383867
435.756580
354.974760
536.826952
432.384735
430.396876
429.791626
376.200827
351.862229
434.608627
433.301267
434.100016
109.862475
402.280451
430.594807
368.578341
430.069933
438.927122
527.145735
482.585277
147.916378
527.202237
137.072691
529.544429
532.529751
564.505085
543.282739
453.167934
556.544347
355.890461
435.159467
60.198997
434.106991
363.698798
545.733008
438.035764
533.170879
556.816067
442.629533
548.528526
433.680315
451.662846
545.662410
433.245678
433.338456
538.946546
552.966445
555.336809
548.228947
526.869147
545.806308
539.346605
454.204335
431.049773
533.602568
560.070061
571.277631
552.698070
366.084476
558.259470
433.521756
539.699040
552.535738
559.498215
595.979082
87.713464
562.018101
551.122045
379.437453
336.797193
547.107102
492.820395
539.586385
533.022198
567.721543
575.810263
572.676653
565.377282
95.192538
433.393756
391.530725
345.585994
1094.081778
119.244188
569.950222
384.257029
433.554358
528.595622
456.613250
95.272523
494.387023
496.412281
557.604235
391.636395
402.135559
390.047693
538.683541
440.762681
440.793485
565.699320
434.694502
550.022539
358.354110
99.923622
84.133877
433.359554
433.300442
597.012077
542.996961
538.007881
87.890554
543.732840
549.665927
91.179374
544.728562
100.807280
462.865049
535.104269
403.479168
563.167051
95.375198
538.388821
543.789138
556.496029
92.260864
559.734951
417.833405
85.737880
89.020656
402.517200
548.117257
192.707977
95.587316
81.753213
442.168291
77.567982
433.345550
187.645737
443.673140
535.651465
555.767113
82.394354
442.917451
546.897951
445.012971
444.244744
441.812342
440.297890
92.936719
196.580259
442.052654
443.136424
450.794719
446.541315
381.358987
443.665172
543.731216
447.687459
546.629724
554.104284
447.517865
445.736444
548.232318
450.742907
525.655144
542.715039
524.008783
558.256284
452.219997
450.214797
81.672510
73.352269
204.101200
554.734511
448.264978
449.510892
532.444940
210.278220
447.282057
545.757444
548.891838
400.471973
452.424448
445.774409
394.911699
205.563171
404.589399
398.586288
405.560843
551.082625
427.409286
411.680436
215.982818
412.274272
564.183020
435.756517
422.000304
419.269554
228.133735
419.627763
429.413478
413.274498
421.732439
80.231450
540.977293
197.060328
445.438965
526.519894
531.807198
427.497203
429.406209
526.244976
223.891481
423.622391
235.744633
532.069100
420.634306
444.394596
551.354038
537.086287
444.405530
185.595779
201.846000
446.587727
527.269784
220.771263
448.526804
541.613530
536.373092
74.947731
445.229843
450.880238
414.294983
542.036507
446.082210
446.313488
541.444078
228.629169
527.578227
445.068662
473.757758
445.347811
467.768502
461.597914
446.916443
83.369897
544.767021
445.349128
444.568625
472.801825
465.483787
468.311173
447.273813
458.263634
448.178899
547.196407
81.522489
471.652722
459.090677
538.404864
464.615685
443.880072
462.277470
451.589390
454.778462
90.344197
447.679590
455.185668
90.581441
87.670591
452.083114
449.237914
85.950193
444.391138
145.173194
135.553336
246.144751
126.328426
446.562581
104.401921
100.028921
109.824811
105.866693
115.838923
112.326470
425.127229
315.462017
122.463287
274.366553
267.918266
311.030263
395.108833
394.767861
400.850646
457.543945
425.901319
446.272973
516.760392
444.552371
392.801801
538.402543
134.704083
90.108923
164.956670
455.290778
164.556263
95.208931
175.286216
94.788143
175.445379
186.177516
513.539728
186.895924
534.767820
525.965366
539.702396
146.088886
197.594452
291.676002
154.262681
508.825370
334.796591
544.631691
557.119469
555.965836
268.834169
538.349548
523.286576
602.209144
596.576588
426.067602
136.698559
99.542315
540.084574
511.674340
532.466207
567.677850
551.756927
575.903181
255.006464
582.160033
612.929298
446.243774
221.824757
224.167750
618.860791
573.516473
534.647053
579.334499
588.400791
211.307568
93.422168
209.493330
198.865870
260.867055
585.125229
277.694484
237.387702
356.197085
234.536154
247.569650
250.908100
594.614690
561.939464
400.638320
590.876239
264.666412
406.528981
306.728059
514.756072
516.472282
375.765575
458.570919
319.781876
348.658356
526.573858
443.440752
438.838404
362.331965
382.420248
446.099334
446.787545
393.573816
399.159136
181.088479
419.819650
520.671959
190.332217
388.911130
369.434761
155.217017
144.589171
200.551091
451.193040
469.392922
201.740083
412.362283
606.897232
242.480368
448.423727
472.700592
211.863619
461.396585
431.048439
544.226694
621.922571
164.516228
451.227696
628.893289
502.876025
550.098916
624.665791
483.387470
619.723231
258.311132
651.291013
617.752083
621.208658
563.376894
643.204232
222.337346
443.724102
608.042022
480.609558
615.399236
611.250674
675.845152
153.252250
522.551708
528.609236
569.639670
600.785166
146.654440
614.195646
540.665580
592.452115
612.175380
580.997027
623.872131
250.434844
616.871646
510.370777
91.362587
629.127468
618.154067
176.859074
607.727342
252.369474
604.039048
616.030367
670.263737
607.757693
611.676859
608.951455
612.996474
600.195187
552.648872
604.750640
596.207579
621.947942
612.573169
627.345499
615.280779
558.612398
166.629993
493.447473
608.899428
595.995977
605.761579
491.180666
626.383928
610.044729
605.903315
175.153489
694.891104
175.869843
164.945598
554.290955
591.601239
587.834764
612.155006
586.114626
98.013103
507.323774
589.868476
103.066416
586.420777
198.980812
282.209536
638.291930
618.588002
189.592846
545.618901
541.260684
263.644845
247.554653
536.879808
238.629583
276.010633
598.200149
447.155801
631.153746
633.419847
181.477477
571.089615
170.666636
202.725487
597.102603
284.978604
719.646313
629.531737
577.130216
518.922944
622.216812
560.482469
76.814090
573.421460
213.494718
84.440923
619.429637
624.060457
706.215161
342.753839
684.223749
288.943012
552.876717
544.588074
602.297867
225.557182
602.523404
235.406731
136.049742
523.380234
587.153877
584.056335
187.453466
186.084028
179.022203
168.696299
297.627525
301.907358
217.149644
620.564709
501.101719
559.763632
666.041816
433.413857
314.857959
535.939294
565.536884
536.022624
555.695094
505.817514
443.639175
623.025227
620.705943
508.832445
214.210022
608.547214
650.743551
220.449603
310.286473
241.305391
145.136710
647.885453
601.855706
683.431310
232.113458
340.533122
600.404880
561.370857
232.106952
347.883605
613.201745
243.242342
508.036171
372.213780
128.810836
282.966011
154.228611
384.043309
163.852309
586.601794
618.147431
377.844413
188.154462
591.321413
665.884358
746.635908
365.621264
576.796908
577.859366
200.500108
613.970398
259.896510
513.600918
353.171359
467.988012
617.656995
261.219355
163.609135
595.925168
567.465805
513.513110
574.555229
360.148386
520.362536
730.494915
174.226504
537.382757
426.182112
327.896315
483.650347
476.568099
228.488768
680.616697
444.584255
776.792742
532.680518
395.341780
507.056891
519.752161
631.175475
69.946165
502.669991
537.151048
720.195921
540.520229
478.684546
174.644963
695.608902
563.689070
406.868498
501.529775
764.777714
650.230393
748.024858
272.386640
591.751766
588.128557
187.788991
542.602880
750.742700
254.129676
496.492010
267.129504
247.500388
528.024065
82.151005
518.625627
557.063447
542.112586
532.833500
248.666167
491.002123
509.067247
520.093964
547.149752
614.369525
532.180572
412.818660
588.630888
593.175872
532.089273
620.751217
283.752857
417.805656
335.458383
566.703636
600.051704
526.662149
776.796272
261.689153
503.252532
448.010560
256.726788
532.504533
528.154377
520.701143
547.331247
537.410229
176.270752
547.722144
445.247416
551.761946
294.261094
759.143138
447.285997
695.856330
599.906086
576.773495
453.148963
598.141175
579.231635
537.942116
550.871169
561.826661
423.813644
322.911527
735.973671
708.740803
583.979734
784.754465
596.756125
552.264781
706.278097
569.555400
515.911703
548.046249
78.740283
450.754875
587.354458
602.548311
621.762343
526.932003
594.411000
73.711950
485.470665
630.990993
332.980540
495.062462
624.444354
466.361439
546.968078
594.625848
588.581828
791.571969
621.359037
74.801155
489.373519
635.381344
652.589189
523.445875
766.547880
587.264455
445.475204
389.806585
495.149988
277.478367
462.483581
545.527953
582.119271
475.047605
324.326443
428.393740
617.277876
177.038551
343.458478
623.642672
459.014864
80.096345
580.676387
237.885453
461.656643
579.562245
644.856743
552.736176
643.801962
528.446713
314.906647
267.875411
474.320263
582.826119
772.905736
434.435381
301.051604
280.245501
89.482233
389.685273
93.774064
472.759320
516.116143
549.297120
400.864953
614.883643
228.705247
649.484832
507.609631
551.713879
480.069461
526.486803
444.665305
543.586098
589.367005
562.680221
427.476938
654.332671
452.392922
618.271002
557.639928
249.531205
271.627538
696.085890
471.542391
617.739141
73.181158
260.845319
446.073692
583.465697
454.277861
556.344359
593.193155
655.933389
401.474006
487.281123
600.649703
759.155368
473.320058
684.491694
593.722512
523.083666
319.863617
650.139335
438.611194
99.039186
644.301427
363.290836
613.080031
77.420171
618.551163
596.066398
508.858140
594.744751
400.072777
533.041733
491.890919
590.873147
308.129795
461.633556
575.472125
435.772929
797.192270
95.093144
554.531041
364.028242
514.092666
591.226479
493.259297
130.293442
156.645371
602.412876
149.908002
589.794642
465.295505
824.981850
188.933706
568.770262
572.529731
592.084193
741.458108
83.807862
539.704777
250.110751
562.428753
553.176940
767.750415
539.679852
499.714141
104.795529
356.248465
532.730449
457.260307
631.057472
787.760319
466.874647
806.634487
539.387440
479.062691
514.053728
112.326764
533.138720
727.951629
139.611103
138.133267
409.509880
273.671900
122.694113
646.805058
404.863940
747.654666
547.347751
614.596038
263.965246
101.213813
459.221233
429.452701
615.903888
68.718137
586.819132
555.796093
475.461030
778.172619
498.145314
468.718794
529.838844
611.791700
566.694695
446.582688
659.047657
624.935885
439.202326
565.317556
548.233899
646.823144
127.664500
348.940077
604.805494
554.182384
655.421099
446.899988
642.481593
595.336229
605.895441
74.998572
578.984602
590.907683
189.044799
658.927576
96.955137
805.683871
351.809613
454.294719
762.149388
120.121458
645.118563
259.746037
440.794524
374.717595
506.087215
606.357125
359.086977
577.220510
336.380108
431.497859
696.211818
141.137973
417.506188
84.372522
331.494636
523.325610
523.193053
612.188419
414.350396
559.335262
600.850381
652.394179
648.917072
574.232514
783.410717
406.600328
735.783520
519.188503
454.549897
353.024946
519.092872
439.481676
469.871692
89.187422
799.982394
640.494592
462.096600
532.604651
383.248674
445.446609
412.769304
558.479033
518.254826
497.791322
504.220173
575.275263
579.507742
93.625991
560.229858
125.084013
581.985198
166.888279
504.767831
465.148526
637.378594
853.667997
481.880727
623.933016
496.179868
543.186203
486.974135
583.193691
570.445914
560.856430
590.313473
560.507869
385.077805
567.013710
563.053643
731.195077
601.616997
649.210418
418.600917
614.668766
84.364252
617.825166
607.015824
612.515446
550.404563
618.667655
564.011847
600.415367
116.417200
472.134648
508.406732
493.747041
751.505300
630.598683
568.061174
430.624282
514.435400
769.653144
661.593627
768.624463
176.210786
73.783027
443.348564
787.228319
92.045362
725.546644
215.809294
565.244812
528.858683
611.589164
465.964496
493.406563
187.229292
131.421298
423.130234
547.373848
571.644767
115.011409
830.973160
572.924644
826.433316
680.476771
669.940281
327.748359
622.409840
65.956990
376.654470
565.928923
558.535290
63.153218
643.853133
501.875444
558.881460
79.934941
507.906052
617.509713
271.252985
342.594514
522.091388
515.284681
176.773140
258.375477
485.647892
570.931260
532.067773
610.297348
513.768647
495.970153
605.842023
176.458067
112.170753
600.027870
341.586993
409.987421
200.827401
593.186977
123.408967
642.429793
625.078740
425.625703
186.179145
595.001897
512.759059
552.619561
193.766184
277.373927
502.498273
432.755168
256.099153
463.883848
526.859231
467.520735
263.158657
528.602867
344.627250
622.685750
379.193400
625.851001
157.341053
624.342225
186.019146
426.955058
84.964054
448.439619
87.600031
565.044634
441.929912
1037.324694
389.138711
768.918427
130.896452
520.755427
132.860269
109.080266
752.948748
517.389558
513.468661
467.240765
273.823010
587.601864
470.108805
165.749389
448.731587
102.424386
342.873542
637.680456
371.808598
100.890122
603.395652
71.148250
360.211725
199.626985
451.779217
512.057477
651.656813
534.193036
476.165694
468.702787
369.060347
152.563144
293.728209
332.487202
519.871047
607.188199
471.731593
541.489943
437.406029
338.642274
395.109116
551.399451
508.471579
521.632414
343.813221
126.356916
507.929701
179.783618
451.480366
553.941845
573.168537
526.091352
249.817184
460.757371
516.532095
927.039910
496.717267
407.252974
522.105102
449.319262
280.013269
276.649711
552.623533
379.208580
111.052128
546.964220
213.027442
331.353242
495.158498
113.049247
76.763985
194.510636
444.157105
608.321755
769.796290
639.765437
378.842344
530.796193
99.340188
568.909975
562.279976
412.247145
247.627323
549.596660
337.434159
411.513781
451.342582
698.964379
599.286050
563.947455
740.593598
129.443999
116.536023
572.983004
674.169982
311.077843
642.694999
751.772587
408.324062
149.806252
687.227677
559.874297
478.870390
206.594308
377.165297
330.579536
599.949260
791.564982
636.939867
395.186312
538.113868
571.299893
549.453405
1002.279457
347.897479
608.723520
557.755692
684.620857
204.122746
124.430514
540.472638
567.099032
603.303144
366.689690
532.065390
576.063172
518.765521
197.255259
600.260101
569.506435
144.775709
166.063654
513.206297
569.160376
523.795259
512.632373
240.360696
454.485961
532.447683
541.116801
368.913986
575.787975
65.425358
1035.053693
594.483422
482.377926
547.155431
393.987160
825.480463
564.105085
424.042454
589.142869
511.885683
448.106388
226.722939
534.493749
569.419117
560.403467
1003.483413
342.813171
558.447877
347.833779
572.180632
536.367966
170.888030
225.437349
122.287259
466.261719
559.863755
435.100417
173.559871
530.979227
151.514234
645.709995
322.808667
172.422381
83.134108
479.949101
682.248492
266.538424
491.900956
715.730289
477.282028
414.230192
202.815217
566.656220
469.017347
511.831817
346.777301
258.208314
392.195135
874.446976
903.469104
523.040491
1155.649503
574.512650
598.422887
101.086392
457.649677
74.451990
618.879468
364.407052
500.608525
611.979615
101.386652
549.669609
205.778718
535.865760
663.378230
386.544952
577.502413
88.986802
573.400395
546.149308
630.531025
668.039725
87.139290
509.138168
652.056689
807.345901
542.717615
614.161378
649.002444
609.136646
580.499727
216.635306
502.190205
187.884699
644.695714
532.887689
723.217156
246.689941
785.334367
342.511693
505.420870
535.643551
374.852530
508.576186
404.110604
828.201493
113.749626
97.052751
468.647226
349.741888
370.927228
429.113547
529.884656
107.179716
109.493118
570.607377
540.645504
335.109750
560.426253
626.912465
506.249385
573.299514
465.561734
589.121521
608.735094
576.128479
572.589289
634.886377
404.245213
749.860980
571.207477
310.594482
532.157930
110.046900
333.458402
638.872343
534.647400
105.221075
645.578866
423.975271
575.718479
518.079631
582.336874
573.541457
537.909752
739.667320
473.567415
148.826885
469.175247
801.581245
75.792163
661.283977
349.484560
466.842375
387.002048
516.669652
524.425340
549.681512
598.313911
542.229643
405.120104
566.289339
808.351869
560.660728
600.608273
742.949684
784.130766
88.416575
102.253258
590.989359
526.965988
328.663988
517.875166
672.793103
258.272897
556.022402
652.145155
512.807545
749.249422
394.211854
509.209145
534.819282
627.035879
82.769539
565.349161
140.747339
264.095623
242.220981
436.279256
136.766807
91.014531
578.887709
263.235540
563.949879
572.044285
185.369261
194.403057
656.656478
599.441383
252.626952
838.614220
197.520392
137.584898
514.163076
729.156533
524.784931
564.921670
615.055924
717.340172
86.559716
691.956497
366.989930
204.989161
309.782521
517.295337
604.109335
318.320923
597.358511
437.120798
282.539388
788.027905
595.811166
571.822161
683.700820
513.977680
580.238737
86.327654
209.056572
317.712413
615.407259
871.674508
514.676038
301.552185
642.973270
627.666505
903.309596
344.616959
118.647921
202.238878
749.713987
334.524569
407.738447
885.987690
472.849106
598.934192
440.804806
359.849061
199.020212
210.171032
533.319238
389.806348
512.695292
126.048675
752.602214
617.819755
78.787474
393.115413
540.995824
564.255555
430.244838
529.085948
117.061326
582.227917
415.793945
536.070612
530.316933
553.679129
522.736650
200.017198
389.452821
559.266930
74.057615
631.934196
396.268752
317.928476
537.185759
637.582012
656.275262
542.870759
705.848429
741.030102
522.725710
354.268199
430.709701
267.828240
487.991151
82.995089
769.613146
256.237672
663.156630
503.351656
578.960942
598.104546
223.641728
100.245125
512.808960
576.498508
734.833429
638.081078
538.989829
554.061592
612.990473
513.626598
123.173089
326.615490
802.756474
318.071092
593.774791
320.928773
568.591442
110.345632
620.729219
94.767411
605.423139
78.691191
574.593264
82.506317
528.584716
531.389141
421.198718
66.043493
858.743925
179.284224
96.179391
155.712783
552.983808
197.001765
263.204891
114.366019
557.598611
556.915492
305.521133
296.585509
415.551281
1067.151266
1119.098376
574.487149
685.968193
722.352654
217.846771
552.337197
594.120135
536.534734
437.613575
354.411951
575.903546
484.394961
388.422939
586.278640
519.829304
532.576786
499.195472
517.246398
599.917671
776.397077
291.630717
563.320964
568.293094
877.045590
594.274556
402.815675
328.006660
224.154399
525.326678
600.812373
869.784611
722.056521
341.803664
538.499975
873.637385
872.223284
211.415200
556.040147
551.551964
678.756490
845.116751
805.984742
626.409330
77.898297
697.596735
592.872983
260.874863
700.427043
108.432238
733.840862
352.731988
592.905735
260.657452
216.548005
300.753756
571.077555
512.962550
395.688765
505.469053
583.463079
429.301053
364.050280
315.704348
163.672291
668.287176
436.065912
866.836472
621.764847
180.442052
76.164529
571.486780
68.195790
672.951773
437.144290
219.466222
91.158275
235.349912
504.117633
113.566091
619.703329
117.343966
633.140182
422.484930
435.419531
427.564770
625.960737
121.510926
415.921717
575.649042
436.419324
344.003557
490.930313
400.766247
589.875707
347.597625
686.758387
326.778293
562.928074
470.793432
156.047324
297.138871
309.855466
407.460013
432.456829
532.082664
473.699776
437.353813
521.771151
873.029379
307.158534
737.568547
659.068512
82.268227
236.835272
593.996585
408.618502
584.495213
495.190384
106.266459
523.153830
106.597248
735.679687
602.996773
405.712354
537.221819
599.767666
735.706195
176.617492
622.674694
458.700788
546.793339
849.999237
244.587688
250.498694
849.208879
126.231407
356.579527
546.183769
741.861074
599.868909
82.613782
345.975152
582.178744
371.532687
398.124124
798.495737
667.186374
564.556567
505.243148
149.616622
709.546019
456.201411
148.131562
157.084993
463.948758
366.170691
637.381748
498.503945
414.489573
426.581181
480.840127
466.570352
688.599128
111.437731
462.251548
648.993709
658.089138
384.087130
630.175452
108.289595
445.081700
566.905699
499.534193
617.159373
716.530869
621.821873
719.438918
614.349899
363.497627
271.741868
129.043769
578.180403
243.908449
253.798452
92.362213
516.551786
563.726932
606.685512
574.640141
750.765920
617.552037
409.287993
511.000599
111.394261
946.291951
683.367115
487.695456
612.591194
97.307128
185.868010
563.286282
388.938548
165.707773
484.861967
185.185268
513.624149
673.516181
413.465374
253.294827
180.323229
612.266988
456.563088
663.261827
590.003298
245.139712
384.334155
901.778532
621.839465
570.521632
132.383009
158.308199
369.031330
741.085426
204.540770
639.284916
401.578388
576.370476
731.273394
589.963013
600.577223
497.975151
116.653107
751.744012
897.229980
898.629629
527.627696
353.269547
221.642554
541.869755
394.291612
77.737248
100.079448
496.618916
70.760834
572.018053
257.506879
137.807283
728.287267
680.142424
721.371054
573.956316
251.646232
480.513542
622.721634
797.413166
685.341358
806.901481
387.124191
82.072091
312.086977
231.172999
568.136151
608.997217
329.841412
605.271271
223.495717
566.112664
620.620859
120.545728
665.102241
307.844880
786.498781
555.564658
493.561809
595.289722
442.681671
320.201258
527.849255
498.096790
588.977250
577.452929
101.867854
628.441384
633.474833
536.778890
560.041530
481.373232
144.541833
278.326719
82.568236
662.049945
523.670760
770.949986
675.084210
106.000358
318.836801
635.359360
196.978102
440.577593
64.485938
111.717647
89.516397
138.068610
96.991081
626.248383
758.225414
211.352099
468.053787
367.642422
250.207334
268.337902
612.009376
560.011488
523.443526
239.006220
562.896901
552.878668
702.724201
224.763199
408.054886
366.485089
124.707697
504.264007
574.228350
421.657201
438.682688
603.367786
592.944874
615.693895
746.621307
1033.154985
644.077741
90.566514
567.553978
413.408897
511.281953
623.010995
789.931543
463.815448
274.869232
512.648833
103.622805
577.215989
262.749081
526.806579
228.089236
284.226252
497.310061
490.916610
597.959733
228.335928
480.677027
217.109778
643.541578
475.460145
510.946866
597.298229
510.942773
499.927190
523.695428
396.941837
604.124630
483.615240
787.688707
437.828164
610.108569
482.505931
359.047272
79.595728
693.671555
551.765214
99.990535
766.467267
77.767219
495.504795
531.351295
105.912762
230.218203
489.935591
632.929260
562.379728
529.235682
585.165132
692.688103
594.833486
449.713426
130.628426
81.034972
601.552818
348.127949
384.573079
604.877166
847.166985
93.797534
605.135930
554.645428
511.512189
567.809233
551.776061
71.864963
283.019051
558.623302
494.374324
457.865021
66.013122
71.555889
573.636096
602.831592
529.296687
587.167100
374.722145
324.490688
324.817403
594.799332
650.110471
938.106453
301.324254
386.592303
275.431977
564.845556
322.839236
397.166095
658.841291
689.936368
784.267193
520.500854
200.291365
183.177087
995.807981
377.171627
680.519550
309.256154
230.153399
620.290253
733.161486
803.704068
364.225731
646.475420
554.702764
510.626288
522.281643
513.306488
880.618817
421.087628
122.214916
937.473571
807.918123
298.658228
145.819807
438.956917
592.715309
639.346288
161.496542
608.911896
594.752782
355.173969
405.586449
610.895052
83.478318
520.354330
111.385564
187.400245
500.707048
837.814531
389.551135
581.232461
346.861171
224.921053
469.750866
606.165853
124.017135
697.097465
615.570493
667.042573
137.611620
342.950695
404.343011
381.378285
615.091360
533.194459
584.994031
366.079633
888.279924
597.607451
501.763539
592.268679
472.710690
446.735825
516.866319
904.048052
181.641339
838.441252
685.097842
164.492882
606.606531
695.172627
517.856990
302.918584
325.658782
467.506404
249.557769
420.805425
576.846015
588.101623
587.526447
590.971831
400.029636
532.381143
209.771251
547.421446
119.722273
328.910249
166.041655
589.931925
376.160253
622.815849
608.515298
445.883030
191.979723
548.418277
225.948776
561.422470
264.959280
250.803648
477.277847
643.580686
528.430792
471.168899
536.454055
602.118332
594.618426
331.291159
650.009668
609.027319
412.814280
646.436813
903.320534
543.432268
608.906964
484.030861
602.132648
903.105951
549.014719
387.053308
137.269997
447.649453
491.239474
615.568814
428.150571
136.704946
96.034883
437.071565
556.499714
911.843395
80.992877
675.373934
353.860084
586.378418
434.204445
665.775130
646.955278
809.492311
73.884261
580.453852
102.622165
551.889794
609.073560
449.629128
250.543731
420.427372
565.014243
655.887064
565.944686
587.341801
545.388881
243.216160
632.368462
642.443282
102.568201
407.632492
628.670179
481.407308
898.419040
506.522100
519.394987
215.167286
304.733273
470.445814
85.605122
124.042269
594.747694
403.852327
601.854337
126.601169
207.568445
327.495619
104.298458
516.481895
598.485640
508.549518
736.499678
919.503381
463.772103
371.370507
118.107930
597.185984
505.942986
523.460167
318.164999
568.496323
97.347357
611.559656
325.102791
491.209576
608.195709
195.910010
926.974936
365.084419
585.727583
759.753967
614.546392
602.975898
621.023821
597.808530
585.587566
579.650186
150.149286
470.306990
571.511118
603.966794
618.793145
597.622696
648.997031
97.947514
67.456873
565.505711
655.492283
392.171324
271.703774
521.465015
587.564480
556.222592
628.710047
515.596766
571.503496
548.058131
543.053695
611.923205
552.951125
805.351910
227.863569
100.940292
590.719759
338.139203
206.132191
98.588073
114.507460
532.135139
600.766091
868.771325
284.419228
82.069068
457.622795
101.002338
106.613937
102.934107
67.127336
232.672120
732.769481
1046.575308
178.189459
441.424781
141.956407
437.632768
227.374543
87.755580
321.344893
586.999573
683.883433
341.584318
70.964087
850.584850
593.560036
392.506624
504.245414
582.226905
330.271687
67.915529
807.729165
354.608645
817.967539
578.928699
123.176308
250.553186
488.205051
582.721314
488.630171
843.396262
306.869867
508.329784
622.014679
87.583178
497.451699
117.086543
528.138776
656.515996
407.278407
279.430157
494.002261
187.845345
324.876787
311.660658
508.436548
206.348721
215.612608
240.611342
273.256240
581.383256
390.423441
278.597794
437.470250
75.905694
804.723691
193.993241
710.701503
614.639357
769.281636
529.751787
499.409580
99.913895
639.270279
87.000246
445.709798
278.193310
508.447371
514.764278
651.432788
336.802601
508.245624
576.603434
105.591802
492.947687
693.194529
234.404988
642.922922
384.921769
588.984594
593.659293
541.607976
132.027880
182.585371
511.124986
366.525515
505.537653
1058.315895
400.255837
410.604976
463.202274
764.838414
488.513275
594.640979
668.196026
736.844881
89.561506
575.444324
716.138360
423.491087
698.752565
517.282360
736.921961
546.643046
217.056109
595.404300
604.624121
595.024446
474.092734
194.097538
65.709515
423.552647
591.978737
323.088158
688.497570
523.571666
616.653766
366.049445
588.436025
609.041446
611.345389
352.520325
831.435161
250.530853
93.347993
275.443795
851.528166
1040.868068
590.701822
530.939533
613.140149
408.217181
90.778215
718.134737
219.078212
221.655169
562.487483
436.822370
529.047562
97.387551
438.909216
510.148573
73.708824
626.651143
233.593843
651.762511
544.786994
75.234107
581.552575
129.700346
471.179144
614.660045
400.433794
494.605086
280.253162
494.330054
127.228770
245.934656
611.324319
165.864933
552.222753
563.218232
760.225961
498.393751
611.767864
509.699914
489.995954
537.080075
548.757466
442.540280
585.826506
512.407844
531.632509
392.904223
92.421512
518.624693
625.321824
289.248064
657.504879
357.690527
240.251419
648.980364
99.863144
144.929470
228.706847
535.936445
384.149359
576.451784
546.865469
101.034613
90.846684
563.575343
738.165884
150.464930
587.555210
287.439221
521.415809
367.281739
742.890036
300.966495
518.996934
432.442167
288.556545
509.351300
505.625913
88.437051
504.337131
510.991594
630.676468
531.063565
537.854477
910.025073
123.733518
290.978182
539.197647
580.607560
487.076277
460.486239
244.010616
482.999166
633.906850
160.135624
529.484540
506.487991
546.420504
214.073956
214.250267
153.868330
536.608689
673.336342
588.602417
197.971771
673.064096
87.929995
505.893981
138.244262
89.390943
93.559904
698.732678
354.110659
680.020101
573.906850
635.818180
486.426522
586.928422
112.081566
86.596485
441.644410
631.383509
926.639671
66.820252
106.660255
287.782668
806.479327
554.002452
108.715060
488.452449
442.817522
114.734894
87.195971
452.093806
92.677085
505.133752
75.921902
577.684370
526.485480
194.909369
345.205966
498.546957
555.342866
569.716769
557.372757
720.262926
407.761800
579.162904
616.301741
569.848131
544.375396
101.735966
710.975334
102.083495
489.853207
595.632113
636.250070
641.252670
197.038860
507.315682
571.288106
620.680147
443.313599
518.312484
107.193505
550.466279
495.622676
130.456542
252.001133
551.710761
582.381798
401.726988
657.000996
606.864829
932.444747
454.786210
266.647527
902.149406
436.662906
74.667861
827.581614
210.642390
374.391622
581.883102
407.225498
312.077160
816.209676
546.406908
255.367320
507.500691
786.808691
138.034940
584.457692
154.914265
575.060081
91.639780
120.507927
474.987613
677.996490
379.808545
486.649354
848.811380
502.600207
320.800063
657.006244
518.605399
629.864174
875.518464
347.562951
514.665495
461.662820
324.356094
91.552896
310.109404
451.786242
299.350447
866.061111
490.135546
313.088449
529.637527
604.715287
535.498042
476.777923
592.449240
522.686399
765.631566
122.423229
655.447896
502.216895
602.477816
171.583745
521.201934
579.045769
100.859209
742.832780
413.915567
598.549405
178.243190
538.535226
322.526726
540.183728
494.857523
578.645380
555.652759
94.775780
550.674165
567.874516
647.134083
512.620669
641.637869
517.840898
477.321999
287.272576
905.637203
192.723455
1141.821760
699.194139
102.554266
536.704336
69.770691
749.513399
512.993135
661.083280
208.912338
261.663722
204.689133
781.622328
646.383919
107.157406
655.919778
619.520804
311.498101
479.950496
150.248472
116.749468
549.752212
209.519652
359.162519
721.651291
92.385591
442.676303
961.609893
340.122558
88.991026
544.729993
703.643699
513.955713
507.013990
369.402330
349.094089
606.886191
573.663634
71.709425
598.248531
649.446747
505.678840
285.757547
377.932244
530.073872
305.727274
607.459856
632.385355
604.944122
561.273344
763.397035
930.662282
595.087213
115.181591
648.650226
963.406742
824.634795
360.647125
269.244364
659.263732
309.792642
597.702135
492.694086
654.770042
609.182736
618.840051
106.350463
533.176757
362.179836
649.397067
545.995014
399.683698
160.850075
192.099573
68.407655
537.705434
575.679814
572.746047
160.318431
665.869470
686.831644
97.844791
614.729823
518.701194
1107.046718
712.827677
199.020428
96.300727
498.779054
605.499014
610.550653
182.755429
83.956714
615.850902
704.331288
498.594653
95.000126
419.225366
805.527836
646.469244
608.015712
588.708047
755.478322
625.255299
382.717203
84.149072
602.616479
461.223494
377.650015
526.805761
502.922950
589.533674
95.301537
691.235291
568.756812
371.810015
120.729359
587.462404
612.118338
492.525966
140.753188
227.775791
595.891603
495.054911
263.364315
702.898622
417.241168
411.322742
967.743852
596.594517
609.503089
448.212952
641.613107
487.442670
578.058992
150.228837
276.954129
367.075101
294.715821
654.476892
717.846841
343.109066
555.937530
86.155482
574.943205
441.617370
564.755033
117.814202
586.428312
360.563622
565.544590
214.696714
608.877151
645.112874
553.489659
833.830148
562.643352
954.900647
609.446029
296.500973
579.334931
524.382117
557.600365
358.231021
483.068507
499.773292
609.815904
585.228691
109.661179
489.691225
289.901416
589.881968
162.389942
858.721198
91.502557
838.768472
416.052051
613.226504
230.244245
449.298441
611.666244
542.403435
75.407572
711.709336
62.186496
527.864294
686.312691
614.117183
213.495321
118.025823
167.009844
411.999429
630.098040
492.998630
490.419280
574.892499
617.100740
467.691020
518.966226
195.183855
528.023650
573.930841
550.795874
123.131585
581.353380
327.517308
591.729022
600.876431
736.380571
276.379763
647.416152
533.687338
454.702571
616.412105
628.591335
626.376787
456.889048
620.215564
70.425638
241.436348
638.488564
103.327568
503.450182
521.905020
754.331001
207.518477
82.611143
523.463323
240.433824
536.689879
374.682129
93.464942
455.572732
356.502829
524.905756
502.542760
176.090855
144.873789
550.269298
593.438221
300.762996
643.407226
633.233740
528.658764
607.920738
357.359982
445.061836
766.644196
200.406499
522.270448
615.336451
588.689545
606.496868
657.092103
536.186104
484.325975
694.066227
467.388419
570.253633
407.167510
611.565895
386.779857
74.248131
381.290034
547.256351
689.894077
634.450289
504.746540
473.462308
620.235546
72.708844
453.586505
418.478126
242.110341
606.340970
170.950827
331.875171
338.093992
244.265091
608.674164
109.832099
668.608708
72.638515
567.787052
689.686219
559.986738
276.148227
600.953532
868.833809
577.630323
566.949097
373.197605
352.136672
603.981393
244.033979
552.235252
535.762281
528.365416
528.119447
678.896200
75.769706
195.339461
300.465856
248.533424
547.296805
685.452093
992.479108
523.036342
637.238765
289.393291
274.554226
134.801090
417.069737
70.388185
81.656115
493.364736
975.867660
176.729791
95.894243
733.818742
467.657726
474.472649
380.820030
63.625703
801.207247
437.731198
513.269190
621.264295
665.482168
500.660654
77.954800
618.770411
165.711805
805.907640
136.095067
653.506594
640.742712
559.733372
564.936963
524.252570
184.812042
650.189416
758.434885
846.953315
79.748819
603.258713
684.952696
784.223641
403.571165
628.176971
551.640911
934.957493
557.428545
93.084540
448.358760
1093.660092
748.359339
763.393757
558.005106
601.120059
709.115950
499.385116
562.177857
610.146645
932.016505
365.178932
1037.375808
587.588860
137.137948
241.700431
377.448288
496.453716
499.705026
159.920866
508.695118
120.603214
389.639381
661.502745
585.371951
763.657810
71.243463
541.982471
325.104465
104.850731
616.002368
689.424328
367.633284
650.219429
742.034936
433.741035
609.337168
593.087309
481.345039
619.295999
455.832337
489.961524
360.696512
111.908804
593.368990
598.137805
469.939869
660.187617
500.883933
538.103537
625.487520
97.348641
283.017390
351.714077
600.252121
241.884404
481.758409
459.918484
365.315147
539.223990
348.565505
256.630006
293.091650
558.709749
593.439557
584.103825
543.774623
339.006804
472.749266
597.266975
583.233231
625.698651
497.814673
461.702799
510.559819
990.833048
88.802405
92.160264
323.363135
399.038522
543.408666
477.725697
61.835951
328.221984
602.990947
460.959666
485.657376
505.591566
517.633048
822.385236
495.778853
109.405702
562.159685
424.412358
99.016083
601.671826
887.701200
376.825684
529.397985
70.585099
755.686848
582.229247
100.061723
298.113865
134.089011
603.187783
269.593578
72.903954
270.090973
511.582376
572.126360
209.473311
505.382601
63.488954
476.944987
508.710004
392.031399
203.873161
532.974417
625.294008
154.804333
660.925662
381.853549
99.033719
454.361145
776.061102
491.110016
121.346048
666.631444
570.229796
537.417281
280.683237
173.095391
549.986964
583.530293
83.254053
834.462393
640.252193
656.603869
527.375946
547.285979
624.372444
440.094862
568.425799
604.236625
613.053773
439.079504
778.336769
321.484801
139.085271
518.505697
273.237931
583.473254
312.723318
556.944818
561.556859
438.683035
696.882864
589.536663
359.175024
490.403360
653.117214
528.627953
669.701075
127.197572
681.804539
614.982217
252.278226
723.136975
158.028532
622.688559
105.446668
617.878738
406.914571
388.361950
524.272318
552.045274
754.671276
562.443261
342.087844
503.902200
106.532368
284.317200
572.559338
497.939870
579.829369
809.887769
737.268719
316.187668
374.486329
642.136363
262.326378
426.461206
275.126688
757.546491
160.045344
597.926674
244.566720
99.069933
89.948358
496.486747
530.962486
552.065038
566.011388
455.292126
105.271775
442.327499
534.212580
497.995442
163.172434
598.593820
156.052848
594.350066
521.248065
78.969025
576.174635
574.441995
787.658192
640.520704
488.635363
541.519754
576.257131
338.796571
554.623215
450.998443
87.825194
523.323333
318.056598
239.684110
595.003450
1025.426068
377.770244
839.436003
877.664191
489.451416
562.263184
842.945640
614.740121
365.708902
864.848676
529.458809
523.501435
446.376004
602.841061
931.517735
565.299851
633.521757
111.671378
454.854806
553.866729
110.134606
438.375418
592.783873
79.226019
528.407532
606.036606
787.426900
608.602204
255.126424
516.321878
652.924867
570.029237
472.844333
308.248915
621.534874
824.185378
435.805233
555.501584
102.896272
909.810278
284.225867
687.896979
557.549138
72.880063
589.076627
606.906660
70.760440
599.825430
700.212977
210.737439
611.486303
181.074566
201.610627
97.946149
270.902129
577.292642
606.863524
543.792591
408.307854
158.474519
481.332990
124.113952
489.016352
534.507926
83.657242
258.971025
520.855135
591.024537
1117.819330
694.585100
633.221969
513.901827
520.458205
592.541855
129.498797
477.015516
710.626604
185.362934
442.853224
190.213147
238.258017
426.674683
136.356711
134.811067
650.579981
357.792959
622.298173
224.566829
578.753878
113.845266
509.967511
135.579323
129.124522
256.423791
168.750144
537.340791
142.765553
614.544834
203.202547
107.851643
208.576715
76.603635
430.491745
81.951920
645.558592
559.819976
175.370757
613.144670
424.633354
608.451300
664.094049
370.040603
683.567678
104.469528
345.989151
384.661658
589.715360
332.459085
697.547991
564.109255
450.406757
579.516377
599.460850
319.510685
316.216136
652.034801
333.219070
78.413560
463.853861
493.653845
474.158193
592.487224
479.258235
577.454459
257.018480
492.114369
748.635967
421.775061
293.667860
603.271216
91.630977
540.613280
306.535129
510.729922
337.475386
326.762973
891.426576
560.205644
93.749697
108.905578
510.389166
228.098098
694.417587
501.495157
644.598481
845.598743
528.551309
528.391385
851.230987
612.196526
642.411336
704.807520
536.770338
571.867551
443.893268
386.050374
569.166164
146.543667
180.467568
239.950280
257.960212
595.819455
458.967282
683.653241
538.145437
592.900975
444.377051
473.019331
333.686555
590.740477
349.464120
337.825279
666.493230
87.209721
616.214583
444.984526
533.318301
530.837850
90.094866
601.394272
731.472411
133.778792
250.423606
753.255647
507.324946
218.030231
92.979484
76.982550
570.786735
387.111433
215.912780
226.316141
189.927966
294.411378
588.418039
603.484570
627.735516
394.940974
486.976167
122.773752
528.674084
103.727300
585.209040
372.860022
583.970836
961.137647
582.283266
592.849330
596.689740
184.721717
74.512679
106.881836
595.450145
532.282910
526.037466
596.557066
550.589362
763.026681
638.281599
396.265127
531.241518
498.502440
501.588811
564.773204
82.136516
507.985241
405.698841
962.934717
535.085755
708.637082
426.385798
113.037874
534.901192
600.339336
623.547118
512.814224
214.240585
200.649880
560.575101
558.516715
608.999946
313.279756
252.671158
511.034081
140.373180
569.172846
418.403667
523.626212
79.850676
526.615534
610.374914
243.277351
440.872407
637.802473
777.694118
624.662286
147.103708
76.890298
527.846808
263.066113
241.522226
548.212509
526.845957
599.513196
626.586496
520.518070
204.370466
556.004874
442.943459
583.031807
481.505592
226.988792
321.707443
692.966608
289.032941
674.515769
236.867500
238.581940
71.613497
430.660986
655.913021
86.441212
788.176187
628.663254
173.363637
592.397552
326.726730
820.275903
418.198272
307.876222
477.369016
146.775874
738.761074
580.233265
536.262232
511.482742
129.997484
126.784196
550.015572
720.178695
88.534230
781.478466
300.776809
459.363326
224.372305
581.730751
303.801483
203.035839
484.755674
565.858171
1042.154298
91.324133
647.378093
551.431020
493.731534
547.937204
720.037156
147.463554
308.314183
355.263473
438.530191
165.660744
537.989190
837.819712
630.669252
76.584493
240.356383
332.324380
562.181294
644.872157
269.311866
358.615216
719.207703
540.115406
105.140849
786.857911
134.261556
160.729529
614.729705
847.494495
568.259721
497.305995
525.815620
625.709712
118.344456
796.534069
493.196830
503.440315
718.912810
525.859171
78.120883
608.567753
92.385996
513.082564
342.440431
470.286711
509.795088
284.494875
518.228310
452.205747
228.781024
624.001472
494.124903
523.807882
528.108483
105.808895
627.632661
401.590724
580.667575
586.798938
669.161388
588.923841
548.851896
844.595580
231.266095
526.912665
509.188969
103.502602
529.546907
707.880815
114.794919
391.752145
588.957984
522.305921
676.644399
407.500043
280.447786
708.487597
547.371969
138.920350
623.789515
633.499357
233.613655
493.740209
486.766287
522.456629
239.351312
708.177488
498.385577
959.040924
812.730300
497.913516
190.036064
579.405651
448.870117
575.854811
456.428855
256.492969
102.963951
506.849738
137.089701
381.885947
162.361076
442.837274
312.034849
536.333022
604.896151
444.068062
98.843596
264.273742
288.641537
636.307724
518.007820
436.660715
448.918680
287.553066
455.979757
415.457734
633.168097
573.595548
128.033625
688.642121
167.099697
68.626502
107.821338
638.040390
100.575620
462.267435
492.544037
107.741542
87.006897
125.252215
787.769574
111.468353
508.112500
760.946034
125.246650
665.622697
500.288958
511.796651
455.821877
132.596223
459.102256
91.186663
628.694314
209.197370
548.124443
444.181045
616.199217
431.015904
634.798567
582.283846
1126.987411
674.895312
270.360133
235.156625
445.690302
410.143330
267.287673
345.844716
633.155529
732.646766
76.497317
436.218910
98.158881
522.251562
554.398083
386.283158
343.434750
433.902705
526.305694
299.991762
624.766083
590.871516
513.641787
587.215824
620.991647
591.808682
280.716149
561.538758
479.907419
533.195436
417.253856
925.615397
922.757759
146.511045
450.854413
312.655651
470.001687
443.432413
628.443913
570.829841
439.256296
520.235594
511.672519
612.122712
603.334077
617.714464
465.677061
421.449178
484.257388
659.549921
218.513291
475.255212
120.366802
555.299958
358.985243
566.109930
230.910145
692.402363
426.306010
160.886757
862.888419
431.211694
1146.362460
569.055301
483.613353
590.297619
479.666613
371.422854
291.409193
817.885459
585.188408
537.192628
660.929029
604.763121
528.692992
345.848101
322.265984
532.525634
542.722203
495.409786
227.866676
281.614438
460.637748
103.712218
570.477044
460.763365
168.868868
503.565251
591.074984
415.517058
482.827785
80.941866
164.144223
306.363242
526.215257
332.122801
427.951719
599.960636
358.801432
605.830912
533.234405
474.706811
606.898197
96.297688
522.043611
581.107885
582.037510
604.570209
572.444399
128.149749
670.694619
182.591617
673.746231
500.786156
570.230748
723.432703
619.170479
441.699911
686.416071
121.073629
183.586746
666.537539
619.270917
559.526873
565.341301
308.617704
503.015170
528.694374
222.335530
479.380020
547.704322
257.749807
242.633602
585.629438
677.959405
319.967441
895.198208
107.372404
405.830351
503.813371
500.499559
497.176338
248.851795
514.315101
114.995248
488.692800
537.036009
688.015289
204.662026
518.074224
343.442705
637.285187
595.848884
737.606454
485.008698
583.978728
485.091086
320.424501
211.707965
360.849158
496.417013
170.775890
444.632773
551.384988
206.870131
466.010419
491.700078
688.820114
253.828752
734.078156
207.379217
75.831123
365.312053
231.259588
595.599019
130.776751
503.029748
419.854935
436.153013
479.217097
531.764961
687.225270
691.242159
101.951596
496.703279
630.291749
195.253406
598.797269
357.996919
604.757313
559.484099
503.016640
785.167796
646.072848
202.257006
659.434454
576.680300
529.067124
500.308835
358.750251
533.942721
314.873038
283.881974
513.039111
199.020354
570.376546
274.632282
425.706443
600.583961
503.216709
390.626474
303.560877
653.655417
705.315065
596.765759
170.755324
457.070556
667.393205
509.761168
176.701263
577.394487
338.308507
705.162729
160.320664
490.885210
413.768117
483.324125
544.610724
578.749571
163.399432
628.185070
560.785981
627.491050
477.247234
71.218837
380.784780
458.275163
497.079351
827.789419
313.079177
698.569085
481.190208
606.897203
613.866026
483.733183
480.967759
455.321426
440.388332
639.847133
451.310024
577.206626
520.580253
616.293432
539.946444
108.363881
536.733569
129.999743
644.341563
601.262889
504.014436
594.141082
855.073839
126.422646
494.549867
522.028358
538.308249
473.274198
471.785149
585.412841
769.638564
495.114310
537.958033
254.504391
328.211286
487.859171
357.579072
547.031938
517.496982
570.750392
556.115081
97.070253
632.406371
569.295272
480.392409
589.395467
328.558495
559.610929
509.238715
491.317749
523.561193
531.652151
876.378474
806.631003
682.612905
280.350419
463.551203
360.967279
538.438344
622.999665
193.981404
696.046748
458.217601
466.128638
489.501364
351.786276
311.153010
450.309861
548.707990
279.037474
734.725966
589.377578
722.282458
453.993918
440.326323
519.847007
508.330986
97.529559
494.914864
752.824886
523.094817
455.311084
533.465513
285.815445
634.609129
563.705796
601.105447
375.270856
523.461565
784.463026
460.030294
645.450422
556.303624
498.242297
578.879763
444.776843
489.285347
365.636843
100.489849
540.040305
204.274909
610.203134
527.332651
104.936613
364.447454
671.153305
483.409484
359.497881
421.840949
395.056790
365.706055
487.519859
122.608241
297.927439
378.858052
311.415120
502.090363
543.820662
579.372122
100.990996
177.841314
465.540097
444.650914
527.476707
606.035834
359.452714
371.588028
231.748221
251.071430
533.892763
97.573733
516.960487
360.458835
606.461861
436.888876
432.492883
515.605731
213.789585
444.349620
520.674354
189.492022
531.485660
1114.102286
628.540048
96.495123
100.209256
431.478077
395.730853
512.152886
511.910497
540.787809
161.965347
139.592391
583.116880
523.131443
487.474161
479.857256
530.952357
198.505442
587.288677
183.006242
189.509242
493.792098
440.622728
520.854995
601.717316
615.463308
469.376138
420.006808
504.237724
532.170456
567.049464
276.797914
616.438553
132.397472
501.957564
477.121532
590.139367
1014.497195
635.809210
460.835804
477.900885
533.610784
546.488583
470.443640
509.087950
319.670992
151.962068
479.884252
171.174530
593.004670
520.869600
356.834891
548.706045
487.858271
369.290579
446.842480
470.885391
463.109835
548.078850
563.851063
529.227789
316.128289
468.460540
642.352614
70.405430
520.811469
185.325877
197.717365
469.495756
128.402636
395.121217
616.104775
445.436405
95.479061
668.946949
229.314984
431.568056
536.711184
376.586486
395.409439
390.847190
531.703191
176.898429
425.998695
623.688116
476.439617
481.855337
304.273245
238.883413
269.387975
211.663503
499.219356
500.903115
625.957318
530.858495
486.974587
149.143097
483.077468
184.048518
477.355323
505.506579
280.766718
169.285563
457.660553
471.339688
501.295216
226.819558
497.123208
509.405486
808.081989
518.543819
538.903030
508.891662
513.930266
464.084919
498.482321
217.176873
244.450043
314.942804
109.419071
557.359400
447.616884
551.844412
494.810932
675.783958
974.716052
386.868402
374.228251
525.813370
372.846472
536.451553
255.310317
862.863407
541.798095
472.263041
480.180097
199.847116
476.317522
550.206354
495.125577
681.782810
578.453738
455.147991
572.556208
723.074167
343.345487
302.146515
463.891362
544.501784
585.147416
396.336914
665.113064
499.974558
522.524966
101.025932
483.913455
453.347823
579.961522
533.084352
331.681459
295.292829
481.857682
244.384267
587.051188
447.839540
642.960440
429.971816
258.698662
485.828184
143.992797
553.250349
402.442846
454.457686
344.311970
467.234375
192.284245
513.582362
123.139078
464.728484
432.450244
485.036280
587.633826
358.043770
199.854848
157.124105
265.532695
461.032268
540.568059
480.212227
481.241657
524.944731
656.653794
534.472000
528.899471
559.763416
463.696770
158.651555
514.127430
670.162462
442.538321
422.378325
623.019501
528.328747
430.535458
234.096859
440.045707
508.361406
524.117490
180.572059
120.709165
518.068125
615.821878
713.071494
475.988771
501.547617
496.693469
450.883672
506.913760
358.775266
470.051344
709.248136
503.963466
454.347215
498.098299
214.583700
481.873509
520.055661
580.347837
516.681304
182.525659
380.619140
142.499711
111.817005
321.174640
377.192085
471.048915
457.471240
358.267341
600.190140
467.635257
459.072488
518.991031
623.942956
502.731391
481.898219
474.144569
471.389007
517.541797
204.430310
486.044217
493.485139
457.521362
486.408065
524.338833
180.353807
389.749618
423.583112
437.563229
512.921777
476.839455
433.353991
491.998634
515.128362
516.111447
559.026630
460.298639
449.557176
479.917124
514.534983
584.318622
568.461779
562.310459
185.189377
457.130958
91.616821
411.553479
508.103607
466.126467
723.874343
507.036407
547.913547
485.923227
520.857316
527.429827
101.028279
101.677579
466.539703
413.313683
440.716806
339.688574
446.172917
617.063563
455.764212
437.830059
100.929923
474.003514
103.748537
354.333605
471.263459
440.518581
370.656608
548.823460
578.682606
518.997992
433.481696
380.461246
624.557496
426.795578
574.246585
589.011661
498.936918
395.729151
436.657903
515.250378
557.015613
491.200627
569.047521
556.401956
533.144609
627.513233
586.758860
458.953730
418.923597
558.038486
447.421945
485.698792
527.653466
614.142524
419.593044
574.369512
460.185448
445.552792
364.402259
547.845696
441.283884
925.386969
732.200083
367.635630
76.858541
737.819152
660.694936
278.010486
469.955094
509.368011
422.087854
552.118571
450.539042
451.342876
461.982666
494.582221
439.385918
480.505652
475.982143
559.031926
183.501451
430.068703
471.622381
355.359064
115.344943
459.495397
342.052380
453.542115
473.503948
276.682748
572.142886
440.286583
94.385671
468.417312
151.504206
536.178802
407.314287
438.494409
447.782967
442.813520
526.970624
489.233607
425.492308
374.174594
359.181746
731.092029
97.890734
427.350599
421.195787
423.817504
469.118456
356.498342
418.595661
443.151010
362.086881
368.552973
678.845127
493.018737
487.851181
470.395812
478.558623
438.698506
458.449229
576.216880
470.782944
392.751549
555.124563
514.346357
461.612906
567.898711
343.935191
472.654382
446.003833
467.040660
457.619943
440.104623
487.061342
470.363733
463.194436
421.181660
489.325293
426.534227
359.383025
456.317872
424.868230
464.456749
444.477461
529.042742
462.249633
500.691641
434.189991
478.798241
567.091583
486.195216
502.172841
503.652831
99.936324
482.834017
462.521931
544.758045
435.539065
522.392444
522.777833
722.496784
512.714497
382.604472
335.188626
254.437365
464.133996
417.394200
503.876360
508.023758
477.602284
414.738896
507.770743
624.922496
448.552856
486.304213
455.498842
469.756856
468.967401
512.999422
457.908804
643.742824
443.230987
564.940643
88.159256
481.107078
438.341790
437.252579
516.718445
472.678429
524.653627
466.466227
476.814817
542.232890
474.165674
476.600933
480.429639
359.554600
475.490211
465.719877
455.512828
438.113028
611.161960
569.088456
437.831897
456.046288
440.372424
515.835248
497.391339
457.544908
525.843794
472.270106
238.839348
496.003451
213.773087
469.772621
587.303442
494.074124
455.877519
448.336691
363.124112
463.716057
562.078159
453.468754
564.476221
477.799897
456.140342
119.723373
463.116900
466.465693
464.940018
459.426988
480.541826
502.307870
547.692146
707.834064
413.692560
335.512769
420.615157
463.806292
467.862952
447.154849
443.318480
495.756863
495.878640
453.280880
65.074544
902.683419
441.668091
437.944045
472.705936
464.546624
501.435845
385.523603
68.168727
421.935424
418.181334
458.385566
457.380699
453.366925
477.887903
450.417676
553.123434
465.574847
427.046912
439.016899
476.166287
467.574108
413.692693
482.428791
456.970754
414.568772
437.456876
467.169323
451.583029
444.989383
445.695721
482.666716
518.573421
428.061940
427.193015
424.202199
439.472131
506.088630
360.117149
444.892436
439.204007
491.112226
416.443624
471.149087
442.890078
495.622102
489.413861
422.036230
379.461908
462.948167
438.303384
430.622858
444.106939
318.265840
443.474433
425.321147
414.513015
439.379735
455.185717
431.268138
435.503247
436.559554
511.195137
473.969462
471.276435
465.960201
472.648883
461.688560
428.290525
508.715357
485.010198
483.112854
462.792502
571.860703
423.096630
423.320508
444.012679
443.168297
442.566069
441.358415
441.289953
440.461160
435.680871
417.316164
437.288176
439.401058
440.443815
436.055914
443.778829
415.468623
408.590050
443.431372
467.702041
466.295454
447.851793
437.721117
444.429819
443.664571
440.748248
396.912751
849.386545
250.437157
430.694748
428.910164
421.515012
471.055131
470.196010
466.288355
462.450959
428.654459
416.839863
441.975455
493.574586
481.870488
455.872246
459.930080
440.767589
426.783774
493.388929
485.186735
480.341584
483.446773
433.694220
444.774133
466.871659
479.010188
440.506498
437.978932
412.451376
406.461721
410.942013
413.814728
440.952710
439.622566
442.327750
437.239135
504.552102
497.941178
485.516211
473.776927
467.203926
465.468925
533.761069
652.919185
425.935450
422.828320
440.853696
319.783302
431.083852
429.457474
444.602519
443.552113
420.275838
471.356468
458.348903
338.215259
431.082515
443.372873
442.383119
486.401912
484.832416
385.411619
278.422786
430.875370
520.702271
462.294690
443.479176
442.115257
442.524340
441.646675
441.525198
440.333375
433.740328
431.483609
441.537259
438.322609
152.966270
411.326877
402.793921
443.469363
430.255435
433.310291
415.299276
454.091001
458.165831
448.131254
375.712454
473.307437
456.043529
437.131928
411.901576
441.225336
421.498600
423.619139
410.187428
442.816076
438.840229
433.485254
499.261376
473.396048
475.058871
453.633815
489.941720
383.871813
373.853630
418.020179
460.063385
443.917372
430.954674
427.622873
404.056900
440.070568
468.075460
519.295188
508.477965
476.806842
437.261907
491.399948
459.274481
440.476601
471.825052
511.473248
471.640260
457.660002
560.786360
295.787838
445.000225
521.543965
447.784152
440.328786
452.997590
468.841032
304.607590
441.323946
487.783425
460.300538
478.391202
440.642937
442.638339
507.574430
373.487627
484.653811
439.749301
439.706601
479.663810
358.311697
444.994108
435.316050
504.058376
469.768618
460.263954
455.531440
306.634624
438.627465
471.061298
456.776652
361.792775
479.342673
504.983920
455.502843
484.712129
475.712193
392.252606
466.838376
480.950335
444.875908
425.921861
424.448259
487.244814
466.337605
419.648411
416.329311
472.577867
441.777234
475.169448
443.946341
469.038336
507.090018
468.366515
434.152652
362.052017
447.198820
558.103097
389.274809
474.526101
382.321141
452.679301
481.459159
464.626175
521.386362
430.404572
435.109340
478.836785
484.764511
444.064564
462.695885
511.679785
113.597639
449.039283
558.581660
493.560212
478.865281
472.070745
456.393565
438.369473
734.684408
444.539802
469.901315
269.041304
470.510715
466.456526
502.108904
469.345464
388.899241
470.125036
542.480700
431.692472
445.486717
513.703155
295.223111
474.409613
340.735509
465.777307
455.524199
587.600652
585.507547
499.402050
418.968247
442.325760
433.498629
465.526512
443.956754
489.547640
607.721173
219.186012
369.127458
576.987633
389.241329
468.885721
461.476313
612.674569
461.893486
469.291622
471.305380
548.707156
473.605926
449.408281
582.721211
333.155716
587.006512
489.644248
470.401721
302.888944
448.724368
610.463404
516.432229
466.966056
501.787343
419.234095
481.803865
485.864039
514.094349
119.979802
424.879134
440.874020
352.840038
349.941334
365.376102
451.248040
433.170130
709.384854
456.795530
556.158199
657.350541
595.405779
425.861289
710.896160
455.122742
484.450156
393.723345
475.602284
499.320439
470.720995
449.326760
368.016806
234.653521
476.717130
75.610143
101.561505
548.241929
536.221866
678.303249
433.509042
481.370289
458.071804
447.857344
518.439061
464.716983
344.149051
443.201590
277.634633
454.838311
401.123478
461.993206
470.653432
887.931105
417.249197
484.346851
893.978108
365.447757
597.136463
440.461261
303.349497
461.429472
388.162240
87.617859
463.225378
383.642500
511.111330
722.907086
434.678562
509.474272
437.589648
870.458592
445.982388
504.302386
364.193321
568.920494
95.090628
464.610886
446.650277
420.130939
426.027773
496.850087
489.574725
73.126312
444.711318
433.254077
390.075487
328.245644
460.844801
545.631457
540.761032
463.481571
143.628793
445.604978
440.185352
437.061925
445.519305
156.398591
452.118747
331.916992
666.933756
64.263051
444.254281
442.681559
451.551632
618.342690
512.060278
662.323255
444.073907
117.482860
436.378338
501.334813
95.511945
401.151245
414.318461
488.259285
496.843759
476.053415
462.443795
851.747324
451.639580
622.690412
496.348912
655.136089
474.430341
269.243190
301.712893
555.779584
532.615082
476.654695
613.525984
456.078215
650.822899
334.771682
478.034612
508.677716
509.013446
624.648006
590.840486
456.548842
418.792987
281.361352
540.066974
605.253639
823.239311
603.728428
608.271660
324.861446
196.104754
571.113020
442.642506
319.436121
468.163751
431.952145
450.374884
375.097418
467.069329
459.756410
492.804857
340.525657
431.823626
610.842483
551.667846
474.654822
524.929855
196.299566
616.919862
549.874570
461.698943
190.298647
571.557784
497.031960
574.756189
603.923885
90.838777
301.927292
702.337082
355.015484
679.987190
487.856460
531.232764
64.576805
389.635685
285.392536
473.843137
438.151043
450.287929
566.042179
533.960834
412.567524
308.638453
518.034898
464.500847
459.591918
644.940037
469.118180
462.006164
457.758319
452.367061
372.520118
532.834276
697.497067
370.102724
476.313886
491.418500
454.416259
677.005482
441.387956
433.075739
578.860730
272.794547
99.846888
446.389009
427.729848
559.827910
467.853610
491.987063
433.261177
537.072053
460.676835
499.211951
663.775786
528.297521
510.438831
417.202579
617.819546
533.341083
226.470585
466.433565
483.450324
592.234967
83.100220
194.974971
467.171985
133.593092
494.924057
566.526505
540.312484
134.386530
591.212336
493.714555
392.824133
572.759182
573.244466
479.018137
527.247250
373.286328
371.273325
457.022067
442.477874
480.284768
569.237036
463.742225
555.567529
289.096602
528.392830
491.089386
518.554805
461.699193
497.793420
448.293198
476.236363
445.005791
554.221203
535.222629
381.462470
375.857603
489.411056
488.921863
479.928128
464.041249
535.490051
447.650556
413.810788
586.254869
82.950119
105.111034
511.875387
545.942905
493.608666
419.468023
452.855862
486.362052
899.805916
376.004585
528.214957
451.599464
412.889239
502.548913
484.727638
425.294830
530.191197
596.861117
356.235631
489.862410
450.974006
355.715098
115.327263
480.805853
495.853958
522.419947
527.121344
377.235187
496.411240
459.570975
669.635066
442.071533
387.008241
460.402956
593.210422
271.601900
424.992426
476.962113
500.565008
445.056409
486.053135
542.568144
442.183960
467.576978
172.493779
489.902202
742.065420
443.544434
186.884175
502.517497
284.450579
562.763665
526.325481
631.430827
468.846969
418.576012
456.906269
359.002796
676.425774
623.236424
453.673410
450.951097
664.621308
102.377787
424.277498
475.085332
558.490266
673.020607
490.796266
405.995983
507.671849
501.023231
542.506878
518.987843
522.659628
630.181854
499.926481
525.349848
148.883427
693.924680
660.517919
542.403583
96.952677
565.494325
894.726374
557.648945
271.039691
560.944995
491.985583
482.174940
599.474959
441.751506
594.426408
504.912946
494.869073
450.080015
494.703303
146.353230
499.773595
463.864755
518.684729
590.640206
466.742159
266.204325
535.780487
626.887975
503.253938
304.872576
358.983748
674.952045
199.279663
386.372000
463.052282
358.240892
526.010511
377.921043
442.281473
401.952884
265.126887
486.181229
679.275259
276.755595
777.653812
706.457949
516.458150
463.681074
356.810654
446.126457
167.533091
468.609536
591.447667
444.828475
438.478952
445.383904
430.965184
86.638083
526.292194
508.506867
446.376640
452.714607
413.973962
446.208556
959.261562
435.781188
446.090269
351.425707
619.801168
685.461182
446.801479
445.297964
293.450783
948.061547
445.689737
640.478221
487.783863
555.768521
433.279672
592.308201
251.039628
261.269380
540.052974
458.536940
481.320722
578.059936
547.610198
373.653770
477.419649
766.950394
383.281350
513.149224
679.352527
410.939892
476.456961
79.752086
532.855034
518.320084
292.231850
525.517455
496.689317
503.708928
377.896237
635.525871
464.771266
351.599142
504.557237
298.317150
477.141904
467.685817
490.772923
113.375791
476.234665
620.640449
433.284302
812.447848
721.109828
576.811029
584.218824
620.228557
472.330942
491.709387
338.681255
712.331345
434.505426
497.319493
759.336662
479.745216
964.682115
549.378101
172.487290
623.668549
499.579034
669.885286
463.163276
298.215001
521.145466
447.038494
321.707554
591.773309
191.859378
410.385527
474.357668
554.078104
469.122302
470.499376
623.445142
543.731961
482.057600
631.158105
463.025697
174.349155
469.487439
381.033883
476.041577
516.714296
534.523457
495.249846
707.667709
396.435853
583.351717
475.774495
490.366652
509.847389
292.142177
518.918378
465.824251
187.395523
466.113327
582.782837
589.313862
513.536186
455.535663
476.971202
624.870679
633.222581
602.296396
332.869998
263.322290
466.512773
513.876885
597.602061
533.482911
611.185891
953.652587
517.079573
471.666772
590.354949
343.631831
496.065555
74.692119
143.681915
376.066855
817.815640
366.531341
567.928264
172.045901
276.397660
475.338532
281.383478
262.309101
411.444387
619.810720
358.660100
605.730357
464.952638
483.846913
184.991454
101.594295
181.129868
491.193178
531.138996
472.537988
546.124646
561.791641
537.895956
402.336299
566.572781
650.331360
548.363146
624.020143
244.634360
293.472570
457.186767
255.422961
503.087314
540.128366
707.218192
496.483505
505.510484
535.528248
533.355279
539.088251
292.056964
521.409934
473.695401
594.277412
98.744730
102.741333
476.378689
459.656623
643.231844
506.969157
79.357052
266.279441
928.078696
468.474231
620.248763
692.029112
315.507633
87.582876
497.470043
372.091771
752.718376
288.584304
479.510383
493.879473
598.292749
608.369171
486.450462
578.618497
552.758113
460.914328
564.560748
558.486862
475.275656
591.053841
551.840878
574.268022
636.961906
737.970577
657.104551
1081.469201
485.334251
563.801443
457.111914
526.822208
130.082777
522.792174
472.831664
370.574749
168.335557
471.047058
997.963847
219.143710
470.950458
288.224543
514.030395
159.279619
474.142134
498.904951
127.688234
341.947822
502.771603
602.880690
552.992495
485.289853
681.183923
519.641656
100.313575
822.095290
339.418987
77.691033
241.751808
532.371436
177.617543
538.475698
457.561640
519.104626
162.472818
444.314318
416.972126
554.116600
580.046708
448.260849
465.601976
507.171520
997.890454
990.614646
508.984847
333.300444
551.355481
466.228572
588.990682
511.689740
154.755456
461.348977
598.330033
555.992783
582.188937
684.266492
372.588615
562.516504
205.384766
684.991894
537.212518
650.517630
395.098087
555.031398
598.540225
147.234162
539.316923
144.542923
471.550672
443.397806
317.126019
191.933831
398.581775
73.559679
394.608772
110.284804
431.311252
779.497421
769.012828
604.346142
689.862946
84.679134
617.814580
456.367089
477.570499
507.411615
91.920210
446.465296
499.929766
701.008528
694.548857
724.405873
498.435697
393.497194
593.336996
459.986666
540.909917
488.668466
447.088950
381.391885
96.436866
719.522900
831.679386
531.723445
517.211273
525.002525
329.754611
326.257455
439.515660
383.938684
222.948494
746.485014
97.905911
466.685733
964.497885
284.334991
384.229834
352.710092
675.146445
576.085719
507.239636
705.235585
621.855989
539.164867
264.721207
605.810120
581.849925
180.263910
632.815720
161.566218
677.926890
539.806807
436.100337
246.868954
673.824661
231.831702
134.796222
452.195677
490.078847
197.423565
500.570216
190.327305
478.246344
371.418533
507.739614
561.795621
563.983115
259.225637
592.178178
566.394083
541.218388
451.680811
492.648438
616.434099
240.716939
573.401803
633.051033
641.504817
474.207345
499.185083
461.041710
566.982037
524.838590
512.264868
764.334132
442.538536
605.884856
231.491777
507.673421
214.927628
103.652365
514.696718
464.441379
625.653798
431.295761
135.445410
303.864164
135.564304
502.339006
521.757199
578.888746
309.235790
246.695475
436.013385
473.738206
577.244318
639.622654
628.674629
589.297979
148.555776
331.994701
583.129345
527.681530
206.233225
904.567381
676.401429
548.203265
499.852418
472.596462
579.366624
537.371144
429.804959
584.423967
469.466588
662.437887
530.484077
464.965819
596.455357
441.571451
615.764726
548.533463
684.848568
465.788396
552.998086
264.660643
513.585503
439.350259
871.900611
94.958073
237.217092
100.563800
515.576882
470.870070
472.998190
448.234072
537.832231
593.150439
539.824583
475.184309
442.705362
232.118868
342.935776
583.820058
189.771268
605.347318
852.788534
517.702223
294.196460
92.925422
625.833175
512.680396
843.205579
408.368194
443.139275
449.535262
419.809405
477.656883
598.704390
529.844320
722.633387
529.004324
67.479624
75.962164
721.202918
773.870706
528.430171
555.305453
316.715229
632.319202
443.000815
509.460650
568.706171
550.845213
562.023484
91.804110
578.139368
340.651928
516.457418
467.869102
451.367626
181.304509
217.356809
527.401393
666.171488
550.758727
512.993602
592.865096
454.211342
798.989511
424.338090
394.886322
461.915426
531.650047
348.395514
471.916498
534.547971
602.111854
533.489245
471.843170
620.639767
781.139440
475.088326
532.138342
578.090435
655.273100
620.361081
213.252547
494.014076
267.321423
485.546817
370.321144
189.579130
499.804289
699.531678
454.119848
457.839286
593.496083
460.960265
592.340442
235.552075
293.040509
240.649925
348.535808
507.725202
119.111062
92.032101
443.128277
560.905788
75.031989
473.325109
85.997249
597.832655
596.554163
798.182519
376.726841
697.322757
519.571030
515.627936
422.291614
143.667098
469.961531
556.554103
477.556339
192.600049
597.488441
535.710101
469.935106
806.172897
430.412339
214.100101
315.135054
362.150524
470.773374
631.753925
627.476499
504.331056
739.536543
402.825866
171.642524
677.719095
812.017126
81.860943
600.338283
639.984356
158.474250
220.359505
575.878753
300.441288
507.972479
336.416613
634.972267
69.770543
117.538811
185.101370
607.032620
603.920373
476.301126
779.012384
587.952729
562.397321
548.749466
118.558897
623.662748
85.709298
317.714748
555.459134
585.545803
794.714891
498.978013
494.802127
564.855898
464.398522
155.600253
491.335201
414.173767
337.161687
330.687448
106.064226
589.480972
311.149351
829.228686
537.913676
228.894284
119.132105
704.784938
524.638831
99.580642
901.087459
136.766202
617.590359
457.409600
528.598134
273.245860
478.842433
438.734028
792.620465
590.580540
228.500479
321.542519
228.473033
150.933740
93.120060
602.003607
441.249151
445.905446
464.008301
445.449981
401.544992
446.102093
141.119757
94.694600
447.677953
523.434238
232.855202
932.161062
614.658093
463.189705
135.605764
567.476651
612.074261
455.012831
531.376800
704.011860
836.826336
391.712455
752.887256
581.259684
173.202390
618.791761
591.111596
506.088258
68.737616
397.554610
599.058911
467.391998
199.492750
466.163272
647.777395
931.419347
579.587230
74.115117
377.098627
434.173554
533.596006
534.027778
545.725527
486.911378
261.470922
557.727970
563.838710
527.158396
611.229580
620.751728
259.150299
666.844509
190.733518
480.934875
601.636992
92.491409
182.838596
281.756890
612.860763
433.365886
217.426144
576.160122
505.349672
84.697696
983.371727
149.085006
208.124085
812.909980
117.947515
460.071960
130.785914
545.728650
124.396836
212.391122
325.330372
344.227094
323.304439
266.495895
288.809682
384.238948
302.675473
401.236566
212.486743
80.464706
485.138129
600.181854
462.788743
117.045726
648.401482
630.289900
575.066743
296.080775
604.396289
503.796711
600.219028
90.402762
260.214927
435.414720
548.529267
460.965578
96.936976
162.399283
578.201558
265.582409
542.582906
239.920243
454.273125
633.730671
397.151411
362.015514
737.883295
694.143462
226.853719
492.919125
567.942214
453.592307
832.119910
633.104040
79.229993
525.390334
518.077112
325.581267
562.489977
716.952770
611.529132
109.040977
132.004304
465.335924
594.198916
834.720638
934.429661
114.789914
591.813901
468.332124
527.984340
482.663233
557.423373
851.273629
160.629203
557.378202
452.831718
591.675658
89.794249
355.240420
851.333506
514.226636
508.140338
425.486351
607.298499
196.250078
419.638079
103.929075
516.883283
349.795199
642.072073
692.411856
775.927893
673.830772
436.184506
329.713256
551.093679
117.026182
102.911280
768.735742
665.822410
444.433486
192.882757
643.087656
645.781059
597.524513
291.900661
669.306746
171.864134
769.617177
67.133920
542.832793
591.412429
716.131747
587.247885
706.938298
684.383240
722.689462
521.173240
536.960395
383.179528
127.012216
69.091054
129.221326
340.912138
601.915292
599.595304
183.125660
120.026214
711.687348
173.343925
642.596283
807.274949
741.511136
152.226656
538.198368
383.786531
652.246904
112.543955
648.749547
443.133625
726.312820
540.212494
136.445223
134.888388
612.668521
575.184477
671.816258
202.429804
502.841372
631.107134
534.773949
614.623076
86.660252
429.644718
96.151964
616.519102
507.029876
80.511531
105.955024
722.618009
158.935733
786.542353
298.641371
460.224205
1130.985189
746.769372
605.576026
724.732319
73.248847
537.646704
488.679715
536.358508
753.779551
509.148231
634.823379
584.582841
493.976710
382.760718
82.475040
569.421386
117.742229
71.071514
914.402626
528.775890
459.356912
472.896024
984.537700
460.591262
674.181730
589.318282
538.664311
816.808210
416.205957
215.671879
250.704835
163.678927
478.573077
456.051422
435.714929
636.491176
249.521386
647.901464
734.113831
634.692205
130.393034
621.418191
597.106220
652.604125
589.089792
633.094636
482.659464
98.235820
536.357718
495.281153
693.249758
123.268031
576.999416
485.099164
748.731631
1164.611089
834.569708
563.994238
580.926072
80.826144
594.802138
630.064398
614.979005
306.225082
737.700677
80.458154
602.321852
559.084159
84.301913
344.390786
659.859466
517.740822
547.185004
590.203303
289.700420
317.155296
543.796502
596.958054
563.021670
532.807465
604.615159
592.295704
600.647183
213.492166
404.759800
582.715304
436.730236
139.138019
306.184937
400.174064
423.579294
605.819101
1073.162856
521.843071
172.389468
532.958253
586.760118
216.737561
557.726326
571.854221
444.111351
629.629945
499.472571
578.829986
463.083436
483.275177
467.337084
445.785475
96.028862
427.577454
499.102072
348.270922
117.175241
504.993596
506.841964
371.608324
541.875739
945.168534
560.788594
556.387960
186.086327
450.268521
281.553532
495.415484
919.543752
164.820602
725.337148
407.085206
154.524117
531.847583
212.509749
271.008234
828.479751
305.607922
529.380191
445.980393
605.390727
86.368878
86.691531
598.299511
467.077697
478.893318
373.370951
534.624197
564.079891
543.316058
599.475341
273.921361
473.380157
649.780648
145.279318
404.804292
461.229277
525.678959
366.105484
650.565516
449.500438
396.347611
456.599948
662.652476
637.511312
450.863506
239.326234
145.231194
313.113196
63.294012
443.176455
322.903920
88.810933
210.337686
754.314176
95.587936
599.109373
332.024009
633.658118
397.785919
81.645275
547.424814
657.308581
432.097367
136.530741
78.268222
100.919771
64.915013
328.735902
664.660149
636.329389
201.296804
508.466139
138.041683
381.556692
383.791303
633.080569
503.439814
463.661988
498.362601
998.452865
781.241359
78.105219
229.884593
963.487714
620.759195
527.385707
129.451242
663.215536
501.918554
457.489860
320.684541
112.628712
509.036614
516.153795
563.772771
657.569949
726.476780
395.172299
571.673864
358.550124
615.226317
585.541276
354.649898
575.341134
604.101745
501.024807
69.459817
593.707655
738.272814
205.137740
632.300342
370.246160
427.924558
594.287413
223.528486
595.547931
186.927774
558.923699
592.189112
550.060738
73.437943
465.349978
567.139441
656.550701
475.259761
372.329997
516.354947
516.503858
123.080746
456.715340
570.245209
430.121795
499.987215
639.352584
482.194405
380.186184
698.787957
645.119714
609.080043
716.328809
423.953464
517.175339
147.753861
560.764435
584.869013
536.181144
246.527001
95.627919
515.233970
948.344465
64.746973
542.070067
463.494404
312.958363
491.174083
485.546032
555.603744
530.188891
505.918983
597.660611
531.289669
77.626337
799.177468
122.481919
250.286096
189.443228
550.644723
420.443167
487.228491
440.713714
1131.102005
303.031548
528.786291
108.768111
641.067389
565.196601
390.384510
728.072538
524.417045
1070.009468
711.383045
506.033804
154.614502
341.986691
488.663373
532.471728
269.655843
957.270804
574.173430
361.697769
391.093128
533.348913
1033.319720
85.224970
557.642453
338.339031
605.102141
875.515762
761.131821
514.425826
532.522281
525.174816
438.194371
389.542030
96.035733
542.645619
439.371210
439.371379
538.658686
304.870376
399.735010
683.191260
323.495029
558.110530
538.881642
569.455041
623.301112
96.744889
563.896821
127.438245
611.910211
476.456303
421.877121
440.662834
672.137624
568.784910
115.826197
607.186791
357.654858
155.852156
583.643928
492.403900
271.076748
602.967911
603.991914
591.497444
524.865572
673.653085
161.786617
1003.653828
526.668358
605.747944
900.565621
640.682745
630.783392
143.672294
271.926582
81.480335
635.732769
456.980597
170.229586
616.853136
184.985525
501.962230
130.297763
601.913991
165.957783
418.679205
116.276360
505.753903
383.771207
600.884092
467.931047
935.649492
347.356204
578.176624
133.680101
636.603831
93.007244
516.009759
918.896170
494.695552
105.118072
574.391787
526.557186
319.412636
343.047031
571.560858
248.236070
574.076362
325.816901
565.830976
638.423089
165.364428
438.807103
606.221865
446.630967
102.590823
597.212974
756.851191
617.154711
125.547576
602.960242
761.733007
453.962405
106.202118
409.877533
534.486541
104.827287
966.266037
433.390845
585.400558
547.376719
451.411996
108.699022
799.185381
315.045346
678.302899
371.735213
464.137537
499.786547
372.441097
535.472805
462.741030
90.705001
615.598294
498.619600
544.871621
73.685342
561.094925
331.845893
80.030749
564.710842
145.921402
113.271779
595.536454
639.032737
73.282727
127.724876
551.900443
554.860531
223.866513
111.486136
450.702753
74.009742
426.419426
668.227100
503.812225
78.074297
589.127523
506.300040
474.116697
287.282823
442.831035
768.550916
532.651701
531.085631
723.107459
441.945321
176.211903
375.608100
440.460575
602.457758
103.484997
421.883675
447.994592
644.732392
491.685819
526.360612
589.908858
273.657929
516.221289
404.261187
317.328544
664.623876
518.896453
583.748755
245.804338
441.744951
112.406884
578.908775
522.440563
655.726773
613.718570
107.111421
525.563559
688.191440
482.495823
619.274808
513.550051
210.529637
972.019510
825.986260
578.898307
572.570976
734.399789
522.494702
487.976152
197.772625
353.765964
636.577400
519.644616
99.815889
165.101689
115.338525
111.402600
595.491232
531.185842
254.343897
548.428455
607.649242
595.928895
80.235667
248.282918
1015.305897
579.668181
117.430765
1106.095110
539.407229
218.554442
408.311355
751.369547
374.591539
172.744321
523.657863
132.279367
236.851870
578.464084
174.134644
516.223595
101.757147
608.807217
611.726303
538.007471
78.042749
638.098779
530.487352
842.910084
509.157508
338.348849
345.267033
87.068471
92.059223
599.766956
691.039547
858.641537
647.610451
551.181084
76.391649
308.373741
618.847218
566.167451
664.836493
460.465412
110.797622
62.195207
1038.721898
476.112986
425.421712
583.742939
477.526120
480.507227
371.359145
687.379075
361.348875
784.768202
128.784730
553.804237
364.276719
99.445481
574.011989
1003.313059
206.197977
84.450674
352.345995
519.856685
267.230793
94.006282
509.646573
588.602547
254.807095
373.862452
485.728171
597.812604
432.635654
799.774564
410.056836
395.879924
541.942932
307.510900
401.483317
594.841762
497.082055
580.678827
500.292520
593.782595
496.689490
207.552355
431.413774
165.635227
488.684315
1018.105043
466.673203
537.962747
610.590396
574.174735
792.276237
445.227273
446.927027
448.688203
506.347532
446.703518
443.365022
498.199077
151.856424
609.560916
542.989567
593.121387
541.359459
623.289303
590.485929
560.935984
474.084806
417.555776
641.815124
591.719074
518.077525
361.398603
586.129050
631.749643
263.636831
568.392677
606.671538
272.088578
666.472330
502.501642
766.935572
590.461700
657.352612
374.865547
74.724948
93.012444
1030.590267
595.823063
70.646363
192.507704
487.097372
623.354585
488.549562
576.943380
395.605128
716.221677
794.354245
613.224198
246.029506
322.602742
612.466308
95.472077
463.112798
780.635653
498.334169
584.792971
650.777874
615.737049
156.379571
599.101851
648.189883
639.297240
541.763679
207.619237
873.422143
71.935533
518.123479
529.455721
382.415565
243.906246
478.680163
508.757682
79.672832
320.777868
82.620693
174.025107
1147.688376
710.460104
211.969188
201.987712
316.806950
648.160840
626.829763
593.400627
579.074832
393.315960
782.319046
292.379727
624.443729
615.396591
626.661559
544.451287
275.737674
360.865154
709.672501
602.104996
578.392434
98.330580
432.749084
589.809895
614.112754
475.473269
356.772458
480.957646
467.529197
451.635950
639.035872
109.782392
616.020590
267.395534
665.250191
110.484892
225.100807
674.317316
580.280186
100.745577
512.967598
606.085340
426.200410
530.571361
213.054522
543.305925
311.076187
439.884358
105.556674
631.429357
727.544937
565.793907
717.810781
597.591187
878.639534
454.581000
95.657925
709.928317
528.245153
621.152854
162.714781
451.414762
609.267303
102.470417
589.963285
406.612183
521.136388
560.109223
261.107582
539.117977
316.466778
656.817108
588.604591
384.480354
230.891603
337.175207
192.691193
426.216993
664.366145
348.414390
487.429815
309.634285
382.256488
668.230344
738.410363
594.323846
90.295558
759.664153
413.338472
619.513464
609.448579
291.989372
333.391312
613.535714
351.193065
279.898035
92.701674
646.827253
259.799367
708.499489
447.196164
242.921499
492.895904
590.425937
149.723144
530.867931
293.496046
290.407045
225.396644
90.913658
316.569021
434.861943
195.659306
93.395851
262.674340
587.325208
507.824422
92.915304
387.995303
861.929457
75.960334
649.877929
523.032486
498.740081
941.017313
627.651370
306.512860
141.757500
658.362105
596.128779
597.213227
598.110419
90.955231
378.683370
73.955736
185.306866
584.537253
600.688860
522.603453
594.102005
675.845512
440.204185
525.119761
227.508045
577.171425
546.139769
883.179293
78.167952
87.848597
165.423056
539.360969
487.321148
127.996654
93.657698
297.025312
174.100722
965.488015
581.907903
143.176565
585.786193
385.104204
360.540052
932.861496
444.383669
620.623797
581.484610
506.463463
493.477495
595.222477
606.810669
484.904624
660.280760
109.100077
565.471408
596.314244
267.466062
284.425886
155.440675
862.446994
106.273572
543.364709
194.920287
767.095911
142.624772
378.228672
82.523405
124.685486
242.375494
484.875828
390.938507
588.123256
884.425576
494.592494
658.029450
761.552514
636.892712
406.448588
463.899983
423.243085
140.377166
131.570460
455.955528
457.714493
431.555382
672.732109
545.940248
79.084518
419.048174
368.410483
88.302830
385.559069
213.158529
391.927455
490.056507
411.742203
580.926157
123.545061
94.884611
237.094830
476.537064
488.952158
552.329120
520.408706
195.785752
558.800529
516.278096
579.673544
625.462880
1077.208073
544.968039
492.451482
451.880494
403.092779
457.798141
411.713968
695.411911
314.962061
522.681723
883.741239
100.816242
537.625435
449.488624
522.139792
540.429306
94.481735
642.481559
556.181729
108.625353
297.684937
561.869277
548.846750
526.049433
591.111497
89.577569
102.851352
305.144082
459.991205
675.820951
534.830007
424.410664
512.993113
893.683583
590.473769
657.023959
528.534014
503.572010
296.027047
364.552475
619.637618
569.003860
782.793373
1059.331124
540.055137
593.600987
275.999602
387.768281
802.740616
524.627002
590.613448
664.384228
878.156729
370.206331
585.838531
466.851895
123.081706
499.493627
489.468814
501.933110
679.589137
903.377438
567.229271
462.038202
211.161153
154.375378
650.565311
193.397637
233.653111
268.995928
101.513850
347.539998
583.961168
713.671259
103.440324
442.989474
601.708824
630.404113
539.426420
688.008614
607.115417
729.091384
825.435189
162.837110
514.284399
463.078127
108.652756
486.842413
140.101435
313.442704
818.952733
80.242469
660.886896
524.237865
597.556330
120.852073
541.993842
111.531874
304.222819
533.402407
609.112793
808.056984
424.966286
488.044814
212.257358
460.165676
412.122405
460.333875
448.540222
663.142480
1002.340274
627.105446
179.354743
523.603902
652.507944
400.380453
97.772689
630.612558
893.180443
829.348716
400.961013
643.730172
260.727978
723.620293
479.005644
94.054139
506.334552
512.709153
408.275296
452.335850
597.729763
435.149667
103.838419
712.957367
587.253638
114.144152
572.520404
132.300194
323.197822
525.318770
163.936376
379.309161
535.019529
543.901370
580.075944
573.148269
581.212229
561.809874
335.849980
788.923990
272.069729
592.974583
583.968996
155.123892
354.275245
580.673116
86.821462
188.202302
895.302001
912.135231
538.429724
148.237048
554.336314
451.365898
610.941948
508.731077
587.880533
999.655870
214.707433
602.137875
121.384457
544.410157
912.415243
635.172197
569.467172
443.114036
659.095946
506.104377
106.940191
739.597827
600.845300
219.604234
537.848083
961.752860
560.229369
603.022710
581.712400
82.826285
536.419338
480.267210
435.151552
525.996393
635.882658
636.904050
596.806097
401.726933
685.926369
537.381703
669.513234
539.062728
102.255542
391.659208
576.688322
373.230722
636.736613
630.318581
151.437124
577.236454
412.852357
696.269926
140.593645
575.543059
543.121916
289.002458
516.760023
284.514202
696.587523
443.778891
521.685299
71.616057
446.089862
383.277856
968.069476
518.365930
159.157082
590.288970
603.719919
865.183636
264.865901
592.287998
596.090262
675.048593
528.243136
141.547658
369.730296
591.557888
664.360734
745.645963
609.983823
401.768587
588.070157
221.143599
143.350967
626.868766
799.633645
807.402538
715.497150
430.027268
669.989198
580.515922
585.641777
94.099821
196.870534
658.722822
709.463524
313.957414
552.419661
550.016634
641.051668
577.207315
105.282066
849.746405
648.791584
681.981501
626.306453
566.875221
697.467862
430.264278
620.114194
575.557582
636.171034
591.393666
543.921321
572.490146
567.242861
576.079027
378.907039
619.132775
472.815682
358.962548
74.191481
497.918011
699.721575
442.161947
360.290799
70.468234
580.293753
515.036817
518.186535
158.079169
213.557059
543.409486
187.720572
120.208695
121.020786
343.615098
607.346626
672.641341
95.950866
87.105270
510.697261
607.125679
91.930416
559.189338
664.873323
653.084614
97.727126
326.691994
675.307892
444.094131
620.142320
748.564169
627.971894
634.705995
535.577433
831.105013
626.484275
546.990632
512.541363
880.630265
657.850627
660.310958
571.649627
626.137683
168.100199
532.750551
652.056016
415.291555
551.353522
510.103301
998.598535
112.988510
82.498641
232.017617
142.823603
517.717154
628.958271
540.489968
512.247700
513.333901
472.210692
82.358446
683.574748
659.392889
106.338251
596.581186
544.779580
592.771844
829.280087
534.269100
257.722054
87.342046
581.826504
392.909484
83.366339
588.046804
606.389003
150.604604
354.425364
517.674105
453.439230
633.840720
134.163833
244.741886
695.311361
142.164710
542.776193
575.822870
529.567837
419.606330
701.089742
544.453550
661.552023
639.738105
72.067338
706.023325
286.723371
596.553497
311.432043
445.369493
447.334178
442.809410
449.488690
446.775442
543.089769
700.150106
454.066653
540.125630
484.760752
696.115296
733.807844
892.204922
523.647747
102.559893
609.157940
519.908553
85.761681
143.267255
569.707624
87.962059
612.500752
449.366529
507.506539
560.638295
566.057267
570.348232
619.297686
135.099245
414.246635
731.626873
595.191205
210.144223
576.463653
449.033518
875.592578
883.461278
709.891360
449.539417
398.514715
471.808395
145.359104
116.637826
108.480009
674.159078
723.307462
112.451155
450.758241
693.517142
521.155796
351.872951
633.090643
491.923586
478.106174
557.394728
534.998404
640.627566
586.339482
82.549618
596.042044
152.805097
789.430366
929.627784
298.225443
343.576345
484.561210
72.042624
97.616027
446.739922
289.973260
579.200580
336.450755
321.594338
96.176392
628.769147
128.634239
823.391648
638.144021
649.754375
595.320524
422.220200
457.717128
89.583490
353.619220
503.747061
95.828345
705.047870
254.457389
543.436740
138.116472
853.635873
331.626908
467.892858
448.449411
98.567087
252.520522
462.813589
414.034313
72.019511
724.816810
87.271617
602.339272
87.134596
687.681210
85.600264
580.116386
604.178715
114.530706
521.741081
482.399665
828.114605
1023.598182
709.026953
541.086659
1113.376396
650.689345
588.189008
151.978635
467.021922
348.932341
420.308192
650.943316
168.464755
525.566299
532.517571
723.756699
720.419144
659.848175
423.884328
463.940735
604.383167
98.223317
647.896245
773.062126
332.804842
502.704634
508.465519
675.041977
468.831535
446.887590
599.974314
437.503653
476.740457
537.935254
467.419614
457.258516
625.181403
483.663333
450.961044
536.876134
813.916497
136.472261
502.679127
228.268296
466.104409
453.985215
469.837390
640.381653
706.516867
549.657297
393.160656
699.762244
593.811952
153.648197
523.881800
143.155538
492.417720
532.897848
397.455685
610.784351
516.540150
585.916120
664.955897
578.748787
109.299798
392.840087
478.693338
371.930099
741.894670
231.884096
103.772639
226.351155
777.182938
407.330974
852.378671
85.402071
117.265220
850.887020
728.121830
688.463557
460.904139
706.001168
295.850253
429.062749
430.089078
598.615156
252.581306
99.523149
103.211434
576.836677
347.492464
706.549142
424.419938
704.965510
954.292239
595.477761
532.542435
503.696006
538.087423
516.224544
974.285496
532.034150
470.836771
696.285165
538.984578
1033.202283
177.827808
267.284262
710.413583
905.359079
492.923306
539.292635
117.645668
477.418427
539.285611
221.752515
506.699107
783.419654
366.068785
618.085333
546.186041
469.157317
747.646289
475.367606
878.270347
109.069768
646.100629
628.681469
547.586725
709.694198
618.519600
525.819433
983.675514
585.374640
558.233553
225.487642
66.581460
486.528542
168.950895
175.358199
630.251870
752.200487
639.098442
596.039175
533.462170
493.486998
510.215533
419.439865
776.783780
465.869817
535.458167
479.780032
995.759842
512.690818
377.736155
150.644562
448.981846
389.879087
414.822302
358.668914
601.880791
600.179809
87.971399
603.898411
225.298643
545.840130
133.405062
786.262871
680.820018
106.678149
422.451693
143.781145
118.854343
295.021906
417.878281
540.426966
704.091681
583.965558
137.166144
559.378235
714.575932
415.642969
589.189032
822.071408
247.844514
643.090632
305.086763
561.265116
352.445542
526.452317
672.325240
746.405705
310.319423
180.488490
340.900547
96.217981
327.820578
123.789360
585.389612
703.346218
668.697442
94.489581
210.603531
290.542225
742.815614
524.864484
577.367437
644.335423
537.750579
583.853771
365.997866
354.166529
598.723136
553.330170
571.917199
395.868424
297.636893
813.113002
219.686274
567.539405
240.319629
306.671079
668.748264
646.019149
466.145246
120.090143
758.225855
560.498161
620.268751
527.453139
677.327782
214.694341
994.462516
232.661278
608.081029
503.509662
567.323713
375.109068
235.524201
230.110483
242.791400
741.404905
578.633013
130.710326
435.037814
153.081749
505.094988
1094.835498
657.963007
594.416464
442.826730
296.602828
339.826218
223.799184
639.094119
135.517088
767.344429
444.631131
161.545917
708.798414
144.732882
546.279402
287.647147
544.742441
605.694655
533.823079
412.652232
404.051401
359.981162
443.532344
635.625035
143.447664
461.643975
504.265813
81.061904
582.548435
600.587276
817.068197
538.329103
585.775745
608.342055
263.849445
154.882394
242.189251
223.464730
634.912051
584.803362
533.332466
581.786698
79.734131
609.629256
501.528406
581.371585
594.065439
398.849864
468.107985
561.837242
329.998845
178.195473
167.402477
436.790797
448.933700
759.041390
527.615541
142.378981
588.364041
725.408371
109.139181
677.883953
597.695925
513.015727
121.524988
593.296577
403.616399
91.660945
340.749619
123.343063
802.722926
222.721585
557.011472
862.749967
687.431120
657.186722
94.246761
700.799310
330.967258
540.594217
251.468776
114.229590
203.324138
369.939891
441.139964
693.821210
608.709202
600.510630
94.670138
682.826355
875.655327
546.092828
312.165232
419.313545
560.664481
285.721497
718.706424
345.751912
631.979748
465.574217
128.839206
915.429650
481.671581
472.748791
561.188811
512.481336
627.614965
541.164708
798.834243
1079.617433
515.704424
489.711941
578.551740
682.621312
95.062195
715.012641
90.697593
167.853487
164.863212
425.838802
98.653689
115.143450
644.137468
541.540998
684.273437
566.707289
632.389889
134.725769
87.908343
607.324596
540.476056
613.607672
125.295806
518.520321
180.747132
489.682177
193.466774
550.443587
629.446517
556.063465
860.689953
548.999802
538.242407
542.078769
467.340420
536.330127
584.027709
204.495152
581.693879
408.197291
632.116536
578.581484
683.143535
517.491947
552.924387
521.700737
484.534581
494.403760
660.240333
634.565293
428.805430
711.446235
514.980378
199.494026
527.277705
572.206071
669.981988
284.038405
93.493488
364.412170
611.272376
573.275110
367.782210
510.248824
825.853197
437.276385
520.572071
609.148485
210.454306
693.876131
287.365848
582.868086
328.207764
188.071258
575.277475
508.228712
644.985957
722.040841
514.774678
587.503372
464.866174
639.759369
508.911510
543.372549
598.020576
444.682017
772.027858
694.978116
599.432824
504.324684
544.762591
231.661469
89.256418
302.356636
498.612881
639.056138
162.041778
670.549019
559.845190
635.790284
538.108727
582.690051
946.954187
369.990008
420.295278
503.556319
456.265921
221.089159
546.143851
295.209622
631.990438
619.395362
141.806009
645.511783
542.104917
569.114937
346.016742
579.485118
862.434212
320.706733
585.645174
537.231828
444.432194
460.651795
104.213866
543.380653
455.781509
112.496719
298.586198
299.807624
561.363841
584.099155
600.134035
658.607017
411.971133
99.787311
479.720758
650.143667
580.702515
275.396673
509.314853
635.755228
510.046017
147.107574
754.679880
315.258731
552.888469
143.882313
444.733354
302.351351
487.611587
792.999126
154.722390
430.807188
679.560744
441.049155
198.170112
611.715448
767.779741
853.419642
777.369532
523.696621
550.130784
559.021670
566.439846
85.045716
494.954621
556.906811
113.736403
299.916544
190.229788
547.478700
698.052786
642.928930
371.626835
96.663729
542.123702
672.510177
666.388493
543.177495
263.350269
483.317730
602.678667
485.265117
267.059793
481.471153
477.572708
667.751933
699.023383
445.178996
598.000555
308.015976
555.327659
499.482301
543.408832
557.175384
527.630667
546.109297
757.674008
223.866133
664.191840
672.062905
519.737845
442.733755
719.217400
97.134967
541.886342
833.536927
543.025841
576.715211
727.964451
215.628540
201.337127
248.999285
625.502171
153.909875
601.161399
279.760902
543.171774
580.636551
152.978671
677.037593
192.264647
633.073437
121.196801
732.585466
670.547725
149.234351
157.229483
652.585096
473.865150
192.473661
1047.100435
162.785687
155.489608
530.387503
91.760542
779.694919
533.173000
544.839120
546.947085
579.967853
573.796168
565.582115
472.269505
398.956889
93.400805
920.249827
702.735224
87.000528
544.983072
603.200971
92.155136
598.710168
375.269465
577.215910
772.475146
659.477866
822.246766
507.971194
548.702772
398.117441
91.345249
815.123082
604.856773
417.061872
621.896045
569.787324
636.295185
521.401224
652.668486
597.374224
601.842835
564.461148
613.062164
654.848602
347.652124
472.042615
533.452685
687.818377
440.733586
588.828124
324.032323
610.630722
527.423123
480.709814
548.992845
244.478958
583.599598
97.570445
550.740172
75.764821
91.865815
356.879782
376.845559
355.330119
842.792925
474.797274
550.296648
439.605010
628.624923
478.684304
555.919073
480.176291
674.059999
548.324061
660.958642
550.421891
439.857473
548.387925
158.528661
757.791936
694.990988
628.458185
552.314639
537.370787
279.191699
527.785044
512.180304
251.110510
708.144818
403.268176
554.398588
628.319551
638.458988
155.908953
556.704991
526.437599
433.437840
741.694592
468.869558
179.306633
602.654142
409.435192
68.833393
505.990870
461.607770
482.823683
286.005525
684.258407
586.583047
754.234502
478.052046
631.416458
448.225786
447.572569
448.642812
448.289061
448.246166
118.780160
562.474594
659.221776
547.507362
76.182271
127.368295
239.153875
527.383339
553.214808
79.024290
510.546418
364.657778
626.920581
493.237439
479.304260
334.851347
380.600137
280.870471
285.690627
587.157331
389.372132
438.575778
570.006671
626.033429
665.711165
463.275830
433.531331
95.719618
546.425068
651.354221
455.095462
499.491843
681.800240
637.962500
761.890950
579.126251
549.449818
624.644229
557.915171
746.819686
516.826426
599.678981
553.251164
671.059318
566.205976
503.546708
100.664672
643.469806
633.514022
579.972372
382.145745
596.287401
652.690833
568.630361
524.627822
402.206281
460.433584
728.906332
585.879009
653.806950
637.565606
187.483936
824.657011
502.916703
270.767323
602.727308
544.142802
248.456899
475.682312
659.951791
465.075307
451.937489
589.251759
733.620888
564.348410
518.778537
951.469675
542.463019
489.390229
512.735441
461.314390
454.835745
559.137292
436.642732
623.853981
548.889057
435.689008
598.966190
90.108408
372.115117
469.904167
605.424440
437.456435
457.837954
468.769688
449.101893
523.694533
555.079270
562.649128
668.460937
581.403434
603.461744
447.359265
202.124224
457.515203
351.027697
581.071379
630.166153
488.047589
482.294707
453.176301
107.740809
621.230391
374.813460
484.348394
91.805855
226.462185
608.830651
605.665320
643.171753
456.341379
675.894514
545.807771
937.350058
545.798260
488.398819
307.051239
471.364360
752.117461
200.981856
595.431438
628.229849
544.875027
458.907068
572.011821
551.803282
609.018619
335.452281
103.151799
526.986174
580.419495
483.875064
464.415790
663.788302
349.661538
435.035492
213.868486
569.188617
693.287626
643.089600
545.931109
604.882384
542.101944
476.242832
542.685048
337.189155
561.283781
86.142914
619.238097
559.442436
606.403464
515.090349
518.424167
553.971724
282.711328
518.310826
381.433941
506.755887
558.465912
610.933719
695.560705
573.824975
666.644352
477.315623
677.729803
551.488500
64.673040
926.792641
696.775270
610.365716
576.405489
561.506779
319.049077
96.517930
471.015958
686.137076
79.328962
85.523639
586.553637
603.533823
449.205694
563.168847
514.319746
803.742819
567.718247
569.321733
471.949835
98.783896
611.785831
558.209572
632.011525
572.611593
640.094895
110.467441
388.192401
554.098626
556.582630
555.697246
407.253876
640.858881
659.208745
589.481983
504.813597
326.575027
417.989754
630.347050
445.078801
462.006308
329.156970
475.424115
262.198792
606.259156
543.695190
676.050757
556.257030
682.136878
510.913959
565.265025
570.578059
340.394482
433.290026
412.030497
444.423490
543.348853
595.518751
613.224590
675.177686
432.021439
93.298315
67.135715
607.742644
820.770423
383.067344
68.746818
439.578579
258.977579
177.071969
553.236494
393.703693
561.500781
555.017900
507.203695
360.982745
514.283578
104.583160
360.049548
687.119477
464.046613
657.706978
540.707057
635.246843
557.189844
216.378366
611.747979
303.114497
412.446783
550.859541
560.013069
566.674149
564.498585
314.874500
651.823568
588.754532
583.284835
450.319336
549.752020
582.054342
570.903284
652.608347
522.885430
541.051969
571.036445
511.319034
616.410341
559.452592
535.596249
545.419534
543.152325
584.795531
590.824023
572.253233
540.461063
551.736888
566.249767
593.880279
596.055256
437.417716
273.790714
499.029348
606.101447
569.022284
113.277290
535.526083
563.151237
575.528693
348.700787
602.447069
560.791089
636.380881
552.633005
467.320598
563.058817
513.207358
514.074112
649.743569
217.121678
539.652009
383.031030
610.663509
517.624866
263.227580
627.206459
542.782123
290.162055
554.279029
578.820368
610.083260
549.077683
616.095935
560.302412
71.584288
562.008803
635.786159
247.124561
177.222228
494.871443
581.774859
613.978623
477.282663
604.420316
535.743948
270.934550
541.679437
566.803595
530.258913
586.376107
570.159440
525.953407
613.976247
555.072463
321.360624
529.770408
264.066436
259.470190
249.337927
418.142973
266.529052
338.181349
573.677612
66.454081
325.547044
524.448940
563.198615
371.207273
489.498831
654.499144
554.982857
556.901971
605.214855
179.974618
73.239418
585.975132
554.402147
282.117633
436.998548
547.756538
539.905212
313.805900
564.484452
534.350436
519.324896
501.044826
551.559242
617.238312
524.908493
528.971758
444.943512
259.477868
555.211070
534.319693
309.837951
599.164403
519.480521
530.060197
589.486280
264.997303
565.255477
466.577334
546.665777
172.390980
301.999513
593.429703
560.875847
582.879109
263.618822
586.120479
463.042746
546.832638
616.078483
562.443088
448.502356
446.592239
448.217953
447.370144
448.956636
286.687961
365.900517
366.350677
84.970663
609.992270
188.387679
620.018007
538.099953
558.763348
592.159884
342.770714
528.664952
344.138082
599.420680
574.396769
252.199824
563.534856
291.330259
517.997297
592.354495
77.526554
503.331984
599.320026
522.944629
579.804059
474.263026
560.925117
585.240230
642.192137
592.371866
170.090785
523.519861
578.862984
497.492013
469.874225
546.841876
449.997966
244.658421
564.708245
235.412623
545.283391
596.345805
551.135991
514.126495
187.314431
218.828035
496.907178
567.210154
541.141652
182.381747
517.161184
212.561264
638.287059
119.422810
295.008247
177.756484
279.556102
282.956892
71.040162
298.269791
487.394371
273.773090
77.295214
233.288654
180.227848
593.253433
254.804762
256.183685
608.803026
545.897536
220.432356
526.642569
176.843824
403.477935
429.204724
418.096055
201.491723
591.125235
243.189548
624.550258
585.272917
588.498935
582.218588
240.905073
585.194155
211.159612
200.466837
222.111262
546.222709
231.719927
190.062376
190.703915
515.555016
209.360522
603.599265
573.085588
548.280839
545.123687
542.634859
208.113585
177.623902
229.769629
223.879438
198.537637
231.636456
246.326038
333.777661
174.719295
325.425011
292.639430
301.725023
187.993227
197.656196
592.407475
129.709744
239.461343
449.610988
451.057755
450.776686
450.115393
451.126378
602.136103
591.624755
597.819411
82.083084
78.993454
86.660659
461.242237
449.540652
93.421581
288.006201
339.721546
87.794121
127.163558
429.141735
412.673957
443.806653
522.472201
521.167786
548.651675
584.427105
551.048746
92.826570
84.185277
444.145780
245.678787
449.611631
449.751198
449.691051
85.358012
88.681961
86.912069
462.140245
443.646047
403.142542
415.840609
523.765993
546.715323
577.160646
550.187597
228.416002
228.657889
450.961747
453.222596
452.927406
78.822242
80.308604
464.745863
452.597945
412.336608
413.740111
415.371124
530.214768
552.925655
579.572771
214.854765
420.311277
442.446716
451.699837
451.280236
87.082358
465.811249
403.130770
71.957739
75.488670
540.513805
532.938975
536.575839
552.116966
575.159850
567.926588
553.941694
213.330772
201.627811
449.309850
452.939684
455.048000
83.158560
78.903115
472.269648
455.745322
402.121587
449.002803
540.040443
542.050610
560.965939
576.620178
579.833059
558.774552
196.967648
208.089698
452.752534
452.884481
90.326869
89.638844
469.735350
473.831740
390.195302
389.177665
378.317816
543.299888
575.615786
81.147339
570.626813
557.494505
85.375072
88.760971
193.518277
183.307345
84.594690
76.473788
454.582702
93.612949
87.767143
87.757674
459.283638
93.617220
83.555905
387.960942
388.661179
95.997301
551.694024
570.181727
561.266297
564.663506
573.459193
567.297100
106.474020
187.783289
88.209674
457.561919
455.603555
95.308462
101.528171
460.195853
464.371394
98.065564
100.187846
92.397318
393.044911
375.139055
402.490805
393.339322
555.108298
558.984595
568.244200
562.846559
568.636836
559.332416
592.458339
173.430071
456.131296
453.912179
394.665453
375.017375
453.740391
456.076309
459.128207
95.101776
94.413345
566.776404
570.234464
562.000454
434.348303
448.770221
128.683492
382.508550
376.998692
372.988716
372.752788
360.919441
174.270721
1290.942444
348.846049
561.596273
170.587124
115.167088
165.791897
177.209815
560.285919
564.602793
160.432158
1248.006192
570.470382
565.803628
602.682451
84.302496
959.850222
168.957595
181.703439
1306.637559
274.686177
364.135161
598.420197
455.063763
457.083634
102.245944
159.901523
112.222996
118.221505
449.125428
597.270617
353.014672
145.862237
1212.549212
313.804846
361.100470
358.335479
348.073021
131.210487
1163.620306
153.758306
436.248831
370.765695
366.553951
407.817287
563.063940
433.634677
562.321272
565.131093
563.796537
433.360815
345.330122
109.707792
101.669384
155.367835
142.286669
67.384803
858.413459
434.214816
118.257114
102.846443
433.393756
1180.704522
160.807955
275.375895
79.086491
392.998659
69.225234
426.019335
457.096837
103.288367
413.016653
103.288507
132.200425
112.514623
1146.925272
437.370974
406.768699
381.813731
544.162211
434.070865
437.874031
554.451374
433.928054
610.389620
433.825742
829.897208
1105.912069
112.209364
108.251886
176.551433
543.174546
493.986842
547.059514
542.205489
436.250094
433.700223
165.981690
175.698080
355.239852
436.221887
364.474966
426.684906
431.964998
329.581905
371.341214
381.378309
541.646566
1093.325079
442.739699
433.518647
535.375256
535.863395
430.927796
63.347162
803.555856
453.226439
95.636639
432.393631
438.046790
844.404554
113.477645
122.872286
116.503773
435.222899
573.587070
573.058679
569.654319
779.631743
435.137527
440.380076
319.716329
429.269454
1005.759593
85.220122
148.996648
440.058914
434.283747
174.603577
62.314411
757.943863
619.605763
92.878992
77.253619
64.306012
71.203603
737.529106
668.534164
598.669845
608.312145
482.093739
631.286093
717.995507
412.522032
416.968804
406.034767
434.958775
345.822386
338.068995
434.897225
437.273982
439.522265
435.040630
414.907422
193.073122
488.371308
409.619508
88.966398
80.900554
74.189578
62.764979
434.045536
433.724397
73.194699
75.607955
541.632927
472.845238
433.327379
816.576722
417.455777
544.020312
178.103427
490.717923
73.418904
301.330330
562.039246
392.612327
139.212926
413.361953
435.416056
372.124851
179.051077
554.494347
451.155984
538.307839
932.652041
382.298931
65.756644
16.298928
612.371020
196.857745
171.930525
126.504059
17.344586
147.719756
653.784430
24.092273
19.790369
418.547791
776.928729
731.623429
696.250341
56.614799
283.116878
48.125592
103.341894
75.612047
492.680112
570.770582
38.969624
14.450713
24.008557
44.342934
28.881120
15.978270
815.571037
458.165891
111.345415
120.583726
439.907187
464.370567
560.483702
487.151888
490.726437
346.338680
131.121881
407.511672
435.971391
791.626341
480.168214
435.951007
433.517382
570.459960
63.279030
433.586791
34.003865
255.754695
526.029107
62.705726
349.700122
32.856501
23.289036
452.255155
596.076227
421.022553
436.350068
434.906152
403.082123
433.592846
1050.855493
417.311805
466.900858
434.721820
433.073491
434.766888
492.687213
577.057814
547.358511
433.692694
433.460925
542.667092
88.069832
941.918908
554.921540
768.609719
279.360947
436.175664
464.078786
55.450155
540.020575
148.876425
281.592635
434.253396
142.520567
727.551625
613.402585
90.430342
79.776284
624.210356
63.675320
603.386003
439.893384
343.016135
411.550496
416.099853
435.004948
408.706207
413.884846
435.104945
485.449237
72.402050
747.378243
76.032045
62.079032
433.856175
310.830318
67.700830
435.463690
432.027810
1041.154984
434.020752
433.234370
185.512418
182.269630
530.979114
137.151817
527.559866
522.431368
521.561336
1229.092674
340.348276
331.730066
96.379376
542.110894
158.113873
550.634629
545.148775
434.574662
429.571449
488.371358
124.529278
432.861345
431.524129
359.691794
434.320491
148.898133
621.053482
624.972606
595.924354
138.976751
169.604963
289.429077
438.806789
114.602136
172.150757
603.341484
433.523196
432.122425
433.036527
433.174167
570.840232
516.371757
436.784166
957.285685
1100.307301
437.420540
551.933472
451.359196
455.897895
432.071162
602.944706
566.444360
97.532072
171.308700
435.053037
62.027918
433.507781
447.028149
434.125698
326.536932
432.480580
431.093924
434.060555
505.374346
433.302259
88.876850
438.486369
433.226412
435.920695
150.311775
622.058884
433.066102
433.418920
69.171561
537.266875
993.285544
579.036394
117.189948
414.877801
327.545492
433.263651
499.299597
403.658218
522.392007
433.060175
441.291556
433.691493
433.334472
137.642718
433.932315
436.399171
102.703327
1206.638738
161.270711
431.744879
626.213496
550.964537
433.635274
591.374576
435.528905
372.867065
385.497181
474.628380
435.876979
433.437823
434.204174
619.898200
581.864075
581.430945
432.456927
331.781441
217.684072
583.134261
599.473632
703.400059
721.125611
540.588286
433.389939
433.594253
424.970628
433.152503
433.211292
433.613420
437.210522
434.259348
521.003267
433.678364
433.440856
559.514298
432.129630
186.811296
537.975230
552.080841
432.398362
174.372430
448.315351
433.927622
433.863118
437.860850
520.226709
535.613021
436.964623
432.084131
434.194030
433.249626
430.775771
428.889976
559.975645
434.591549
433.594393
435.988702
434.062428
437.190151
125.838354
448.624827
126.460693
121.460287
560.092715
432.912839
433.383149
440.582208
432.073358
457.776486
432.871194
434.850817
433.771968
590.706671
595.813506
981.284233
568.925452
438.601717
427.097369
433.522646
434.357393
288.606437
432.677968
433.017199
413.917404
420.089831
435.666872
433.205686
434.004829
275.767931
285.939825
433.709861
1063.869530
435.236718
437.040990
377.509382
431.723862
430.858334
141.245163
432.926362
434.571695
433.811811
429.557979
628.707019
156.041869
435.292738
434.123929
433.781165
433.306680
597.443692
433.448489
536.911272
432.793842
434.206468
435.483981
435.003736
449.469141
434.054129
433.891822
435.724972
434.277552
100.692085
345.798140
596.332694
434.594863
434.531730
435.380521
432.127590
468.629259
469.221345
72.496154
1042.233950
1086.697843
175.548928
436.937858
436.607779
433.512740
432.878500
598.064271
598.960478
430.380609
467.906940
434.419150
434.003444
437.816740
902.314695
436.536793
435.845464
435.891051
432.091306
432.559645
433.458419
423.518002
407.813664
1070.652102
451.663284
393.777772
65.561462
615.663152
433.522180
434.967682
435.120102
436.237993
491.194296
433.356398
432.990970
588.557339
433.160117
434.579830
438.726979
432.476198
432.455866
432.463663
435.882544
432.896252
435.362249
961.111651
435.245573
198.714007
316.313781
434.777361
107.317719
463.112557
438.091136
433.698359
538.472750
434.812383
491.078295
435.661469
254.509231
433.533826
433.686079
435.381997
582.311876
438.845512
434.359195
521.581751
335.008943
332.240425
435.049378
295.487170
539.510098
436.463213
433.386675
434.400719
288.009226
605.716059
540.954472
450.669137
435.764982
438.069706
554.104098
433.426412
1000.646349
436.763128
435.782317
435.071935
408.331519
333.899113
321.342549
433.261650
436.184815
447.371826
484.362008
438.510106
435.907078
433.488821
434.503720
484.429666
438.416256
61.403915
313.014044
397.157190
312.274273
491.235812
444.841935
476.586318
434.051529
373.096241
378.822139
437.376268
552.771913
550.285252
435.688871
425.035509
431.837717
433.406194
551.953851
431.772642
435.669495
436.527646
434.067965
434.740651
436.265889
581.261522
404.297114
431.853002
538.296129
438.954135
575.050507
431.419005
435.202191
433.689315
434.770241
153.767332
435.156271
77.930651
69.056672
432.809659
387.967823
371.543386
432.864651
246.585828
433.063380
433.654510
433.945109
434.998774
52.297599
1237.351695
1252.957057
433.810364
589.920873
591.585725
436.832453
447.344492
452.261998
143.130080
491.935829
501.127883
433.004949
94.692688
439.429147
585.318938
545.932604
433.307269
516.489110
458.578260
118.663751
437.466555
385.129023
431.253058
447.389792
446.420402
433.142154
429.434608
457.245788
435.233646
449.767903
432.565258
287.241608
439.413146
586.021639
539.936781
344.023708
538.943887
604.712908
434.611081
713.457864
599.498683
937.844676
433.350527
438.161768
432.711321
434.245290
527.588474
438.933163
434.202476
431.748274
431.110580
432.976537
197.291438
546.050300
103.021126
432.502013
336.506444
430.418609
434.398641
76.004572
434.030403
433.876801
1023.836849
535.272379
1216.275566
434.078463
976.851510
437.883590
440.964990
437.485842
571.555004
441.891479
537.373562
1044.705355
361.080215
453.018241
325.622395
335.101289
432.150894
459.966929
593.881314
91.734045
359.323394
129.017360
529.391701
561.979996
854.034401
293.611101
283.510202
440.131081
436.085440
444.991237
443.296725
553.153705
435.670218
434.578273
286.815741
433.508345
424.093715
153.457299
510.002243
407.190992
435.708524
432.910357
435.321735
484.471007
305.898705
326.959406
333.113016
340.789409
525.891225
436.870443
358.416329
455.641767
461.997790
554.141511
503.197134
416.422282
430.810304
1040.049935
472.449065
479.275313
211.096139
504.564645
501.013438
283.197668
588.734335
482.356655
477.744851
74.008722
89.868596
590.777834
451.921008
301.706558
434.771502
460.442682
432.525160
437.710234
440.826430
440.122507
348.319484
476.828955
391.838592
433.103606
676.111099
516.975698
434.918696
212.184565
436.647626
374.072241
587.627666
539.008034
438.753780
96.267984
436.122873
166.276153
431.296857
435.770725
576.499220
447.738918
512.275140
598.793406
470.431715
1078.847748
539.312095
928.684206
971.244829
446.174665
478.967144
466.134330
477.180093
518.697490
509.723769
320.477463
433.673854
429.530660
435.479275
217.684980
464.142294
709.556733
437.901114
442.637006
577.403782
435.725524
436.154167
599.051469
503.754354
505.364510
428.369762
437.127552
435.741299
566.333565
139.680699
418.354504
591.475465
437.225680
137.849880
435.411207
546.223793
103.757456
574.418153
359.786895
436.230915
386.006576
514.153549
190.613784
573.598598
397.709168
443.386630
436.965410
436.413803
442.885985
457.182167
109.718288
199.131257
457.864009
433.400374
369.816401
432.202563
473.259670
296.019219
433.891209
434.479399
521.319740
534.765238
519.475435
618.729424
254.959662
414.894629
442.162882
113.741417
49.668036
254.143512
436.195086
607.636065
249.063219
305.040755
679.162189
106.679711
482.814244
429.802186
1011.128382
1029.141008
434.959848
433.196314
503.296656
435.249585
437.077294
216.396620
433.326542
461.753314
435.713525
438.424749
445.003559
388.411838
418.587078
494.914019
438.456321
441.430987
140.516934
351.182315
427.418212
163.523347
437.016515
588.799549
96.621346
72.869246
334.188723
458.363091
440.712132
431.771519
360.531822
436.390108
438.148027
433.601560
77.408402
444.831032
437.659829
432.434285
226.531441
435.024478
463.073931
65.044955
438.111814
437.114536
431.281817
434.630378
65.243789
432.081606
436.868080
333.571655
433.924481
428.222010
436.890015
131.461639
456.346443
431.756315
437.744728
132.708001
460.290821
191.217034
443.244665
976.286378
433.147963
275.939712
431.982718
1050.053181
537.074441
433.873748
904.016766
453.214286
433.634704
501.035811
373.738831
604.018905
424.585375
86.512614
432.359726
483.081682
352.510932
432.568760
569.068704
1124.394219
412.059603
437.240720
288.179322
442.613022
389.849239
430.175056
271.600247
433.384203
433.870371
431.367230
102.366301
435.404348
577.823966
201.867019
438.033756
435.400756
75.909912
430.385897
409.235871
407.640785
284.757464
942.267797
998.158605
466.836895
492.797372
72.854360
79.378159
546.909358
41.948216
391.658857
532.831078
435.350668
369.209136
438.821088
465.217436
538.159799
164.869265
86.518853
83.081891
329.595285
452.768989
433.909859
155.762466
1183.637279
587.315501
296.321847
435.077338
204.414438
549.201704
428.439479
676.333737
567.505293
581.022833
587.804048
1207.404199
497.393587
133.093785
116.052691
433.023536
445.469255
437.749098
450.980599
433.042810
97.877570
439.596589
427.778152
498.614745
145.461000
528.184042
429.209896
439.755892
308.534485
144.917760
142.021310
431.724230
143.236923
129.668477
101.002336
110.242817
490.067589
539.307768
428.904717
1000.589925
110.220649
431.508289
594.261913
915.018184
465.328101
528.861677
435.693112
442.647916
69.131460
153.447665
53.984727
44.668497
361.214368
543.396410
436.042839
435.836466
433.370653
464.050968
438.221860
395.127292
60.551507
477.226393
555.014886
434.345135
530.257934
512.147502
439.460514
494.372412
542.327945
69.050750
435.071086
99.151974
436.002390
432.463044
168.356994
888.862346
495.200938
563.742830
433.311477
429.971804
459.735022
454.694105
426.478294
94.021590
442.949288
100.651434
437.878979
439.124512
108.393332
158.495390
465.069760
567.660341
990.770704
672.455847
657.071746
62.806400
584.096988
202.101914
450.679537
527.568031
527.647430
579.380380
595.152630
439.435565
400.263494
484.110053
410.709675
444.108960
260.982194
434.942796
666.911968
77.068729
287.369936
223.156575
183.153317
628.598336
85.493029
274.446556
374.693084
447.389243
354.714727
435.255096
455.595618
441.152078
433.988018
291.782659
431.587173
433.964244
66.608327
244.179705
590.519093
442.405765
576.771480
342.852163
896.130476
157.906199
499.539595
664.440416
436.496266
297.240345
494.346855
395.902063
492.586667
437.254852
122.881900
60.454070
435.651580
589.817566
589.898658
519.895065
449.653702
356.093473
112.676517
106.990172
468.315807
449.068566
434.304812
277.463961
326.367364
1028.805840
433.332491
556.174072
433.333415
432.387476
435.289271
253.607595
489.916334
433.419006
433.972790
474.578417
438.730695
700.464967
458.842206
433.428428
438.587013
82.563147
534.166419
321.935909
458.800888
441.114302
1073.343796
430.736642
480.718741
610.316305
431.850676
505.994818
401.245331
437.173529
178.514285
550.167859
539.934698
468.565250
436.130205
310.316863
103.848001
428.242287
425.446902
97.527460
100.868892
499.913754
498.073267
433.236867
947.842768
94.865943
537.363813
520.391302
405.189222
431.846092
105.416901
437.872086
431.787642
454.469975
436.547532
233.050649
535.006587
534.747012
109.573565
299.970605
433.867008
225.302016
417.343689
163.607778
710.792273
438.914323
432.086480
433.626414
469.909890
591.522520
1298.191582
394.126818
172.231186
1260.641383
422.386628
180.041632
1309.120423
588.320990
62.073589
63.176284
434.951635
66.313014
435.450964
200.386623
897.169699
864.236500
415.281609
458.572572
423.251032
638.490959
78.009501
544.550119
540.145838
573.113375
574.628009
394.537294
631.144760
607.727162
415.388928
441.932290
119.933539
515.455271
347.481973
266.198865
873.508293
433.472907
919.579812
449.676182
418.154195
589.598036
663.181393
516.066608
69.955279
302.565594
575.007395
403.496292
240.685321
118.624105
515.311219
431.099884
574.891192
170.541987
555.037320
561.770371
432.053929
549.200615
432.183310
476.458321
414.204700
323.944354
434.960963
146.981678
434.607906
109.930793
437.761655
570.105895
134.936335
937.289592
434.489292
464.322636
577.759230
130.780544
418.893262
574.789383
620.559147
144.059835
431.528136
502.151291
427.359852
467.316651
228.646600
533.393540
590.117641
66.737741
62.800174
506.421957
570.902424
485.600065
614.873626
493.303551
52.578250
151.899101
546.649957
430.379273
429.623320
430.701549
339.272340
430.442898
545.225399
434.490843
571.176051
543.992622
430.563732
572.659769
430.635712
481.492238
433.974367
402.788375
400.532594
94.714210
422.379637
466.308241
193.359957
569.587884
70.177513
473.587256
434.952003
542.400910
273.231808
514.293799
520.832208
350.313551
443.295448
216.080714
112.491460
512.001873
441.890039
73.156455
430.843715
587.284600
565.641604
586.257315
469.164795
292.561752
122.264177
441.713949
413.997222
475.559383
77.466923
88.043205
632.781761
447.424162
493.753499
610.932493
603.020150
433.332973
433.326332
278.440802
530.672767
174.162451
161.547018
635.878266
477.347747
412.178109
464.347822
603.802977
603.215887
156.599465
1186.846978
416.258741
598.173997
413.679387
416.686226
252.074783
831.434303
119.525358
435.146586
486.969826
441.936445
432.676120
561.836970
546.541419
530.809239
435.396718
1141.954391
654.222643
754.181726
347.681402
87.934556
538.690056
66.038932
459.491636
458.637111
434.258190
404.915552
440.843983
439.660418
564.377729
238.612662
999.826918
977.807907
437.251472
593.246635
465.630213
405.756888
604.518704
439.391904
155.249740
463.687292
77.790650
536.288539
291.080483
442.193205
798.044290
452.646389
534.281314
557.699938
435.080787
589.343709
96.939893
436.781251
691.820361
492.910874
114.127373
142.542290
980.773878
125.480894
541.498701
543.542314
557.160589
433.407055
105.796330
437.558622
148.308964
432.634767
438.964757
290.744703
225.439729
78.695880
434.790038
434.211989
399.376657
169.308446
531.520755
502.109308
387.163826
436.501753
685.939343
439.523203
603.104619
429.295971
433.638383
340.060271
403.442171
441.179824
416.932354
412.545406
436.535466
72.862016
68.048965
256.805676
460.061181
440.653368
432.023314
496.538569
435.691199
434.028606
435.162410
476.037059
439.945087
390.246267
611.475728
435.684343
528.881530
551.487778
327.192139
458.586420
421.973109
266.253489
920.610901
148.493654
435.447084
462.641001
616.140196
378.399967
419.534264
218.938452
460.011282
514.742060
60.495486
440.239571
533.542446
512.233057
529.682711
475.240766
442.059416
432.889192
439.139563
141.018817
431.296250
466.164969
382.888494
921.791059
431.379422
103.034755
430.915778
434.137403
105.869786
463.296269
473.882122
353.123468
433.612194
435.087288
196.630708
139.189837
349.790210
319.862103
86.875699
531.379277
471.523558
551.229101
448.801229
290.664592
433.334707
439.733954
453.813935
452.623022
242.352279
436.453360
85.022758
273.394970
435.300998
433.670742
111.595258
555.321207
286.711778
434.631833
582.151747
310.486891
447.998156
438.343648
447.218963
423.071356
261.199793
684.951361
449.752443
433.788069
470.394100
433.733147
429.336891
109.477926
500.141020
479.931617
433.475077
414.019808
78.423305
309.517620
586.099865
433.538507
524.140376
571.347112
436.473534
83.769205
67.672014
407.694567
431.528045
433.228812
435.635747
470.775529
551.188477
436.607825
519.182690
81.021687
432.952121
844.204073
93.117479
431.160984
438.166707
554.932673
430.878245
459.115300
440.994164
1227.103199
120.937774
131.620887
445.742722
464.925908
433.468970
436.277073
119.725619
471.708749
461.773442
589.656324
335.021142
581.915403
52.377372
435.184100
749.603576
438.505608
571.101012
558.894666
1116.755651
319.198246
436.159085
224.112690
422.696880
535.414605
447.744755
582.216062
462.638345
404.544307
358.531986
311.590892
78.468924
872.008939
543.168656
227.191566
789.188283
435.698061
438.185195
130.988035
484.639532
286.566630
451.157857
440.917260
882.645595
494.516751
64.487214
434.511517
94.595604
360.932343
438.583526
489.365285
203.096687
438.401808
476.960729
432.703074
293.980462
170.822898
65.670119
435.025254
323.066926
431.930208
359.262036
452.498831
434.131840
810.979773
132.254606
461.336327
438.955815
421.686569
532.235076
431.143522
434.561248
526.422491
377.223881
400.351890
285.398662
275.192962
478.599100
75.959983
460.523068
439.930099
449.984091
430.919717
922.186900
100.730344
436.447646
1208.303218
348.376527
538.883165
608.489941
435.870661
431.524997
434.766514
206.815509
458.643658
431.431630
458.072379
433.512466
201.186937
436.735432
435.862475
462.659263
871.300414
300.416780
262.181403
437.778306
315.270443
438.554993
96.912408
509.780179
534.867056
127.485867
873.730319
214.174099
434.645645
435.297129
431.132762
1270.730682
777.670456
431.389750
590.275077
286.505146
575.676489
526.222947
746.546178
459.275951
501.782524
436.306333
541.373556
436.878725
528.230084
434.950707
221.527157
566.160234
557.596604
443.372175
433.392617
432.745576
531.900057
518.985122
412.408680
443.191137
442.504318
387.543365
152.474162
229.219800
597.083818
298.522916
476.174769
434.777900
582.239837
667.042599
526.068232
419.543242
587.955271
852.645576
86.907537
440.268921
384.459351
117.273051
485.152247
441.060290
523.346747
467.841603
420.441626
439.709004
53.260136
384.251057
474.609261
97.672286
239.535430
438.506635
379.063258
436.038169
437.432367
376.520936
403.479188
570.249932
437.516739
64.802697
439.908550
224.682792
842.726030
435.268489
522.033576
464.713084
513.811439
72.141893
74.743344
395.366639
134.880288
76.587036
433.210116
536.385409
493.753522
348.156096
314.967953
566.932990
438.323481
82.421694
433.998519
580.402908
346.173923
433.888713
391.002019
694.107051
69.001647
420.509960
278.533649
434.688308
439.726496
250.971897
527.803103
440.892773
547.036783
584.494058
57.633712
207.601865
892.480214
265.126121
137.442232
298.308849
441.511938
433.131282
331.448434
316.133344
425.955917
594.104825
598.080937
451.172278
434.781518
355.695867
425.459471
437.990201
439.697405
476.511602
266.555800
468.450979
398.539396
425.391759
547.702296
435.235496
379.209155
450.244840
401.242399
147.961646
335.469218
413.171756
435.353363
608.503135
431.382248
440.698523
462.062025
91.383477
90.136317
433.362999
82.836136
439.079222
440.981242
1119.589781
245.432839
420.027123
1082.882024
439.988638
61.862749
1149.123993
530.700018
268.566509
89.086282
522.355876
441.702289
202.136635
536.788406
457.621026
79.768226
434.095493
824.318821
438.387905
44.087210
467.483201
526.244576
434.606381
437.527812
579.735108
177.914028
411.286566
550.639602
436.159529
298.972207
92.297767
218.060538
572.248954
580.353575
578.123579
152.451181
104.436436
502.312332
401.913888
581.827181
393.612660
98.653334
432.621411
596.729320
93.365805
68.918767
612.191696
466.178162
100.153988
458.379683
199.088952
436.155151
434.490479
411.119128
367.337411
431.867567
371.617168
534.478207
433.698516
430.948574
465.174580
598.721193
580.837327
815.647148
433.798144
436.489449
510.717303
522.653292
653.794713
824.741704
345.773487
341.426884
428.298397
431.907055
435.512492
433.628182
463.799223
458.226357
431.255195
612.235228
268.030301
101.404201
79.954824
588.167728
462.304248
432.772507
845.234357
265.562405
270.729415
420.724146
575.607150
497.134123
433.085407
548.963771
529.700159
108.986051
442.712039
434.392426
458.832422
433.490524
64.599096
423.561594
587.937265
430.864536
589.105067
858.470446
437.914075
378.889836
422.101295
562.234365
431.097215
587.915988
69.234434
435.687555
488.300353
442.363245
589.294027
62.815750
451.471598
433.702235
799.160241
373.825125
366.237377
433.041234
436.070547
647.658189
106.312408
431.456328
436.461907
442.856571
109.760419
69.586024
586.960898
490.972768
62.905558
398.868472
433.412520
448.694542
352.603883
529.686418
533.021602
555.713552
65.942429
196.251440
151.981268
432.941381
466.962262
434.791966
790.497929
440.220557
440.528378
464.581033
116.113147
97.999917
88.317342
452.990264
436.105994
841.581418
552.917692
433.356354
1234.590904
180.329182
888.948550
570.931118
437.765129
620.219134
424.124475
421.791717
433.270701
433.329941
585.443217
212.527375
643.300331
435.699587
589.914744
424.185493
421.277161
433.397167
391.194963
429.376011
437.748003
541.597291
432.931637
465.524912
585.474616
462.750656
594.555737
1067.352904
439.452362
577.343671
487.282689
429.129157
576.129128
440.819379
438.149192
433.740329
598.426038
437.552327
588.281722
436.378308
483.944849
433.132965
542.528307
399.339607
526.412436
392.171858
439.158639
830.348984
435.291251
774.492551
426.201471
452.663808
118.622619
492.417679
539.988544
460.455064
188.467899
178.244389
537.930431
434.629746
479.227866
224.315206
217.763697
434.057192
436.475825
435.714203
455.971624
372.958064
428.061107
873.757303
437.319453
433.601948
535.558700
223.045607
100.986629
390.185700
236.458974
98.736464
91.738566
452.894702
512.097872
769.935609
443.528893
68.216110
474.227291
433.109603
442.291641
441.445691
421.084546
423.086960
391.152863
591.447718
560.747333
468.010042
65.149327
519.963730
428.408091
535.671819
177.101629
1254.586358
411.246350
597.461457
563.681978
422.333384
574.291719
433.257336
433.708538
433.512099
458.875768
462.576943
453.034359
433.885171
392.485242
86.642138
220.199370
327.057774
422.848258
434.033569
69.774009
147.962676
430.685007
430.512002
1189.679082
558.484834
814.942330
547.593615
625.767428
434.534976
1252.988246
563.864216
567.166374
443.778555
540.773040
1166.915206
433.334651
433.516373
200.906593
83.390525
436.517643
186.424357
460.286143
398.953330
159.287582
436.759403
578.665977
421.266606
100.196455
448.742090
381.384950
533.140575
897.668906
440.972081
637.123822
489.613678
433.724928
478.826828
486.612040
431.602804
609.473728
82.925981
471.681065
1158.356089
483.780668
712.149919
580.783976
508.687303
598.286156
516.275479
532.031792
803.998148
214.368286
424.422074
260.277049
458.057770
788.897689
433.307399
434.327968
587.553713
388.435540
431.117218
439.760683
439.305299
439.935476
460.159483
527.774402
431.212735
226.387164
509.441032
1163.438468
458.451021
453.649268
230.555609
597.132516
434.540222
453.174858
192.534932
114.123062
592.564344
353.819762
401.940850
320.207733
431.235881
371.117387
800.182213
430.335531
96.296088
96.854860
433.691458
453.412592
93.279295
239.117592
1254.427012
118.965215
279.049721
396.188833
515.011617
593.830491
92.525476
580.453076
114.167397
438.567542
426.223617
280.393290
433.562700
303.424583
433.590182
429.150624
429.603787
407.424341
522.231265
789.420983
501.748778
573.786727
155.751305
430.050918
67.839476
270.853315
757.815628
466.342066
523.313736
536.296382
59.721748
476.308587
463.905960
501.715259
1078.279017
431.551667
431.508533
587.403335
359.186740
455.786780
164.574915
466.506459
565.401709
160.102222
437.192026
590.499752
80.830674
766.258878
432.445549
562.667903
432.018287
536.963587
953.275354
562.456735
435.703053
566.921153
344.830952
583.924791
597.233651
441.066051
395.249288
324.653512
513.400434
458.262630
455.679476
462.557981
538.490677
86.960466
93.952122
721.407039
780.398182
68.446250
455.563203
409.673297
644.974786
526.563493
546.421515
557.688235
443.161857
107.875187
106.010855
479.413137
458.271070
450.734275
68.851997
111.156280
580.481095
146.731350
533.932502
430.858001
603.235509
270.388501
433.295652
548.815795
243.347308
240.504593
353.334115
417.492901
123.949976
872.068467
283.574310
359.728026
433.330224
435.379980
440.441610
768.677386
433.297427
465.818914
63.894343
279.805697
433.436081
480.572296
294.004900
359.816225
77.350261
595.696133
584.743277
114.472513
433.354523
436.483977
362.251807
436.124649
406.800835
602.696244
218.104062
597.585615
284.318940
521.325030
569.674084
519.253468
118.908086
436.443880
553.827610
217.788048
482.053812
275.447738
180.464937
176.202741
463.325816
561.821006
455.938763
524.969552
468.029035
205.198684
598.545432
114.391161
411.428641
434.024239
481.137869
273.199192
438.485489
438.581377
429.807087
610.408242
276.491488
469.161469
422.859289
338.239549
411.330268
586.040785
461.717007
435.071372
1207.248835
598.277951
450.672859
443.927673
370.673685
317.292794
579.792273
536.299696
525.201707
384.174834
567.042470
274.166414
397.485545
481.475389
437.177221
480.126555
423.556776
286.996771
573.940051
436.150159
285.644512
297.152814
435.973782
134.658925
279.610231
535.633845
584.074543
88.119119
456.173625
466.000239
576.896915
456.760108
435.705378
466.296732
529.844070
458.553321
432.827376
594.426121
502.289028
437.518028
437.762024
424.768026
440.389803
435.344747
422.196499
536.619156
437.462786
450.208311
536.225073
458.228194
533.163432
531.335983
167.780545
63.635155
591.739983
539.806479
111.633962
436.001912
83.214428
477.989417
262.219161
134.615948
455.291170
573.791929
112.704381
108.113242
436.498994
532.128816
435.871066
407.326912
290.966407
587.227004
106.150729
103.522038
341.318329
474.685287
231.476689
594.826851
437.420327
235.467933
533.001863
459.478231
219.033691
396.487989
378.772065
472.780050
436.405101
517.163189
518.270564
433.252733
428.344800
472.127503
293.634538
466.765981
512.112919
359.757627
585.675353
442.157852
530.764940
535.522929
455.088976
387.752763
517.562763
425.264355
469.348573
515.238076
407.580855
455.184496
576.113940
395.820338
533.612619
453.273100
180.111098
242.220471
581.510576
566.925981
524.993241
534.947362
442.356799
581.131879
382.638950
527.592228
526.569773
428.250078
449.821255
425.360344
486.734554
460.008704
464.190083
586.584881
534.606006
449.828924
141.791789
521.787104
281.382330
398.374872
485.886429
557.049894
440.846892
432.858875
618.332578
580.553044
430.838712
325.706570
434.031487
511.375168
513.210055
470.547671
511.520756
521.745975
433.735665
583.902585
591.316277
584.050039
442.297207
534.918547
477.117435
464.508873
585.912541
507.495667
365.744986
440.314398
103.291659
591.464941
588.118982
447.329701
588.324032
497.261122
436.074332
532.825782
538.756207
526.335714
459.997313
515.661251
246.848533
595.975141
583.704862
585.234309
588.050918
587.555190
585.882283
381.443090
450.026404
505.810729
203.743660
433.231833
442.328757
444.308342
561.389419
441.985091
463.974696
586.118932
563.184001
454.201928
580.670643
302.780574
233.181770
480.201641
467.327237
533.955134
535.126265
581.746485
584.483451
307.917914
582.119745
485.331000
583.636909
462.159177
458.290320
479.154282
500.361263
583.160739
274.273204
453.893844
537.692727
435.630685
588.948065
586.559125
536.853905
395.838653
482.434400
447.924843
432.044584
414.655190
208.371148
527.118116
578.500613
112.671894
411.398809
486.654976
422.571574
361.945924
515.370969
496.882089
490.997837
453.857973
454.599146
113.921333
585.987104
588.095452
452.570715
431.151737
482.030064
548.839253
592.238273
532.588630
440.067888
587.797441
577.306155
516.257489
420.562625
580.551995
520.775358
114.526232
544.967367
513.074983
107.122863
439.953579
585.928837
297.361269
451.250203
302.720570
586.477044
382.728309
379.466282
395.815722
546.327404
244.641768
372.839500
447.734317
394.979509
398.260724
483.331473
516.950140
469.434482
419.178293
482.543924
455.754321
450.206686
463.724440
440.119540
463.608702
455.875638
419.976700
431.906135
335.163579
364.606133
369.361379
498.345373
496.781049
496.822812
524.762770
244.345465
235.312705
451.622673
443.851829
517.364355
511.973582
518.935482
429.456119
426.644826
529.342485
586.436243
443.621299
495.105511
520.071887
499.263327
504.307195
564.880284
594.860947
591.858543
390.634095
401.839103
543.837978
126.148272
117.145410
549.059102
520.243016
149.208958
534.107210
462.598737
532.808007
529.476584
162.209037
SCALARS strain_e12 float 1
LOOKUP_TABLE default
-351.442068
-156.727319
-9.984516
73.531525
-22.338434
35.642673
69.858152
-7.312174
130.601132
-2.567148
-0.446580
-4.023465
-0.150819
-313.562067
-83.017344
-370.378172
14.996895
-259.846186
0.240488
-283.773965
-0.240838
1.671447
-49.017948
-4.040670
-59.662216
-4.821572
44.404480
21.547494
-81.026053
-195.047143
-100.617429
-0.610842
7.846922
-359.756838
-33.419086
-13.820932
-83.489840
-2.624503
14.532454
-3.164905
-16.713237
-9.926983
0.096181
25.049655
114.548431
-30.178615
-27.174899
-19.049767
-46.421922
-16.085805
21.607425
-17.239291
-53.889114
-6.013034
-249.539901
-17.840883
18.124911
-255.636516
-82.429737
-56.661619
32.746355
-122.681137
6.196076
-94.058929
-6.661445
-5.863378
-14.755983
149.983970
-0.028457
-59.847310
-53.536105
-46.457414
-44.433433
-23.557735
82.054284
-20.134391
-20.711945
-9.693778
-67.966311
-0.875431
-90.107674
-5.431577
-65.775912
-220.623256
-157.899712
91.269616
-117.222891
117.770300
-232.429147
-195.270473
-97.994706
-98.293134
-15.545628
-160.073376
-45.686359
-214.827707
-11.825964
4.927712
-37.132626
-20.332143
8.061393
-37.659310
-69.538712
25.121043
-0.760595
-17.257194
-165.521015
-193.753796
6.544756
-15.275877
0.138045
-37.024969
11.966215
-21.262999
-79.431947
-347.944136
-4.925373
-335.399314
9.293691
-4.744735
-55.903176
-6.324198
-372.548392
-1.497876
-4.751216
1.111701
97.776593
-38.178323
-0.402481
-0.136523
10.431148
-60.412437
26.232728
0.257083
-119.984968
-11.650291
4.701669
-16.201944
-33.261227
-13.253429
-84.725092
-2.694988
-15.304085
-280.467153
-47.832000
-83.393059
-213.955961
97.343677
-344.521083
-305.079168
-5.780889
-14.469631
2.094056
-581.000071
-15.277119
-335.645737
-6.205606
14.606712
-54.412202
30.921351
52.608962
8.161647
-9.394717
-14.321841
-57.625072
-39.810224
0.655182
-129.788153
23.639495
-30.349931
23.411349
-0.810316
124.928451
-2.276422
29.664373
-275.831744
2.030198
-270.711463
1.243102
-988.955757
27.161975
-75.235202
-588.631975
-92.881413
-11.684659
-11.604840
6.982479
-12.587466
-852.601242
27.707737
6.224018
-36.206537
-154.729812
-16.193309
12.981404
-6.693634
-8.590239
32.076361
35.640554
1.160959
-4.861673
-4.104629
-98.969631
-32.402534
-10.020858
-19.857493
-559.775133
-70.296270
-375.392649
5.272638
-926.566339
-5.304817
-13.699139
19.824747
54.602575
-366.675089
-0.811334
-71.019816
-5.476526
4.886747
-820.585577
17.396215
13.825590
0.872102
-25.404524
5.092243
4.593384
34.058863
-8.165088
81.877040
-133.834785
32.281925
-134.792003
0.005307
23.028656
21.270487
-298.867141
-559.235964
-14.543346
9.195669
-45.430915
11.923306
39.901893
-17.425785
21.614950
2.827008
-5.688790
-1.477894
-0.974271
1.147543
-14.117002
-1.018216
-333.684927
-2.125539
-192.852428
-202.600904
19.039106
-14.332809
-3.410807
-31.069595
-22.039523
-13.314178
-13.937639
1.322313
-12.634651
-215.998307
-56.662481
-2.883616
-314.463967
-48.064776
-216.787238
1.384376
-320.145937
26.855791
-2.307378
9.097481
-10.038021
110.603122
-20.994044
-270.939553
-326.838947
-81.875552
-289.462564
29.600138
-18.341200
78.627324
85.158946
12.093575
-2.297307
4.512199
37.108553
-2.714704
-12.094499
1.586506
-68.138409
-283.650359
63.316706
-187.024344
-7.513570
-371.200481
-88.280019
35.436152
7.007580
-2.290690
-47.695421
0.396140
-435.032749
55.610778
-39.922282
-249.156118
9.740484
1.374381
-380.932828
-17.218158
13.628526
-39.114250
-16.791643
8.170485
-26.730759
33.805816
-57.648012
89.553732
-3.583677
-2.503859
-43.946255
-568.949625
2.864432
-370.028602
-13.705051
-257.989260
-89.027397
31.010316
-33.066600
0.919145
-64.792139
-70.766683
2.692066
-36.219762
1.578356
-644.064271
-275.346937
32.514251
-361.900763
-117.201143
-227.593315
-259.480894
28.165918
-2.089586
-129.520662
-572.663465
-0.641243
-9.218445
32.314927
-32.409789
-7.338672
-87.828427
0.481537
-48.367784
24.380852
-871.610605
-5.599768
-32.684316
-9.463256
-324.447463
6.127127
-2.216375
-21.771401
8.107326
53.005822
-27.486213
74.295990
1.758696
-39.897313
0.254408
40.139129
-104.950638
-25.104444
25.565539
0.201202
3.354183
44.036574
3.127938
0.585273
35.486067
-96.266836
-151.502806
115.453834
-302.025147
31.251523
-4.198550
-61.126026
-79.650783
-33.945153
22.501085
-20.021599
1.066142
-9.367946
1.408009
-258.202597
12.124451
18.925942
19.307922
-5.180258
-66.188627
-1.966558
-16.139555
25.379584
-0.101588
-18.800030
-1.658021
-53.643075
-49.409766
-16.029932
-46.628132
-60.600467
-2.814136
65.102169
4.300427
-2.301743
17.281890
8.022197
13.439873
-3.471293
0.299509
-343.267399
-43.432344
8.811796
-7.306421
13.337078
-16.927398
31.374859
-30.141061
13.506058
-127.828985
13.391180
4.056088
13.294862
-349.353747
-45.784125
-5.444294
-4.628611
-72.451454
100.332565
-153.672008
-14.609549
44.177455
7.035403
-9.390882
-63.510639
0.890403
-2.565243
-6.714908
-223.352607
-272.813826
-135.998950
-611.825445
-247.558556
42.486208
-147.043489
28.532848
-321.351481
41.817036
-15.855719
-710.503606
-761.837864
32.484966
-143.419432
-895.939555
28.607123
-56.445472
11.644899
-2.434618
45.005691
-10.994431
-58.949051
-218.689093
13.892780
-54.372140
49.054448
1.575194
-26.652953
-351.355564
-85.854322
24.178802
-2.076960
42.766107
38.681985
12.011583
45.202964
-275.531463
152.609476
-289.915465
-731.405662
-166.317189
26.447543
-1.749160
-11.479631
16.366970
89.340652
22.545370
-267.979879
10.213431
-340.621885
-7.752296
-0.820739
26.300730
-342.780005
-5.685199
1.136881
3.499646
-228.809139
0.304936
30.731970
5.612027
20.775877
41.546646
-56.447600
4.530788
-2.722053
-930.282888
-846.571661
-271.334941
0.191517
22.297199
-241.847071
-213.262441
-75.990772
7.505660
38.102294
30.108466
-80.008721
-0.126779
-282.992788
-800.352520
-307.748474
-191.705490
-266.910757
22.056650
-147.628562
108.947530
-20.704665
-94.581561
-294.261389
10.237956
-868.722148
0.178836
-1.978007
-313.627934
-50.137093
-69.353838
-0.202696
-442.546906
-351.495557
37.290568
-21.784124
-131.191038
-1.709582
11.080082
-149.707735
109.688976
2.616159
-16.438515
17.960880
-94.175293
30.434034
-228.336008
15.835544
8.342779
-163.926035
-159.633522
23.471482
30.392547
-169.270926
-147.060311
-0.282394
-55.231485
-379.408942
-129.580312
-309.284817
-5.850258
-2.152717
-246.959551
17.750417
18.309707
-114.743182
11.061532
-0.227879
8.812503
-16.584455
-146.634899
22.413305
-100.401935
-92.491487
-0.216979
-11.379695
-90.523696
-61.389642
-2.261523
1.479668
-825.917111
-242.301031
-0.454204
-41.859924
0.727383
-26.954427
10.432580
-292.226857
-13.690620
-2.887736
78.836794
-2.761008
-93.074921
0.483365
-859.149596
-324.884062
13.037337
-8.069630
42.486387
44.017760
-129.765041
-0.627645
-1.939552
-22.740870
4.691950
-33.348208
-8.900143
-339.508340
-277.524093
49.201236
17.990085
41.943573
-14.352677
-55.932516
-6.403423
11.351967
-125.132402
-372.366845
1.394819
0.025627
-5.197033
-21.367617
39.744557
-9.285880
-21.891671
-32.783847
1.111491
-7.690649
43.261953
5.181128
-63.971097
-49.231011
-20.970073
5.213285
-163.903575
-280.367142
-44.770956
-23.218720
7.850123
32.629984
26.302448
5.657017
17.731513
13.998064
-40.645508
4.424068
-14.768901
-44.961643
-227.136370
47.562619
-20.885731
-282.517621
-47.555180
-330.218025
-256.619075
-0.414505
34.336431
-123.038172
-79.261662
-325.829981
-322.681417
-82.282093
1.468520
-0.784060
9.472705
0.091354
-0.328276
100.417305
-76.050582
11.545517
97.295265
14.311710
-260.774513
47.787373
-8.466761
23.095959
-181.173031
-77.421665
5.761670
47.124913
37.768253
-296.844446
0.763298
-608.026888
-5.383984
95.474990
-121.866309
-120.259326
11.166463
-6.100907
-20.605427
-235.577717
-4.455511
16.508140
-127.790769
-930.831840
22.480790
22.890805
-21.074577
13.286103
5.186698
-934.111423
23.674683
18.886231
22.039909
67.032994
1.118859
-21.116143
-7.417113
14.431127
99.210627
-98.330214
-764.436004
11.244886
2.821514
-249.941544
-248.567582
-0.404817
-32.012640
22.606077
-288.365364
88.992012
4.209404
-125.387951
-156.837972
-262.362542
-107.674015
-6.695997
-6.817550
-219.530866
-45.083255
-271.900639
5.178758
-244.719498
8.659044
26.614101
55.902042
19.405978
-4.677681
-2.250363
2.040443
-5.044077
-164.405350
-8.038027
-552.605527
-12.719270
-1.716358
-7.976010
-53.314925
-49.767356
23.660925
1.434168
-0.568553
87.418719
4.682593
-6.638665
0.122415
-193.361714
47.750672
6.072595
-7.442354
-60.694963
-12.237610
-176.320841
-107.229677
-1.525387
-802.414132
-85.975395
3.999136
51.314428
-31.178401
-313.083765
10.524937
-126.498616
-680.732487
-333.527651
32.959655
-1.417960
-157.882726
40.760054
33.772975
0.851422
1.978165
8.167020
0.043363
33.846337
-26.388181
-22.867041
-5.665793
28.444291
70.579832
-1.169065
-13.853579
25.514015
-64.139368
-270.456372
31.146699
22.074997
-4.683870
4.524361
-25.765193
10.321975
-6.101188
-287.236571
40.671658
5.087710
-144.156553
-220.970556
1.364133
-22.015713
8.078293
-8.492638
4.310464
-152.593398
23.080134
-68.439996
-375.059729
83.582427
-314.910944
8.536174
-66.865310
-13.875452
1.121436
29.348933
19.209131
-6.738618
-262.591464
62.954082
-125.148138
-845.680814
83.974887
-55.025269
-111.401205
92.141797
1.223295
-57.601216
7.360576
0.040016
-230.789051
34.831022
-49.558776
-3.254967
-796.211610
-14.213579
-51.330970
68.204643
-3.167622
8.788006
-167.779718
2.788512
-10.333979
-130.049261
1.530748
-382.871596
-12.261585
-352.702187
-401.769724
-160.180846
-74.210047
-114.304217
27.285072
64.629495
0.278371
58.435781
25.362735
-156.636678
0.477107
-277.082495
47.585374
-34.229387
-275.158834
19.837951
4.659089
1.221595
5.204152
-870.839893
3.289818
-4.872369
-2.731929
-152.697482
-107.203168
-34.800973
-347.059272
-4.975827
25.555625
-0.290832
-141.180755
-164.351326
-285.097246
-80.163662
0.412016
-19.678550
-9.116917
7.131393
28.419432
-86.627068
-0.295112
-211.736764
-215.127878
-38.631714
-247.293510
-183.684536
-47.589206
-198.209472
4.265097
-133.333421
23.781032
-7.219777
78.350156
-370.720698
23.739107
84.620406
-52.983664
-262.283360
88.760288
4.551242
-6.174235
-23.615611
94.014216
-30.015295
-694.966700
-541.027302
13.258582
-85.908887
69.238936
-82.565071
-56.749905
-380.197491
1.441253
26.916775
-0.217256
46.707377
-2.060357
91.658022
-47.877788
-337.622040
-0.313496
-346.004558
-11.508064
39.977630
3.464935
-2.064095
-3.579533
-24.867294
-20.854772
25.471108
-145.563449
-126.564052
-3.813555
-2.043408
103.734695
-134.834688
31.834883
-56.167279
-8.701422
2.063747
-726.676003
123.848378
49.565640
72.349813
-103.458196
-141.005959
-65.352659
52.472091
47.214816
-132.150029
-329.891124
-278.546840
21.273168
-70.923627
-4.828930
97.513022
16.174845
69.922413
9.367186
9.607877
-11.311352
-425.355633
-13.574923
-371.002069
-3.457235
89.512960
82.208522
-63.216903
14.166586
-12.988116
-72.456578
1.568003
-23.133685
-81.270366
-153.466043
-164.773553
-163.083551
-109.030052
-83.366390
-68.538478
-13.257382
-672.557967
-311.980657
1.909651
-0.507545
75.410898
-183.551147
79.542208
-1.161940
2.863663
5.296371
-43.107421
-369.444002
61.023228
-0.323323
22.868615
9.390581
-189.573718
3.329351
-240.807407
-548.207529
-346.505283
43.852557
32.124286
-715.742555
-264.574811
89.075646
41.046705
-33.535913
77.504745
0.773712
41.523937
6.638713
32.989400
-152.931787
-9.261776
9.098877
42.459856
3.844543
2.425918
16.817200
51.961834
62.108534
2.579547
95.303288
0.910634
16.055181
96.383889
-314.140811
82.805926
8.587079
-1.989917
-0.336327
-43.678840
-234.208845
-118.737922
-213.159333
-5.196250
-7.963505
29.692908
22.480101
-6.789949
-130.537759
25.391461
-16.609915
-317.150337
21.207250
40.981909
92.656039
-4.484859
31.756752
-96.093427
-126.642807
12.690975
123.550182
-24.547028
3.097269
-376.134371
33.868859
-357.658978
22.494557
-33.982276
23.093876
2.493670
-3.672630
-34.177440
2.368572
6.016057
-73.954483
3.667862
-17.661603
-7.359292
26.309885
-57.562514
72.642344
88.243758
-17.524105
12.064193
16.788671
-748.455282
-833.332064
-66.252919
84.536590
-305.718436
-8.060747
1.863998
-42.062130
-4.105013
-350.142365
3.328450
-39.991901
8.372145
-100.697319
-691.202699
78.659283
-0.533098
-7.379809
-4.898842
-17.354861
-188.271368
-148.119836
-385.846401
-383.851478
-20.037150
-35.284948
11.493884
20.831895
-573.012211
24.485561
49.393278
-10.714609
3.229120
-1.376140
25.362671
5.583008
3.434185
4.002479
-43.416323
-14.613824
-194.597279
-69.116858
84.435947
77.222166
12.044364
52.625244
82.880155
-2.218590
-283.358196
-381.936711
47.717128
18.670979
-55.622241
16.801083
58.882990
-10.331987
-103.675776
0.526811
11.093092
-11.924539
-527.551701
3.023828
2.100556
49.281600
15.319540
-29.928526
159.243975
26.443853
-383.253802
-636.570394
-1.007086
50.674999
18.404696
-1.112047
16.114688
-10.154051
-365.925956
-340.476562
3.828923
177.574283
-60.349930
-5.132288
7.718316
-1.555935
4.021219
75.067440
-747.198373
10.078582
-14.876395
-93.559523
96.983084
3.413234
4.018510
-315.903129
-3.892543
12.984989
41.393618
90.978417
-146.175743
86.621524
-3.536084
-101.065788
5.103170
-11.742862
6.858489
147.917082
95.731924
89.819489
-273.123868
-35.685969
-10.707152
-79.380415
-274.249981
-18.669664
-30.491377
-1.575988
0.006299
4.819600
-4.062615
-46.784663
78.515217
-324.679321
1.918056
83.846810
-7.002585
-1.238914
24.530619
50.820264
-50.069451
-3.224373
0.406706
-54.919119
39.900805
2.322940
3.849507
76.678548
-289.074525
-3.039742
-9.016340
0.507781
-9.216567
-10.327733
187.483704
-934.236510
-122.823162
-349.720679
-999.736911
112.649146
-140.012732
-215.404274
-953.709374
18.949694
35.503231
41.828491
-10.042459
9.992136
-8.984230
-0.700578
-27.440274
7.043476
-0.702430
-285.838204
77.526767
150.198083
-4.225499
25.735666
-488.868784
2.737717
-63.430876
-124.594351
14.586207
-29.458233
34.449210
67.627922
-1.198170
-59.099278
3.753939
-123.715501
-1.065479
-232.517343
-869.992844
-0.752395
26.691332
2.102692
93.835709
-0.908567
-426.059350
-756.163182
-21.309136
3.402873
-0.130724
-346.510343
-54.307164
-45.361590
2.645328
0.898766
10.401564
-56.992724
-236.456704
-70.067051
-5.860833
-53.908879
19.667468
-4.638958
-22.168429
-73.161742
-9.948123
-15.956011
0.543426
-5.342360
-6.699090
-105.596706
-8.079896
-45.856010
68.229549
-46.948693
-48.270179
-0.406143
-0.065473
-80.077458
-67.140371
3.285412
19.053213
-286.284318
-0.164686
3.225310
-229.554002
-0.345338
2.856037
-5.032525
-7.937362
-0.062697
56.598959
68.050962
-47.971089
0.222931
-214.431833
17.803875
35.405239
-32.478384
15.294145
-14.384293
0.396748
1.897508
-655.679353
10.210777
-156.564070
5.370961
0.753803
95.284284
92.988791
-103.641677
28.347210
18.963018
-6.451995
-121.798752
98.304689
0.063969
-21.459938
75.211793
-885.333727
-318.308046
38.387952
-53.252130
62.521870
2.332241
-61.098632
27.889018
4.010094
2.345797
-52.901019
89.581404
93.275134
-5.266954
-2.307778
-265.515945
-8.238735
48.047428
-3.406125
19.642865
-429.001815
4.761272
-0.081118
-0.006912
65.867827
-71.333284
3.883309
28.770207
-289.115211
24.468431
-256.389942
-95.154931
-0.128317
-46.292132
-155.846024
-868.832181
-31.861175
13.692826
-0.441027
10.191839
-48.857136
-317.571565
-304.119288
-73.849546
-3.896353
-343.738547
77.010976
-341.104443
82.071123
62.303460
62.986059
100.729714
-648.266326
-372.856692
118.665378
41.579502
-22.197451
-979.368523
-1.339832
4.279939
135.511653
-517.126521
150.041459
179.338825
-4.320313
2.256638
-0.129163
-89.485875
-631.436617
-4.529400
0.126914
-14.539574
0.903576
-173.259204
-0.023839
201.335601
0.979927
32.827237
-3.242232
-659.037117
-745.064576
-37.016959
-31.751039
12.596920
-15.377133
-12.737567
-205.473081
-97.612511
-108.305036
-0.767973
-0.573035
-3.623581
-357.996676
87.473943
-905.514426
-1033.967691
-369.252708
125.739410
-791.499990
-142.494494
-227.609479
-993.525663
86.482594
24.348423
77.327769
-1.240149
-1.502683
23.144894
-0.024094
-0.133607
28.007374
35.716605
-128.221164
107.237309
-709.632289
0.055637
210.038112
-947.097459
-106.611758
77.085760
-0.073484
4.211613
-140.878522
-14.604842
-0.914287
-837.672737
95.991346
-295.008415
14.353054
-0.048450
3.219087
-1.870534
-4.328185
-68.290902
-315.058993
-1.031371
0.778861
-15.220023
-0.010478
29.581725
10.368221
-878.945962
1.016902
-11.812621
4.723266
-342.081070
18.076081
0.923169
-2.661982
-1.374352
22.929916
68.550455
-0.296913
-19.348723
-0.324127
-0.177810
-340.657345
-331.795720
-0.021705
0.885821
-213.245035
-4.413946
-229.436055
-1.742875
4.061328
-5.032358
3.997766
-9.115164
-887.884977
-0.856251
-211.323505
4.752199
-0.485971
-0.088122
-366.009746
0.341211
46.302897
0.317391
-3.070291
-1.420060
-283.466680
-297.901210
68.524306
54.115047
-64.812296
132.725666
-0.038639
37.016613
-213.610298
-74.071314
-67.977154
-10.414305
6.776354
-225.200306
-929.966138
-1028.726872
-630.627424
-1033.582389
-21.213165
42.441652
14.017451
157.053003
-1022.099370
-93.184469
-1030.516928
67.258487
-576.406209
-672.392557
-56.470325
-304.764517
-1028.992370
-1031.903711
186.178953
0.525748
-79.512884
0.111490
29.176651
4.114205
-202.652367
0.521773
-271.148669
4.644594
-208.269331
28.268062
-296.439098
-0.041474
62.033470
-6.867147
-91.215154
-1.426285
18.233953
-7.586280
-321.552823
-0.670306
-68.722607
-0.739314
-349.951322
3.650917
-53.180817
-188.406223
0.536064
-342.064599
0.446028
-642.765050
-28.544337
-291.573788
0.138723
23.670512
14.626288
-275.805437
-0.045157
-303.566095
13.294741
-7.640080
-0.146228
31.567938
11.335207
-378.214860
-9.333258
-0.845037
1.148859
-1.831301
0.580950
4.615506
-252.510258
56.404143
-0.025378
-10.312186
-0.065366
0.048680
9.111049
-132.911372
88.220061
-7.230227
-0.232377
0.149004
-141.114309
-116.679162
3.996562
0.076796
1.190398
18.446669
-312.744681
-0.508696
-137.440663
0.368695
13.173569
89.400683
-272.291611
-349.204519
92.026101
53.489032
87.369115
84.257737
13.533492
41.917719
7.200944
38.505708
-102.795516
4.111895
-43.020284
2.786503
-151.354695
18.438429
1.014762
89.024969
65.296193
-5.710365
65.999431
-5.868422
10.682607
76.687831
-0.245222
0.023553
81.007638
34.280532
39.502901
79.318736
84.562701
80.966556
85.568768
9.419160
-2.312537
91.296085
63.778045
44.145049
71.019156
-124.731506
-60.903892
-8.792616
-85.959707
74.924847
67.143466
33.642028
-17.485603
52.458220
73.460403
-128.565773
-99.646152
19.134641
-140.502182
83.016586
86.490474
54.593221
43.563711
42.197398
53.082325
-12.350475
0.001152
-147.839182
-94.971259
-2.817516
-5.247847
40.488000
-126.163817
-1.226568
91.199521
-5.060086
-16.195059
-147.059863
-136.236327
64.700168
-128.923507
-137.671388
-140.954114
82.521905
-10.717684
-10.344427
38.180831
-0.817489
65.515002
-106.531759
12.305224
-54.944959
-0.026359
-0.013025
31.335173
13.362847
78.975086
-32.374409
74.445860
68.641641
-48.959964
74.116459
-8.460689
-287.453420
81.486968
-167.330673
50.368592
-26.688245
78.286039
70.951204
58.718086
-57.889303
48.618242
-168.435664
-51.670468
-27.347552
-163.301457
4.780618
-264.044746
-33.582449
-33.195399
-17.526467
-49.492096
0.026112
-234.985728
-11.903588
91.002206
61.365190
-39.670931
-16.315379
83.137176
-14.807685
-16.377200
-16.057094
-18.714289
-13.941746
-261.110601
-13.239515
-13.088191
6.333153
-14.526980
-138.033485
-14.838308
-0.863857
-10.079951
78.482736
72.595901
-15.468373
-12.125694
64.533355
8.551647
71.984063
80.440065
56.046649
61.661513
3.033149
-12.805421
-59.340917
-56.343631
-320.368181
55.116883
-13.893963
-14.394159
60.922740
-282.157033
-11.067281
1.067582
-9.630840
-98.488522
-10.884248
-16.112733
-91.236986
-255.503274
-100.202898
-92.583765
-103.898721
72.147394
-110.207494
-105.402437
-279.963713
-107.873207
55.439959
-109.333321
-125.932825
-108.853397
-297.033588
-109.968736
-117.702121
-134.499345
-125.525635
-49.464980
-6.120928
-230.004895
-20.839538
81.790458
74.671150
-109.813343
-116.700167
82.302487
-272.698964
-134.937142
-294.958293
78.514615
-117.640041
-3.887592
68.623811
71.463384
-4.094890
-237.373334
-257.309124
-18.655665
85.159891
-306.227666
-18.511050
63.221339
70.737029
-66.022651
-2.708403
-7.068075
-144.958256
-5.708276
-1.073465
-0.812058
65.888642
-302.419877
83.875901
0.346157
-253.718406
0.741734
-205.822163
-215.318829
0.907829
-69.601424
78.023892
-2.671918
-1.035832
-196.559545
-223.251988
-205.424125
1.472782
-231.647578
4.216792
57.661137
-97.847702
-210.546054
-235.890563
-11.997058
-218.880544
-256.901988
-219.093037
-244.462796
-226.622808
-103.584378
3.271805
-253.050372
-81.257903
-91.669188
-247.559039
1.713596
-130.630535
-1.231886
-262.476922
-244.652896
-307.944684
-235.498873
-262.896687
-166.487379
-171.366354
-181.232063
-185.691709
-196.285870
-200.272852
-387.445516
-402.499422
-211.554629
-388.215114
-373.835338
-389.846571
-398.534843
-388.651525
-396.785783
-361.042858
-377.889409
4.343883
73.228084
-26.473720
-388.775291
-290.848618
-249.869211
-143.782695
-287.633013
-369.767725
-287.833537
-138.214104
-302.003780
-157.374347
-301.432061
-315.814299
-311.353472
-314.443066
-288.393760
-301.119131
-10.712284
-257.690250
-328.946709
-393.861810
-273.758765
-318.664925
-395.085340
-285.710540
-275.421211
-274.743066
-324.575516
-291.482330
-300.258389
-226.753135
-233.212226
-145.045651
-247.633320
-152.129257
60.861536
-311.845157
-296.994573
-263.347399
-270.220058
-259.813740
-306.590778
-254.504602
-226.216017
-23.503710
-352.756544
-348.908708
-220.048831
-257.543633
-287.724296
-251.646194
-249.109849
-338.276158
-164.088915
-341.292850
-326.758127
-381.034426
-245.639422
-387.760929
-358.576270
-405.755106
-363.248479
-372.695151
-367.211820
-243.607994
-282.524421
-386.816156
-239.500065
-374.760106
-384.986816
-390.504158
-313.318008
-304.530909
-393.253765
-258.346711
-402.168822
-395.611626
-302.474034
-377.981832
-371.488886
-394.989773
-402.040362
2.862688
5.333432
-399.212272
-397.802465
-321.697602
-380.071008
-307.918428
-332.291251
-390.443481
-404.462620
-272.821312
-259.327165
-344.979932
-160.751304
-352.266017
-342.646061
-393.183617
-232.184346
-286.711302
-24.104920
-356.978798
-355.305401
-366.581046
-385.230719
-285.938359
-236.966116
-308.799297
-364.098943
-105.673637
-323.944370
-280.360778
-213.662526
-346.606452
-105.658640
-326.132760
-459.270637
-131.323664
-281.744585
-270.254551
-445.483464
-360.558657
-2.360707
-279.860456
-342.681109
-274.111265
-146.864655
-495.858251
-278.001421
-298.971496
-293.365125
-265.057310
-237.972702
-251.713071
-58.347461
-282.056901
19.779413
-26.007953
-146.888407
-157.351105
-376.106138
-153.082834
-310.030013
-124.775941
-276.488023
-51.242559
-321.860006
-154.603951
-336.677310
-162.320208
-229.658288
-431.647441
-220.106079
-44.572305
-167.655196
-160.382884
-170.006657
-270.665880
-174.902499
-177.666074
-97.936750
-254.230429
-131.036606
-38.181427
-264.943173
-309.600009
-335.562654
-31.732909
10.952892
-13.331124
-332.383472
-113.045599
-236.286544
-19.789967
-276.501775
-441.347401
-276.338765
-265.207115
-286.556365
25.515844
-192.893724
-19.670771
29.990435
-158.829886
-316.433464
-151.816487
-173.199540
-148.247988
-326.235965
-380.413230
-324.837933
-296.114278
-333.912237
53.010149
-214.741716
-388.541372
-381.256206
-223.961038
-373.861892
-387.442946
14.420064
-2.950523
-314.548721
-299.459016
-320.624048
-172.861519
-308.763299
-309.877970
-199.592743
-398.753133
-375.406805
-450.088463
-167.056811
-255.847291
-320.441552
-281.497275
-76.113604
-175.486826
-352.257219
-109.592357
-72.385672
-138.407495
-354.361997
-405.877998
-336.766915
-391.658494
-220.719851
-205.371798
-2.541383
-361.070018
-0.177998
-373.493815
-238.160543
-246.421427
-213.262933
-150.130932
-294.906114
-290.162860
-322.165731
-309.592368
-402.573651
-394.885456
-324.888583
-145.758176
-321.469279
-198.402811
-454.933997
-164.847747
-397.119330
-2.941467
-192.192855
-15.988908
-206.736390
-317.501646
13.225355
-80.167215
-123.535088
-276.434820
-328.403005
-8.612884
-484.931285
-364.058620
-405.367582
-369.134071
-253.458100
-319.360879
5.513708
-422.369618
-372.667259
-398.624553
-182.125117
-200.432409
-338.552702
-407.624080
-213.253837
-356.486824
-276.596474
-404.184821
-232.657457
-365.212482
-277.087629
-401.063911
-291.362873
-203.658544
-261.278674
-393.723675
-311.096745
-196.502065
-478.400214
-394.638851
-396.279592
-151.413806
-155.564701
-312.265131
-157.934045
-388.073850
-262.869164
-397.922687
-338.944793
-150.252036
-362.353222
-258.134180
-189.324304
-181.447292
-266.618262
-164.227576
-406.382541
-320.950966
-362.874939
-270.398973
-257.269955
-144.371610
-407.098895
-310.660626
-319.607619
-343.179885
-448.970068
12.983175
-410.997899
-259.281838
-387.940604
59.444790
-306.244561
-376.936105
-102.167965
-290.801355
-256.740275
-385.380798
-213.114883
-320.912143
-320.783720
-366.807457
-189.967215
-392.211287
-290.518217
-428.454351
-383.690117
-401.444942
-393.913859
-138.124815
-134.388080
-288.986886
-249.970910
-336.175353
-376.257082
-300.916477
-382.413377
-350.770974
-238.540950
-123.019269
-256.549210
-208.572731
-249.220561
-232.624270
-349.762683
-306.422461
-272.439314
-282.880577
-223.023575
-393.577722
-295.984515
-380.942917
-202.746562
-195.421948
-264.103670
-65.225945
-371.000128
-386.568295
-407.882192
-177.419700
-419.896497
-271.402645
-344.581901
-369.852288
-286.585682
-354.937158
-368.839814
-231.363751
-239.643482
-283.183822
-227.206514
-225.379437
-282.500528
-242.539895
11.747130
-219.161711
-388.585735
-317.641380
-2.910584
-354.677628
-4.562003
-391.429238
-344.536089
-388.237625
-217.242874
-252.525566
-280.570516
-269.076128
-375.119485
-407.134828
-418.504418
-432.061641
-210.018176
-325.723786
5.231575
-452.223937
-344.482974
-183.871603
-208.414881
-224.480974
-108.776084
-348.733620
-390.206997
-394.931636
-463.361424
-271.292871
22.719350
-82.490492
-311.614333
-424.908652
-397.962253
-300.297959
-414.205836
-323.778652
-241.560984
-149.704016
-146.467021
-306.034396
-198.186771
-114.476245
-305.634653
-7.939688
-146.973141
-245.477258
-298.287709
-141.668786
-359.341415
-390.289504
81.590009
-379.567443
-240.406402
-207.149940
-151.556757
-323.870235
-399.344220
-380.179518
-113.425552
-321.133304
-390.736868
-120.450868
-331.759319
-75.643744
-158.598708
-369.033320
-333.537136
-154.431875
-18.923176
-234.994643
-136.113483
-443.994107
-384.195587
-362.005685
-321.018414
-145.897120
-278.271657
-368.592477
-378.964283
-348.300104
-173.255743
-398.645332
-167.601342
-231.464803
-209.644413
-200.553244
-394.173911
-80.655490
-361.081894
-119.228268
-280.557711
-233.779330
-306.958497
-206.021672
-361.412875
-418.076804
-3.663658
-95.733525
-373.659892
-109.829131
-346.023268
-88.854648
-227.351254
-349.330054
-378.527374
-396.482392
-329.934199
-426.675272
-115.924927
-368.552119
11.071496
-200.460341
-341.538170
-225.890819
-143.593451
-139.006608
-386.015073
-302.943211
-285.187087
-382.965399
-328.148749
-377.998977
-8.076057
-213.554947
-396.910949
-20.436804
-373.096074
-182.462875
-421.925445
-387.142579
-65.736341
-108.309978
5.457697
-16.870939
74.191539
-129.822198
-384.731537
-415.979443
-293.260963
-125.854166
-394.280593
-236.042260
-76.983168
-359.163039
-285.686033
-187.629920
-194.451917
-391.748268
-262.329260
-12.428237
-293.594869
-219.732891
-297.511808
-455.012565
-283.548021
22.895698
-336.796760
-266.981632
-293.643960
-179.873049
-171.437871
-185.294848
-30.202063
-121.282485
-447.553673
-349.671522
-219.626122
-192.407107
-362.454363
-447.676519
75.140910
-197.303451
-404.120315
-259.774254
-336.038022
-6.000379
-190.621076
-348.220300
-222.813523
-23.082361
-311.147824
-266.176907
-210.466901
-190.618205
-776.121353
-271.563456
-235.738989
-379.569877
-314.756955
-244.342703
-127.706333
-375.200500
-19.956802
-216.994953
-139.102404
-315.864165
-201.963885
-340.833423
-367.055038
-453.230621
-101.424692
-362.394591
-139.127077
-316.606725
-257.778452
-280.118114
-325.213944
-197.934162
15.504972
-276.362782
-349.179728
-86.486644
0.295135
-143.144370
-90.376155
-164.330459
-90.579386
-222.774190
-397.140606
1.595087
-160.922564
-93.680446
9.385932
-14.225436
-24.762743
-260.283422
-80.807505
-207.994290
-395.470373
-307.227059
-130.924657
-181.125427
-229.166645
-403.639854
-349.237728
-37.066625
-198.202759
-98.681463
-368.076104
-351.968442
-393.256390
80.250216
-127.959600
-395.374567
-77.909271
-401.931905
-351.590585
-411.536433
-269.785717
-365.943370
-158.868005
-388.409521
-214.987682
-413.537986
-417.614402
-369.889763
-189.486511
-365.805764
-68.415260
-154.801774
-84.052431
-22.460181
-394.986698
-159.543832
-221.060333
-361.563918
-389.191501
-219.744650
-362.447159
-334.430012
-87.942465
-39.250851
-144.420020
-343.134462
-414.681759
-381.073737
-342.406271
-375.476280
-186.318199
-267.939636
-284.035325
-274.447518
-273.379254
-395.306704
-97.575690
-296.163974
-241.339930
-268.687640
-309.645159
-408.184238
-240.215421
-12.902901
-685.954244
-307.753318
4.851680
-405.484384
-127.815391
-338.632370
-156.747108
-134.268266
-217.912991
-367.210798
-175.703612
-391.029160
-224.666608
-125.854684
-370.189726
25.150052
-74.607548
-366.957292
-125.945024
-96.943833
9.603820
20.564805
16.650916
-368.195326
11.651219
-137.899613
-29.564319
-151.983551
-319.740584
-301.282847
-289.448205
-171.911526
-6.650449
-131.388279
-369.477980
-289.383683
-178.640354
-16.850906
-183.972539
-298.050532
-77.373993
-346.674134
-195.508468
-122.530727
-325.986641
-357.945996
-209.858837
-195.428989
-133.527300
-349.940110
-400.119049
-333.467449
-255.970398
-357.732908
-176.236066
-203.990311
-230.366977
-644.737262
-271.133983
-258.927277
-263.148124
-38.789407
-398.362610
3.656703
-87.195904
-404.532085
-169.693092
-142.486107
-65.159910
-352.837944
86.990114
-295.293049
-87.261468
86.303910
-135.321833
-384.900889
-390.563398
-411.069730
-289.886295
-288.186054
-368.233011
-302.309497
-82.077606
-264.420158
11.743922
-410.902584
-296.141239
-26.486032
-297.485710
-157.122392
-92.401932
-381.900826
-372.549487
-315.950430
-22.007911
-194.367524
-64.603236
7.201190
-353.508397
-307.081371
-32.196896
-322.629437
-216.594706
-317.566224
-384.763029
-403.678798
-363.165803
-387.230562
-345.305222
-190.599768
-410.266259
-382.252362
-246.722582
-301.146979
-267.903559
-384.440514
-11.015913
-296.885651
-0.501010
-284.599612
-360.888375
-78.028674
-365.371887
-171.863304
-204.206158
-356.191561
-370.183665
-380.693363
-26.370695
-258.095298
-206.646873
-255.694278
-214.481334
-166.259727
-238.312551
-255.612817
-297.519915
-380.163570
-154.143922
-340.864659
-277.895307
-360.290305
-200.266831
-403.644707
-12.403442
-403.952064
-95.093704
-135.930318
-66.334202
-396.579624
-308.751768
-360.993731
-407.365040
-4.990088
-193.001400
-415.159365
-391.013794
-392.922340
-281.248058
-389.679155
-311.416980
-203.971994
-463.312150
-418.029563
-179.167745
-349.317116
-398.206057
-379.940681
-450.823008
-280.524607
-209.432166
-310.955931
-170.554636
-329.487814
-303.109558
-355.891195
-195.645370
-125.806039
-204.455400
-373.945996
-349.567202
-331.507240
-107.195408
-292.046098
-398.594801
-325.769575
-343.665886
-379.962087
-371.084876
-158.542671
-414.754656
-212.092044
-123.472985
-324.002713
-501.597379
-385.566587
-170.693742
-111.151267
-316.068589
-259.274356
-141.143215
-161.935824
1.166779
-389.803167
-200.497186
-138.093456
-144.883218
-178.058418
-388.752828
-377.936981
-166.591629
-392.792242
-367.477159
-339.402448
-106.129384
-44.408020
-167.183914
-349.101409
-258.513318
-227.102501
-114.210304
-119.166881
-395.604626
-13.884024
-181.515419
-484.527776
-230.366991
-754.184308
-144.319276
-344.053181
-347.811169
-391.955859
-321.977507
-36.892559
-33.611828
-270.741186
-430.305733
-186.586867
-198.241886
-166.385425
-275.321143
-390.909152
-136.904733
-187.317262
-215.507468
-326.337201
-237.372492
-177.137069
-211.835043
18.861069
-403.884711
-188.287876
-196.108728
-287.774474
-323.794260
-143.931427
-201.744601
-238.488751
-309.212197
-278.348576
-147.074367
-252.835186
-282.641577
-458.082939
-353.632925
-188.817601
-367.743926
-392.115935
-51.771352
-75.716965
-322.373181
-39.821973
-336.127249
-391.740413
-369.898957
-167.906321
-306.942744
-377.722094
-455.533530
-287.068872
-352.878953
-364.396044
-179.559801
-161.239078
-133.812281
-320.669352
-321.087642
-131.168081
-387.822164
-286.255140
-348.645339
-293.512525
-369.522257
-170.213260
-468.536035
-132.686030
-342.900297
-276.528885
-186.016114
-283.267282
-51.947307
-400.423639
-318.954365
-85.413437
-422.188239
-713.020112
-361.115788
-302.081155
-642.779308
-325.381275
-383.864676
-313.572078
-142.104681
-227.440656
-282.545880
-383.720945
-361.184691
-402.349779
-172.123854
-116.675166
-328.034397
-293.340556
-144.262839
-52.101382
-190.781320
-349.479599
-93.564801
-7.479123
-517.188875
-381.962254
-32.572341
-123.008018
-199.375540
-333.785522
-301.471671
-105.539380
-407.134313
-132.740903
-106.324953
-56.745157
-174.083693
0.010729
-89.904457
-150.307229
-260.971264
-202.906744
-201.975672
-181.621339
-1.274272
-9.737111
-120.026559
-70.839006
-320.282973
-286.449618
-313.362203
-6.914255
-234.860006
-220.072860
-375.547325
-216.187075
-407.894143
-305.159548
-181.711206
-535.746156
-265.180654
-389.367923
-167.223927
-230.828734
-137.502263
-302.609459
-403.809703
-400.336103
-565.981936
-183.808967
-154.518366
37.204823
-122.812928
-134.402111
-398.993900
-145.079691
-3.758450
-326.572969
-141.182026
-396.509446
-50.500363
-81.609076
-162.951321
-82.968037
-22.581605
-373.468570
-334.194239
-345.057768
-390.540462
-175.447976
-179.352225
-400.443932
-4.126824
-30.511964
-123.291719
-58.635250
-460.775959
-117.314142
-385.856144
-81.728939
-305.328034
-172.912941
-471.233019
-383.636500
-284.679986
-353.836219
-264.884513
-77.524745
-32.024795
-392.710821
-302.129671
-402.181091
-211.066211
-369.121886
-367.965433
-19.456646
-295.999140
-382.242611
-108.581895
-54.294626
-344.874346
-55.426436
-226.973511
-621.043024
-21.520563
-132.009243
-176.202210
-177.831866
-332.736871
-276.010122
-11.592045
-383.563066
-151.209731
-47.808757
-60.265111
-108.166687
-385.575116
-264.711707
-179.806196
2.330788
-55.189887
-139.916781
-205.942734
-406.004562
-355.476088
-577.271857
-203.362747
-149.292166
-135.544756
-375.923283
-105.717650
-138.383104
-322.415786
-332.893672
-85.253907
-339.621210
-370.753051
-723.638686
-337.310743
-242.360680
-64.789022
-32.029139
-186.117458
-230.369278
-6.554955
-32.622607
-138.369762
-279.753500
-403.753933
-332.269910
-393.768768
-276.095042
-90.113092
-385.015016
-59.957000
-440.410883
-546.060314
-175.169604
-50.784519
-224.999257
-120.838466
-294.898950
-138.646638
-109.502980
-354.623403
-398.193508
-242.830243
-325.197653
-73.432987
-521.324061
-27.498345
-21.540558
-77.326798
-393.449523
-174.836604
-340.758729
-196.810733
-391.363177
-384.473697
-736.192168
-336.483376
-172.645200
-340.801759
-397.204373
-342.295088
-321.777638
-250.370865
-378.287197
-66.260255
-192.942995
-155.252608
-2.345433
-143.796803
-374.173482
-368.502513
-194.310321
-401.068898
-322.819818
-166.021750
-92.401864
-371.263740
-158.920539
-184.232705
-191.435895
-238.541193
-323.087993
-399.162267
-113.271116
-84.508938
2.743189
-369.939172
-406.907379
-200.517940
-4.655744
-102.015351
-129.103465
-262.240219
-32.483618
-239.615736
-395.119602
-392.863479
-393.676190
-402.897225
-60.831609
-165.561768
-365.464884
-153.781029
-274.664601
-79.037104
-26.606230
-347.391973
31.989172
-93.041695
-107.017803
-22.806593
-101.489533
-188.503904
-109.094382
-59.122492
-74.275775
-183.166316
-393.135939
-142.401142
-403.029862
-47.633395
-394.589850
-277.983895
-117.124923
-4.456816
-122.168318
-7.115000
-124.092104
-141.327062
-140.352626
-254.302600
-186.494476
-362.579832
-70.269479
-94.715315
-304.553371
-114.597649
-253.996346
-136.111592
-323.786226
-384.870411
-147.831882
-141.682195
-184.117179
-404.942729
-395.163174
-546.452195
-267.303616
-242.485281
-288.488910
-100.028522
-24.477860
-354.186807
-189.358473
-65.088520
-349.947788
-338.612132
-398.269307
-144.146163
-365.526538
-386.044070
-15.342676
-222.704150
-368.862897
-280.061859
-239.339245
14.227992
-32.497058
-382.091093
-136.997233
-161.691306
-200.897929
-46.706398
-403.917952
-402.278534
-426.026931
-187.828813
27.814690
-175.562792
-421.156619
-331.323204
-243.802471
-458.722163
-99.006980
-495.958613
-111.703679
-157.099977
-15.075036
-309.460047
-814.794721
2.129035
-70.158715
-126.630325
-55.612045
-380.214623
-589.589187
-206.736036
-174.772152
-389.735503
-29.433158
-297.340139
-356.486477
-385.099026
-73.284424
-244.390004
-576.592309
-297.962682
-20.738097
-356.427833
-405.478899
-392.750793
-257.225561
-210.429042
-378.064813
-479.821753
-3.674035
-322.629930
-93.918691
-152.999140
-86.458931
-387.886725
-349.879389
-360.690979
-96.845978
-363.751690
-259.330140
-172.760570
-12.930894
-216.763672
-3.418590
-462.990178
-269.128965
-367.588067
-693.974207
-217.640906
-384.216675
-95.313203
-402.780405
-399.720098
-354.479314
-388.361612
-341.848121
-479.194922
-43.837763
-343.561589
-257.879839
-306.840615
-261.215081
-394.646974
-397.050501
-394.000386
-357.703420
-163.341445
-360.275430
-395.292566
-233.140849
-315.698007
-397.074669
-153.678624
-25.649189
-117.935098
-361.988337
21.811377
-364.613455
-180.277247
-338.404068
-179.209437
-265.249530
-139.982191
-101.340433
-21.800438
-361.406746
-390.926041
26.543007
-40.890647
-275.669390
-14.618486
-394.999791
-191.692159
-273.274036
-356.242585
-379.856262
-280.759564
-246.902227
-411.182681
-174.066104
-293.661012
16.329820
-156.904702
-397.997781
-71.456271
-385.134834
-106.115787
-275.463068
-32.611166
-259.200957
-351.983191
-227.428675
-447.761856
-346.987617
-263.998225
-283.394364
-414.172418
-516.927508
4.050506
-303.188485
-363.430809
-365.762261
-757.906566
-315.809463
-567.503696
-228.339521
-115.739383
-37.750029
-43.326946
-396.416771
-74.471829
67.966851
-331.905841
-206.257348
-643.654955
-3.101611
-47.824424
-9.378490
-282.133071
-547.626445
-392.213974
-386.972448
-188.929359
-192.157771
-373.500781
-366.053424
-184.443216
-280.370858
-150.636422
19.753543
-127.898225
-107.783840
-118.404045
-483.585730
-286.795489
-206.605092
-169.066630
-7.012723
-384.704383
-24.243458
-176.213064
-306.943722
-114.992566
-397.236963
-309.715339
-333.700920
-322.560345
-274.179266
-200.317120
-390.906318
-370.400705
-322.800316
15.704084
-410.679983
0.134177
-10.988987
-361.305449
-377.964940
-235.259967
-58.215524
-164.349761
-182.732695
-301.796557
-387.544592
-8.401199
-326.440975
-1.489004
-369.838314
-247.624616
-75.414695
8.254175
-87.228715
-292.349802
-236.281099
-444.294463
-363.430128
-205.127688
-179.656831
-407.105272
-353.063740
-136.544227
-386.950778
-134.663173
-202.285454
-641.502150
-102.676053
-124.875025
-464.045841
-218.482873
-13.745527
-595.409639
-147.058514
-245.322714
-361.349113
-363.199397
3.866075
-371.960946
-33.743017
-181.519767
-415.831770
-145.736808
-399.638547
-340.586758
-185.846052
-21.001380
-395.840472
12.792871
-364.827994
-196.485458
-37.560789
-161.743749
-318.506918
-392.658926
-136.154073
-128.362783
-359.260282
-334.034638
-363.691532
-396.954150
-209.878650
-320.778967
-80.398403
-76.959565
-123.588982
-39.336009
-183.579236
-183.918074
-237.735615
-327.220125
-276.213590
-390.114392
-131.386866
-378.207213
-249.099235
-482.326093
-29.510723
-134.011554
-478.563714
-8.061407
-299.056981
-384.301282
-54.014939
-149.419246
-62.499185
-260.227938
-182.192453
1.603739
-318.268995
-329.085989
-222.728620
-384.048362
-371.780192
-393.118495
-117.534765
-123.223647
-264.831116
-368.088292
-164.281149
-158.967857
-55.138991
-449.707652
-384.183812
-404.128884
-175.933063
-297.306367
-179.927647
-369.610273
-139.032122
-692.998709
-84.365928
-25.229530
-205.650723
-220.849513
-218.236717
-129.954540
-142.678409
-375.502975
-235.585805
-1.728688
-391.355866
-741.077404
-381.814605
-245.270961
-197.456940
-364.470656
-375.728223
-229.794430
-476.459507
-394.448574
-296.593906
-334.238265
-141.659415
-361.503710
-371.899797
-370.514655
-1.787935
-338.903257
-291.642287
6.500932
-86.096375
-304.023285
-260.689376
-412.099052
-119.939024
-329.165763
-392.103578
-369.498053
-165.554887
-331.261200
-393.626803
-105.072967
-41.227959
-135.888505
-103.992875
-212.558663
-138.740089
-305.320840
-202.173674
-185.795513
-361.837498
-310.830680
-111.122109
-214.213309
-182.040539
-14.413458
-59.398451
-58.750952
-494.834210
-191.135368
-53.722286
-47.760192
-391.736290
-389.735214
-148.789297
-299.431089
-43.340675
-217.584877
-149.450175
-234.560671
-366.034888
-185.876654
-60.757132
-393.017301
-367.169540
-370.433805
-357.061699
-29.000678
-97.138476
-193.582846
-28.704158
-305.009760
-66.758985
-538.205334
-405.177564
-333.356890
2.408677
-150.309122
-514.544601
-398.060529
-450.970471
-388.875813
-166.799199
-343.657572
-365.943041
-280.724794
-51.343242
-117.774680
-96.043720
-342.007823
-316.588462
-278.163975
-399.015478
-44.274351
-345.689019
-341.004672
-18.690566
-43.437756
-656.545897
-392.697080
-25.041700
-138.627111
-114.300234
-236.339888
-270.454817
-87.469420
-424.722926
-241.198386
-92.728347
-183.818876
-393.428182
-273.881833
-360.226773
-73.245936
-43.124076
-249.605482
7.936054
10.226677
-377.779303
-368.644514
-266.480491
-115.938788
-350.128484
-201.473117
-328.247986
-294.661744
-99.316472
-717.814654
-113.042995
-641.334010
-356.968812
-376.808928
-132.994968
-242.685952
-111.040673
-19.104462
-98.066475
-268.397329
-393.947834
-365.650707
-409.701189
-51.121328
-236.049727
-29.421667
-397.008016
-113.346938
-188.044730
-333.774746
5.396482
-398.354095
-327.418240
-109.143797
-304.200632
-306.030677
-449.909325
-110.374139
-286.953960
-185.745768
-30.484742
-271.955112
-402.524066
-415.433681
-108.900685
-365.008118
-430.387136
-217.908882
-421.139641
-24.635876
-52.878634
-431.040824
-229.314538
-322.546343
-132.265956
-187.337327
-422.931193
-277.551186
-60.998193
-390.088469
-66.387814
-38.684205
-124.281899
-459.990747
-123.239805
-362.256393
-178.869598
-382.456953
-391.268235
-357.739663
-191.939001
-243.125895
-207.748117
-198.742295
25.851841
-76.099829
-402.609949
-268.279137
-103.974833
-398.617034
-133.112858
-266.505605
-136.803601
-27.558329
-356.011486
14.637341
-298.488152
-116.453334
-377.499877
-199.564023
11.258004
-321.336440
-171.676705
-371.633552
-207.936608
-148.562178
-379.132395
-119.343032
-591.033356
-143.711326
-298.056015
-394.620516
-112.719067
-34.698347
-21.317744
-24.022741
-671.469993
-123.201678
-343.633659
-191.661502
-228.538155
-24.998491
-329.446182
-374.799638
-361.883283
-420.971944
-9.299383
-97.655408
-124.942996
-120.815708
-365.506638
-548.853188
-36.419755
-54.589839
-383.836116
-8.200951
-333.934658
-509.316908
89.928915
-388.862587
-383.938864
-391.608634
-366.649946
-120.794612
-180.278712
-180.111109
-107.806708
17.180069
-256.229550
-346.123683
-405.086507
-171.377946
-508.440288
-136.140078
-261.520237
-113.635008
-174.201191
-125.023076
-399.382897
-188.865880
-35.371974
74.254425
-366.612256
-388.357073
-109.313474
-146.443947
-6.158831
-388.747864
-345.850768
-705.831035
-331.129892
-391.426396
-378.593247
-75.049240
-795.892682
12.790209
-165.176174
-837.777157
-20.791414
-6.700752
-112.181653
-288.149706
-355.077045
-149.879020
-242.640397
-13.639158
-114.606460
-695.143286
-53.493203
-91.589823
-290.836047
-8.988658
-392.008612
-383.394268
-352.851900
-87.466096
-246.078019
5.623015
-81.499736
-112.401188
-237.562108
-245.116211
-13.569648
-229.882449
-161.610127
-345.056034
-105.781963
-83.510118
-388.561340
-224.461085
-118.018462
-215.338032
-367.190637
-15.600754
-580.751855
-391.285780
-79.850049
-120.891423
-34.813868
-99.343153
-185.312476
-64.050812
-336.855664
-255.716173
-171.655156
-317.562191
-251.144916
-280.216399
-33.896056
-365.918216
-126.475525
-391.247566
-184.041952
-289.305471
-359.545256
-70.511559
-170.717201
-171.845241
-508.641850
-315.451873
-72.046365
-407.887188
-99.346412
-27.949861
-406.945998
-126.728137
-88.650821
-156.088001
-353.523233
-309.856963
-36.170473
-331.336566
-83.653289
-333.000716
-222.223008
9.772555
-14.217668
-342.193559
-178.046252
-389.965836
-19.777986
-395.986264
-284.705412
-328.457753
-332.049904
-354.341173
-374.559091
-257.928157
-333.082228
-360.915643
-390.656928
-391.881176
-130.154031
-391.481709
-381.176712
-34.326574
-52.865359
-243.850113
-347.595029
-106.382837
-109.897596
-363.252257
-171.495450
-264.676149
-218.832080
-598.383170
-132.729922
-393.055637
-383.753368
96.229102
-101.249737
-0.810441
-384.518991
-254.400245
-59.881539
-157.717347
-314.388810
-6.202337
-368.482715
-57.235177
-373.777711
-280.327450
-66.870198
-179.340516
-263.844095
-308.123058
-94.842178
-405.068070
-325.954994
-218.578668
-362.356540
-353.582006
-306.585722
-114.506841
-162.149633
-99.549477
-31.271870
-115.248173
3.654686
-168.754091
-72.098786
-559.556186
-184.616011
-132.038304
-144.462949
-391.653560
-358.241154
-219.248259
-427.317838
16.446799
-372.926938
-298.672839
-47.675534
-364.045041
10.407246
-396.297284
-41.519232
-249.963609
9.418118
-395.924003
-41.074494
-18.495634
-87.751864
-404.703579
-78.541973
-357.458922
-153.763895
-547.807878
-104.249704
-482.330084
-104.375094
-51.720897
-88.329981
-419.807132
-154.685934
-234.626845
-359.523004
-352.062844
-533.419447
-30.869953
-99.151413
-90.756564
-27.682791
-318.679466
-98.689042
-290.083342
-366.883655
-75.630897
-138.164682
-67.040398
-142.084204
-255.009642
-354.974441
6.109085
-385.242484
-204.113452
-387.574025
-309.810144
-204.296708
-369.847783
12.964774
-271.351578
-118.212991
-181.202020
-16.387545
-276.260048
-129.057415
-78.943234
-168.330300
-389.897834
-291.514648
-336.095038
-85.306762
-300.140552
-517.714815
-509.215849
36.206633
-260.244844
-255.719865
-399.148584
-76.940871
-346.946230
-358.674143
-403.670798
-111.572126
-246.709133
-341.655479
-182.005532
-390.294437
-202.653447
-122.086371
-162.698137
-97.321823
-453.281082
-238.948639
-283.458382
-9.430247
-285.431896
-192.072973
-375.226785
-82.427301
-415.247642
-200.278517
-373.186201
-401.069220
-222.120463
-197.876360
-173.204766
-266.746593
-387.711108
-33.331606
-96.259834
-228.751007
-704.752768
-241.658484
-345.326516
-134.444713
-90.156045
-294.115630
-345.280583
-380.403337
-320.502125
-1.924937
-250.640450
-110.574720
-293.425817
-215.379171
-331.115075
-360.894971
-247.593763
-262.309492
-32.119375
-104.077295
-344.408238
-273.604008
-152.177988
-126.984973
-227.771435
-131.032077
3.964346
-275.102912
-397.848105
-187.032718
-65.690867
3.523790
-298.192828
-66.878505
-217.229895
-161.515260
-32.869385
-142.756365
-166.954164
-62.790344
-216.642503
-374.408626
-732.634849
-175.662643
-211.375440
30.568525
-25.484586
-221.415716
-11.383316
-393.844812
-167.342498
-230.785685
-71.957450
-340.269811
-89.747904
-332.148705
-317.824981
-272.465610
-119.915318
-208.131834
-233.063235
-581.297213
-445.029930
-265.783415
-96.543603
-368.442152
-348.412034
-194.066630
-25.499109
-138.935371
34.373293
29.903644
-55.247960
-5.959979
-329.044798
-289.013027
-303.090296
-127.877461
-27.470626
-87.948572
-117.714625
-183.753958
-338.065866
-210.987872
-241.033038
-246.507551
-81.773400
-524.784783
-45.722566
-157.707469
-534.990576
-356.568235
-379.678572
-619.232478
-31.160204
-71.324048
-189.841117
-250.105430
-411.260216
-29.759208
-412.072446
-334.719229
-42.209801
-525.958292
-366.743368
-80.965912
-209.405487
-271.907426
-37.268615
-268.534575
-159.219022
-134.961757
-145.614645
-214.621621
-36.598091
-390.994526
40.223131
-515.688720
-241.434032
-393.387485
-713.795566
-97.849710
-261.211650
-286.554807
-398.556496
-91.611273
-106.645105
-398.827065
-143.245708
-426.561216
-320.675493
-299.779211
-357.180759
-581.313170
-459.845148
-324.589279
-111.197999
-196.155133
-352.220896
-37.077783
-181.626100
-301.460749
-240.825213
-21.461165
-246.222491
21.685714
-291.605944
-230.015801
-88.444052
-1.568217
-222.427925
-417.999728
-160.490103
-315.731660
-239.771561
-398.496404
-191.459778
52.793943
-98.574223
-150.571117
-93.504938
-117.631853
-109.726253
-5.419337
-121.917908
-30.017593
-241.649897
-365.957107
-417.914135
-269.260937
-331.854738
-228.509556
-11.282884
46.430229
-148.768672
-29.439919
-188.760071
-111.644232
-396.445937
-338.890701
-367.264576
-341.190496
-247.152333
-158.923363
-166.925360
-38.647527
-31.405744
-381.356221
-203.337349
-277.369975
-160.742179
-123.801371
-194.476211
-668.402656
-94.211030
-80.017606
-365.678230
-396.746531
-351.827535
-152.743163
-347.920121
-31.853609
-182.797847
-365.661208
-391.900456
-407.230509
19.251716
-103.850363
-53.257557
-316.091788
-90.389664
-230.281785
-310.314517
-400.960686
-51.515577
-398.667204
-74.332842
-249.779254
22.394803
-175.129563
-641.533400
-668.181966
-122.937605
-226.995625
-300.494864
-77.317798
-87.925121
-401.978462
-379.015801
-250.303255
-322.611898
-33.953768
-308.800614
-31.102270
-125.237790
-44.430291
32.349041
-207.467732
-403.864061
-125.403003
-131.024199
-392.749196
-304.247130
-326.939606
48.660767
-230.987144
-147.660981
-152.717501
-304.864261
-87.607290
-113.838868
-102.423141
-72.703577
-267.562542
-182.217218
-62.346129
-352.415299
-186.047604
-253.840560
-144.762463
18.074398
-329.516942
-71.898345
-308.822389
-19.527967
-265.090321
-9.209314
-389.672188
-140.938472
-210.388167
-2.786382
-263.876164
-50.383551
-25.748460
-386.132424
-136.997822
-105.293299
-388.697005
-616.048677
-112.654624
-301.751369
-26.054128
-78.696349
-49.939491
-82.244802
-394.153294
-223.332476
-165.879289
15.872352
-157.284182
-251.184079
-235.391410
-24.029225
-425.857814
-375.724841
-313.071990
-681.629972
-380.163383
-276.380538
-42.988412
-110.007096
-357.432925
-72.130970
-322.057464
-171.581534
-229.594169
-518.473946
-461.414681
-334.444435
-31.944155
-178.426036
-390.879031
-328.259095
31.316729
-184.808717
-253.157143
-138.754557
-226.787388
-337.392251
-378.911770
-117.813260
-342.721980
-14.684906
-9.042931
-117.351555
-541.726137
-747.761076
-159.433061
-755.778957
-390.549865
-34.441826
-92.493169
-393.329511
-306.660844
-179.430383
-182.745920
4.512816
-22.125511
-221.945027
56.239247
-299.629670
-168.040625
-281.738133
-126.521692
-80.090522
-542.478526
-394.203463
-325.618609
-235.622724
-242.212604
7.412443
-221.245319
-107.638416
-294.228527
-60.715681
-192.981434
-89.871819
-104.308776
-333.912924
73.123563
-276.935924
-541.856241
0.338971
40.248596
-202.843679
-105.413990
9.820164
-319.513270
-259.638341
-231.465435
-43.820946
-155.820057
-245.600389
-203.817733
-302.099556
-388.127250
-426.951979
19.376878
-167.451677
-396.978734
-652.829848
-177.664434
-317.098404
-352.241787
-329.547771
-347.305446
-345.054761
7.443232
-44.752564
-379.934964
-200.109366
3.330752
-189.127907
-193.829921
-763.643142
-350.797658
-39.153114
-261.241102
-379.102076
-170.935389
-476.156090
-144.767870
-372.689191
-382.296617
-126.043510
-169.879216
-312.000916
-280.979345
-143.758058
-29.317363
-404.203581
1.157607
-3.436948
-250.444326
-45.841062
-404.205460
-5.831475
-202.635821
-323.967688
-235.212858
13.917019
-69.262369
-96.655707
-292.301699
-319.929880
-316.031755
-17.496449
-311.435075
-321.844131
-369.223912
-39.353721
-386.502102
-47.689717
-377.493902
-236.440294
-24.481624
-757.304076
-157.471447
-303.264731
7.072750
-42.375579
-321.102216
-399.011557
-357.660037
19.954568
-311.934832
-387.029274
-521.562006
-353.785247
9.299853
-212.355360
-81.847276
-91.050208
-89.622254
-156.643517
-368.456966
-386.502323
10.975668
-344.850336
-185.387076
-172.817087
-389.490791
-385.231677
17.410650
-355.722682
-212.730338
-168.947535
-258.311525
-179.922842
-224.968638
-13.473466
-343.190939
-385.067420
-538.297831
-131.113466
-70.403235
-187.902395
-269.134005
-3.529380
-386.795013
-393.713702
-233.119498
-371.833853
-74.336465
-42.423481
-334.587000
-544.392077
-293.410449
-89.858156
-307.404544
-374.161200
-311.277321
-381.961098
-37.620498
-445.364784
-640.023969
-252.097562
-87.456699
-24.819384
-162.320290
-81.940848
11.733354
-283.007868
-350.731761
-230.399915
-141.533408
-114.955810
-94.101779
-170.321640
-199.246735
-332.318093
-59.185097
-510.957102
-172.665281
-50.760621
9.675389
-363.708582
-45.178069
-527.378366
-45.715136
-145.333251
-312.785918
-130.967729
-186.688716
-653.076312
-198.981646
-278.087068
-229.459366
-120.537604
-133.657019
-500.293161
-276.108433
-209.241414
12.434096
-352.335260
-406.479272
-419.796646
-17.920071
-248.915049
-356.184381
-381.073357
-162.668656
-298.883940
-438.244142
-123.677658
-155.539765
-389.393879
-114.591036
-65.176310
-221.379537
-65.861173
-296.529365
-407.602427
-107.524142
8.337354
-34.303309
-388.809252
-35.275654
-528.659776
-347.292691
-95.462760
26.770470
-172.354376
-37.812950
-732.674427
-346.859975
-405.038426
-212.747626
-1.394576
-5.964037
-320.778605
-191.865003
-197.099407
-242.828738
-31.987991
-91.459707
-295.256824
-384.787364
-24.504378
-482.461557
-628.390427
-347.627449
-392.969998
-143.023583
-394.722083
-375.224154
-401.986991
-155.010224
-117.374815
-751.245989
-183.654946
-390.918634
-307.639736
-0.895459
-696.904205
-82.687903
-431.056630
-370.145510
-339.831548
-110.814600
-119.726962
-47.514164
-385.876929
-583.728243
-236.266168
-334.226890
-68.906863
-398.560930
-6.267862
-309.879258
25.193475
-115.551061
-316.208685
-122.248924
65.897692
-155.751645
-346.196633
-380.022660
-73.563302
3.395544
-410.978599
-479.188786
-197.113444
-111.407627
-498.353733
-241.770134
-99.692650
-479.218901
-243.681232
-25.914708
-376.210122
-54.418280
-366.834286
-321.093524
-102.286545
-352.650306
-292.971913
-59.869589
-298.708842
-295.680167
-382.173093
-342.528063
-312.464316
8.045000
-255.361542
-12.161774
-402.341001
-85.498658
-367.946552
-38.590378
-151.349301
-244.801959
-51.592984
-168.797482
-90.207007
-398.042706
-316.634076
-203.835543
-104.476740
-134.335944
-64.839977
-4.611949
-37.039846
-192.262716
-176.341164
0.575862
-30.119593
-100.576270
-330.132868
3.652113
-345.330898
-342.471674
-411.615128
-209.333063
-264.039238
-384.457325
-63.081259
-395.598668
-152.508680
-87.692475
-370.204536
-14.873062
-319.086127
-391.778798
-188.142158
-13.140254
-249.603353
-26.418111
-175.713389
-26.648592
12.815066
-385.975909
-470.601848
-281.411663
-103.471826
6.352261
-79.680549
-376.740159
-369.956465
-138.571410
-116.501954
-30.152341
-115.419474
-386.466564
-255.705266
-146.756655
-399.696464
-73.838536
-175.284332
-142.688585
-423.021316
-129.660028
-388.984411
-354.782015
3.059172
-387.322428
-376.719467
-396.051468
-86.275967
-295.287555
-54.393930
-508.410831
-201.358935
-37.596085
-211.738066
-173.475249
-170.806092
-88.348474
-358.436311
-119.843065
-368.910305
-167.143176
-353.140609
-253.809183
21.069890
-466.480318
28.016430
-74.554516
-115.361724
-454.907712
-116.218095
-172.129838
-23.946158
-426.565985
-254.583940
-173.750973
-401.944412
-199.095809
-325.150503
-45.472903
-196.741068
-393.665251
-437.701323
-38.994910
-174.797924
-393.160085
-338.193275
-261.782256
-317.568476
-182.281798
-149.573412
-44.971786
-590.104874
-150.348160
-64.842516
-82.769634
-338.414456
-32.981051
-344.567491
-216.058282
-34.884145
-135.991052
-326.776635
-160.586279
-150.066487
-364.834299
18.612089
-46.381155
-64.972414
-16.540663
-776.281389
-34.335989
-380.780274
-231.871441
-5.688040
-101.601985
-681.657168
-387.428325
-73.761305
-59.477710
-342.948680
-177.920119
-104.461363
-470.208360
-395.615323
-15.435840
-183.347854
-67.603136
28.302743
20.905324
-37.764151
3.373388
-25.505682
-345.947391
-7.737051
-310.349129
-320.763497
-108.062189
-388.548623
-120.918015
4.712755
-169.831676
-405.426555
-241.859067
-344.909598
-250.260589
-290.344482
-193.643425
-136.965396
-363.506438
-191.149758
-35.016898
-364.158812
-195.277909
-709.837767
-270.124933
-128.781394
-536.205889
-187.922190
-377.653326
-202.639695
-331.187144
7.131156
-320.350340
-229.137625
-511.053972
-247.508143
-196.245014
-19.820058
-327.048683
-360.949962
-362.369526
-98.912463
-145.158537
-291.170087
-221.404719
-226.489461
-260.247114
-259.182024
-227.398704
-247.108629
11.456512
-346.227827
-216.223009
-194.324655
-101.251265
-378.701656
-150.373674
-5.539573
-104.713730
-320.771793
-80.161214
-371.841878
-88.746732
-26.931563
-426.395122
-404.939348
-110.197436
-543.436304
-555.587168
-18.651406
-431.898251
-48.840091
-326.260248
-362.811103
-10.745365
-63.256423
-382.040290
-404.490401
-117.634010
-391.423192
-127.783356
53.918727
-273.691609
-365.383768
-87.041184
-295.024580
-86.810607
-375.508284
-209.888834
-39.752398
-393.379070
-387.916924
-12.571978
-172.132988
-144.347123
-378.211384
-144.535571
-395.767092
-322.922247
-395.796196
-172.392022
-12.448753
-112.395829
-77.770509
-365.773967
-315.812442
-239.628210
-264.472397
-429.264724
-169.517625
-194.656614
-221.734303
-37.581453
-276.181710
-825.065177
-139.592825
-177.321986
5.470078
-560.296568
-195.941523
-282.771347
-207.793599
-403.109954
-380.854190
-116.493538
-362.993603
-16.453057
-172.931067
-1.138063
6.405704
-325.462141
-521.460896
6.634806
-400.850867
-406.417731
-305.983786
-9.202781
-37.223867
-6.216152
-165.167471
-161.519740
-112.589808
-128.015678
-812.571620
-261.092265
-363.008875
-151.172212
-244.216048
-338.726110
-177.640397
-21.882988
-83.342252
-390.259468
-330.572784
-369.062958
-320.516438
-460.932469
-58.570442
-204.469780
-150.086612
-290.329194
-361.158227
-183.217841
-212.685760
-148.252277
-142.960562
-689.855394
-121.417689
-196.433349
-91.850622
-95.936528
-91.243240
-318.488172
-113.520877
-172.183792
-10.613426
-204.787479
-276.284213
-79.351028
-207.313186
-715.588636
-4.024613
-388.475130
-223.005168
-288.181265
-238.563653
-116.296092
-154.137943
-250.928358
-390.985199
-277.005827
-156.884877
-86.575368
-379.090987
71.001047
-793.913213
-17.627161
4.786106
-217.770393
-318.525905
-319.614298
-207.348616
-190.746110
-536.997866
-384.991823
-370.973319
-104.232239
-270.647310
-120.941130
-381.541722
-257.364486
-121.719642
-228.520911
-503.285198
-364.592112
-416.210209
-4.609460
-832.624851
-304.428842
-279.266780
-88.243524
-167.712263
-380.693859
-249.126441
-232.915853
-100.824456
-223.778923
-503.976682
-225.720765
-342.384901
-181.122191
-376.812140
-54.521047
-485.367918
-356.429463
-377.418407
-511.719943
-378.878426
-264.867094
-363.479976
-360.475267
-37.739260
-629.505551
-3.879788
-143.267015
-469.056216
6.514922
-325.290342
-107.946400
-389.316362
-400.258771
-389.614805
-384.036944
-623.312567
-244.566684
-70.696898
-124.137284
-219.006906
-173.362036
-255.152900
-223.910929
-252.291599
-42.397944
-150.392160
-119.875559
-397.369559
50.098645
-388.013352
-163.211119
-380.404569
-344.919997
-286.710715
-173.723212
-319.716794
21.424435
-15.790872
-186.480207
-266.405503
-330.158389
-82.085103
-285.810595
-443.130013
-566.336845
-355.067671
-329.994987
-150.305036
-127.662578
0.623777
-53.233421
-540.633159
-401.646701
-489.327168
3.299159
-385.432743
-660.536990
-285.589494
-332.013029
-78.213087
-695.501291
-254.253122
-293.936314
12.583297
-145.548161
-158.375588
-315.843255
-337.995616
-536.006060
-227.798404
-530.321932
-323.250124
-248.690533
-82.468563
-188.304381
-141.830444
-197.822858
-136.645858
90.176534
-349.453475
57.730919
-296.375400
-253.734882
-245.066702
-325.085657
-371.349876
5.894907
-285.365047
-256.695040
-262.029313
-191.872048
6.671546
-396.022385
-688.087726
-31.079692
-172.563931
-25.135192
-133.465429
-610.623774
-337.693629
-56.312544
-268.533209
-178.531715
-74.578333
-40.330564
-202.671747
-280.572421
-92.005491
-473.545329
-38.389265
-393.158871
-383.995252
-85.314574
-231.668010
-273.034487
-31.967423
-77.262495
-372.862421
-270.008463
-450.714856
-273.614293
-418.094313
-134.617139
23.681779
-579.778700
-107.770565
-458.446737
-301.248219
-238.941659
-422.172248
-85.350866
-113.464439
-364.781207
1.949426
-116.569252
-194.539867
-396.049594
-299.558607
-404.958661
-390.359568
-220.660524
-1.186278
7.280871
-178.056516
-391.941978
-473.616105
-20.046721
-510.454234
-377.618792
-239.592534
-388.253718
-337.047334
-377.961359
-91.065418
-160.122691
-243.623728
-246.365604
-301.009329
-57.414038
-124.403733
-175.576882
-175.983077
-437.541843
-351.291615
-164.740737
-154.982874
-239.759286
-155.331698
-162.141344
-188.642424
-82.294103
-242.485246
-106.290487
-357.500185
-238.727976
-231.715620
-256.781571
-24.990763
-163.052446
-15.475795
-340.150793
-291.562242
15.171605
-18.050365
-382.085038
-135.364687
-45.683514
-295.547390
-17.893513
-268.312745
-355.403019
-364.635607
-387.535778
-251.303984
-407.149646
-207.966488
-255.065817
-106.455794
-372.159396
13.890449
-210.751549
-137.577566
-392.794434
-392.649103
-31.402265
87.170847
-400.976188
-19.778914
-27.050402
-251.325658
33.912221
-162.605980
-44.903850
-389.197061
-124.505405
-316.482946
-255.360678
-359.303241
-554.735619
-417.379454
-221.236603
-366.034827
-312.049595
-348.401501
6.554213
-33.167658
-193.009029
-421.443064
-66.034872
-76.384260
-11.914217
-19.103393
-65.665191
-33.617162
-375.989037
48.422203
-528.217280
-274.055366
-47.933554
-222.150931
-253.517437
-295.757313
-155.714158
-352.262738
-145.235179
-406.137125
-296.010459
-373.870103
-256.467342
-157.656967
-241.075618
-38.261118
-133.231771
48.412216
-101.116875
-444.437921
-101.582592
-64.825429
49.105228
-156.474358
23.542585
-44.279571
-306.878897
-403.648094
-38.110908
-239.514313
-182.179839
-340.513363
-388.805831
-74.881488
-82.696969
-253.430600
-22.999404
-309.809574
-342.038345
-92.744400
-363.924735
57.521239
-111.178508
-304.670740
-356.404107
-226.686731
-396.069608
-383.504607
-31.643456
-397.036162
-10.223235
-94.919350
-48.763240
-117.821193
-67.767386
-83.893653
-114.916755
-220.045482
-83.987639
-324.107289
-170.049853
-411.987582
-327.653999
-14.618297
52.444500
-147.275816
-141.069877
-247.820897
-385.644399
-167.924974
-166.437571
-280.729415
-145.304170
-19.306550
-172.757125
-456.301777
-380.906777
-245.659307
-30.105089
-242.389003
-43.717535
-267.572590
-376.044147
-278.427497
-86.188208
-84.329032
-406.997702
-375.291258
-192.625649
-361.490799
-135.275365
-157.741039
58.892397
-366.317030
93.819374
-135.945031
-29.465035
-184.263743
-167.607441
-168.749052
-181.514744
-396.536506
-95.366608
-3.295188
-126.661145
-349.542871
-83.806670
-161.971288
-302.530201
-344.354812
-415.274971
-157.648907
-264.364776
-352.075079
-126.219385
-341.539162
-64.141892
24.426868
-11.725287
-377.617344
-59.811686
-323.684133
-99.181197
-420.323912
-506.118479
-70.441038
-187.146281
53.661283
-410.097323
-360.842637
-43.827021
-59.590673
-540.710079
-157.539416
-5.292991
-344.379288
-27.096128
-172.876074
-46.614342
-316.969641
-44.142810
-121.803430
-252.683339
-464.296419
-185.675252
-347.960006
-500.386424
-236.663455
-214.199836
66.465706
-342.672870
-118.538707
-323.740559
-386.877349
-102.022608
-330.624685
-92.541365
-295.266312
-353.695900
-212.455462
-118.469611
-373.769905
-394.251896
-14.433478
-162.519612
-129.168578
-309.123048
-51.424304
-137.483107
-466.114485
-311.434870
-51.450638
-408.927684
-533.408981
-296.349142
-41.012158
-382.280463
-349.476322
-128.790853
-121.623202
-291.564827
-27.226880
-246.883929
-10.134049
55.762542
-75.378843
-387.219287
-49.401999
-313.381265
-241.306577
-437.998745
-116.321519
40.102663
-89.388320
-2.369664
-205.619875
-312.096209
-89.569329
25.558816
-9.971241
-94.933730
-97.010984
-226.965786
10.115986
-164.234816
-97.547826
-280.140254
-239.968741
-11.597223
-156.457340
-278.412406
-78.680122
-402.154021
-239.787102
-265.920676
-273.714087
-248.045731
-340.720650
-59.921666
-97.515619
-147.559004
-131.015221
-247.202306
-570.089701
-401.654499
-31.416097
-337.058759
-162.711083
-306.092297
-135.834604
-231.729929
24.764893
-23.354562
-165.086613
65.392622
-213.712378
-391.902597
-739.183230
-113.760602
-39.581307
-61.222855
-120.190673
-257.764701
-90.060985
-179.008016
-394.526640
-349.652590
-410.093925
-63.649593
-177.280637
-332.716639
-136.983722
-342.507125
-40.122077
-697.550026
-399.352828
-402.727797
-350.493090
78.947054
-381.292826
-408.661848
-120.965368
-153.532608
54.579477
25.308709
-299.353684
-272.715795
-89.354102
38.982632
-138.926868
-242.974200
-340.300160
-208.598828
-372.250977
-283.448151
-164.111868
-50.750168
-64.727169
-152.066300
-136.621845
-338.021091
-9.631395
-215.567338
49.743820
-497.468113
14.176602
-73.160063
-399.386298
-181.631197
-332.967552
-326.814691
-80.947906
-232.985234
9.460932
-395.934083
-169.774840
3.080776
-392.934882
-265.940613
-402.663440
-405.571739
17.544064
-188.261076
-391.506352
-95.783918
-394.525740
-128.498101
-202.349809
-227.519004
-143.241718
-474.987976
-34.019903
8.503840
93.514836
-23.088659
-312.732157
-302.364692
-360.634725
-405.534423
-106.651377
-182.905277
-70.334393
-303.141529
-356.356931
-338.007184
-376.237034
-284.795417
-524.932488
-12.762267
-48.215661
-298.358166
-224.736867
-310.659461
-147.060351
-163.522836
-53.185464
-351.904754
-388.638609
-343.097676
36.616327
89.184446
-294.410273
-269.985704
-38.039108
-241.960497
-75.104442
46.465737
-74.151742
-71.956119
-88.909645
-320.463539
-302.938179
-52.739273
-373.925480
-117.164798
22.707593
-191.223691
61.731777
-378.834505
-302.633217
-84.062797
-155.733539
-259.968328
-30.592239
-200.039529
11.016954
39.002745
-225.917338
-187.229488
-155.703327
-352.539499
-315.365616
-247.140276
-247.072103
-52.449456
-87.677076
-404.366765
-281.235085
6.300974
-311.490425
-217.524273
-141.720803
-392.692396
-485.459181
-193.427138
-89.899244
42.796811
-3.773942
-49.220125
84.426262
-492.716114
-30.753582
-394.025117
29.564064
-167.354572
-63.518873
-45.920070
-317.184439
-366.037506
-36.611807
-252.324840
-297.684673
-87.102124
40.863404
-170.769567
-545.617243
-364.871801
-249.019806
-280.503603
-361.568309
-378.157484
-90.795939
-163.474434
-97.436241
-413.301798
-198.883755
-183.760607
58.576016
-428.218374
-360.555730
-305.523310
-322.761377
-365.403483
-315.359093
-107.966063
-286.208379
-60.288145
-289.659968
-1.214898
-285.693874
-187.546771
19.803303
-435.146615
-305.986001
-79.837780
-0.838646
-126.095091
-341.404126
28.115237
-95.577484
-502.096334
-248.567863
53.816118
52.487649
-122.723488
-54.722621
-261.516633
-354.997775
-379.602751
-395.551671
-213.687983
-264.074476
45.550038
-35.321133
-151.097534
-89.264633
-110.629490
-88.722565
-334.063598
-79.466879
-321.096768
-261.966902
-269.341701
-76.988699
-57.986105
-99.086729
-189.939113
-198.902337
-336.176369
-155.312977
43.306887
-131.351253
-59.212393
-377.228728
-182.225348
-606.100945
-339.060528
-402.867627
-24.064521
-50.697975
-106.954648
-399.476518
-44.744504
-44.491093
-94.042950
-16.289631
-37.451311
-357.993249
50.480529
-254.712799
-397.132661
-378.060298
-28.904934
-357.968379
-23.512811
-70.658087
-503.043939
-381.115606
-288.096368
40.863158
-266.072076
-147.774731
-415.594711
-84.269580
-328.493707
-71.129683
-338.160091
-259.201989
-218.771653
-28.583216
-417.089438
-761.095915
-223.953535
-391.145574
-199.416943
-296.910370
-371.789927
-22.778763
-211.686681
-450.136967
-30.171367
-292.217926
-229.340472
-68.982431
-351.409943
-97.097932
-13.539773
-243.391705
-305.443104
-205.185168
33.215606
-266.982384
-8.731283
-242.099143
-247.620620
-257.325934
27.393935
-311.411018
-217.816358
-96.873643
-216.672133
-51.294533
14.203432
-745.374029
-94.173762
80.821017
-322.909593
-82.410742
-241.046267
-352.366471
-44.152635
-122.200836
-204.204172
52.818367
-109.891042
-355.418698
31.370596
-58.225155
-188.199776
-119.752308
-70.500358
-104.818390
-267.677856
-188.098136
-372.268258
-74.706359
-27.211240
58.962417
-356.976737
-74.965947
-61.664354
-24.829687
-298.153352
-90.274733
-249.320508
10.700327
-110.039356
-26.725815
51.655671
-225.057886
21.174985
-52.194948
-26.565008
-187.274102
-61.118314
-123.817217
-390.526794
-37.364296
13.457184
-134.540853
29.292678
-103.099348
-194.830668
-143.046221
-131.059421
-679.912698
-19.227792
46.785868
-357.201064
-111.620678
-118.325066
-251.631831
-225.534846
-124.264884
61.853936
-177.047476
-20.100346
68.284875
39.690189
-128.729261
-284.603663
-193.677451
-21.229918
-106.248814
94.791457
-87.145695
-177.996647
-435.692283
-398.705119
24.308762
-361.413086
41.559661
-102.331911
-49.273473
-19.573467
-169.752860
-39.963363
-101.934364
-392.127356
-81.512605
26.093448
-67.012188
-196.458735
-123.669607
-77.770648
-392.559189
-393.212243
-6.222639
-41.159327
-234.324650
-101.210608
-189.121134
-397.897279
-21.387309
-298.305379
-129.727154
-297.336461
65.705411
-220.520482
87.060489
-126.879932
-109.744852
-318.134246
-387.546353
-55.891743
-66.647407
-47.777379
-56.194845
-142.777409
-28.674538
63.049277
-38.493382
40.065047
-57.485778
-61.906781
16.213594
-205.766928
-89.040285
-86.971568
-129.771925
-458.380768
-21.777978
-418.930779
49.834041
-225.829270
-33.813752
-38.074730
49.211432
53.471183
47.856125
-188.753187
17.658378
37.977860
44.405395
-41.420236
-319.258880
-41.630411
24.183026
-497.457219
-129.051429
60.261970
-73.354935
-41.900231
37.703681
-269.205956
-84.407396
26.884332
-51.546478
-30.763483
-282.442142
67.670253
-42.551192
-21.068090
-384.705662
33.210678
-285.924209
50.123925
-38.319114
-348.982511
-322.598732
-190.023017
-169.743710
-30.448548
-32.721518
-134.830745
53.694174
-33.142478
-101.512867
35.133874
-94.325522
-55.606927
-11.100104
64.111473
60.491760
34.466138
12.945734
-115.856583
-43.782090
51.384446
28.352966
-349.115805
-27.678019
96.083415
-17.310641
-176.199709
-70.166683
1.746285
42.716617
47.062306
56.367723
26.573276
61.486145
4.113218
-14.414025
-258.281937
8.497824
-34.090704
-77.762600
50.979274
-33.241176
-17.534695
-88.730237
-294.355053
-4.507915
-22.146709
-84.911107
-198.218029
-119.149874
-354.203465
-17.956594
24.965567
-131.499593
-77.483981
61.604211
-204.165775
-107.290665
-73.835746
-605.369869
-133.389426
13.306927
-78.761207
-53.157099
-381.763822
69.158827
-30.485036
-108.954763
35.993312
-35.614550
-33.767448
-134.289993
-96.097529
45.464623
-201.479488
58.032137
40.513984
-8.703357
-304.001126
-29.740154
-779.011680
33.936540
-153.074924
-144.214282
14.178998
-112.980210
-23.079409
70.145207
15.744450
24.591090
-47.101750
-67.878938
-274.068028
-83.756819
70.821473
29.342089
-80.744795
14.600537
-0.957087
-28.257100
19.052850
-178.741248
-342.740785
-93.427293
-39.881319
25.862822
-51.868576
-84.453331
-30.473625
-69.431735
-194.266069
-257.215010
-66.720319
-354.672020
-73.004875
-48.419138
4.080530
-70.044277
-83.740731
-59.452721
-24.199011
-52.947810
-45.744330
-42.634029
-35.199146
-44.336920
-212.483229
-35.851453
-55.069381
-16.845357
-57.795628
-80.395599
-175.032445
-194.499101
-480.945063
-18.716580
-75.623953
-20.318622
-62.586678
45.693611
-106.457537
33.672738
-67.115458
-13.300530
-46.397428
-84.425062
-55.436436
15.771045
-24.890453
-32.946712
17.686285
52.554286
-81.780108
-49.769526
-19.542095
-43.122973
-65.731892
-26.828148
-73.624461
31.278574
-54.224845
-261.022366
17.609021
-22.267595
15.451604
-27.934223
-53.281727
-26.438898
-199.905178
-362.159457
-18.780828
13.633681
-45.873128
-86.807565
-92.186077
2.183318
-92.463620
-157.703430
-27.314408
-24.093979
-26.521753
-18.119201
-34.533150
-30.838379
-18.485787
-21.556244
73.403985
-24.032926
48.402315
8.627670
53.254521
3.698896
-42.212099
-85.600092
-20.084922
19.986029
-29.579788
19.781853
-289.997496
8.358203
-24.037143
-35.360787
-81.747199
-45.891352
-30.765961
-25.963352
-21.576620
19.698707
61.311184
30.273748
-99.747943
4.645615
-26.751986
-32.447461
3.945882
11.780792
-14.538313
-56.798374
-136.413562
-23.728639
-22.798718
4.379511
-10.353800
-12.046908
-10.702982
-8.859206
-7.332511
-25.914183
-31.750185
12.231863
-22.552869
-19.492931
8.720961
-20.588666
-25.376013
-30.269961
-18.058717
-3.063850
-7.210078
41.703154
-18.766995
1.892131
3.605762
14.126801
-100.168269
-420.146493
-350.997800
-42.559399
-29.148070
-24.987139
12.135666
6.594158
-14.096595
-30.908416
-24.597516
-41.301066
21.063652
-1.568328
-17.044602
56.069021
-33.371705
-6.518392
-26.833309
-19.930203
69.260471
-9.103720
19.568471
-28.545187
18.934461
1.158769
-184.873048
-9.005775
-25.525433
-27.525329
-30.969291
-39.851185
-47.191912
18.571988
17.430019
15.435085
-23.533952
-57.615437
-8.543880
7.691820
-22.901769
-5.679191
-9.815040
53.281896
-174.717077
-24.843601
-29.337501
-8.217746
-405.436602
-34.107320
-26.341422
3.057428
20.533112
-37.947072
17.800023
-38.737908
-397.338215
-24.207698
17.061352
-20.018316
-6.039481
-23.526677
-107.668173
-305.018640
-26.710499
50.007727
-31.334515
-9.547449
-10.702908
-9.810260
-9.972720
-8.209496
-6.045301
-34.270732
-27.875456
-20.570022
-20.158941
-280.294235
-37.699096
-21.503055
10.091704
-36.969134
-28.055987
-49.306559
-78.048471
-33.932340
-56.781036
-92.942444
22.261987
-28.346166
-81.391966
-98.659875
-19.294354
-25.992765
-30.315178
-28.645308
17.588586
15.629411
-30.916992
-44.321620
35.770229
-70.339986
-48.558359
-88.783125
-96.170063
-83.172643
-23.169608
57.748606
-7.262745
-37.991181
-36.371076
-33.231578
20.126505
-10.191349
11.163911
67.430537
-80.173538
12.331664
-6.424342
-70.953469
-97.891571
-70.032671
-147.062386
9.675957
-34.875086
-49.503842
-309.889241
3.798007
29.503750
-80.163109
19.991097
49.837569
-1.029082
-301.207059
18.120223
-91.095370
-62.848580
54.410627
-5.884930
14.703094
-3.554884
-51.310020
35.564961
-84.341842
14.465292
-21.826487
-45.131612
5.055169
-23.792920
39.470308
-5.782015
-32.655592
-40.869090
-402.915718
13.993864
65.732705
-74.542564
-32.625917
-96.763721
-10.019422
-31.570869
-9.603601
-28.736651
-97.886654
3.635351
-53.252745
-11.602285
-29.735229
-21.796781
-1.075196
50.245989
-27.504941
-18.001431
-33.106295
-85.326201
-58.729795
16.158159
1.624843
-148.715687
-85.549246
-38.354334
-44.491713
-62.903978
-38.703599
-75.823198
51.348609
-88.231487
51.440813
-109.645106
-4.892615
-166.240984
-32.941001
-23.657707
-23.408663
38.765205
9.083505
-20.425374
-169.082857
-207.364448
-59.802970
-23.385824
63.242614
65.091560
44.120237
-30.334341
19.257906
-101.066384
-8.995812
-94.444791
-363.849502
-43.341347
13.881584
4.910057
-36.971528
-81.013665
16.562686
-167.995352
-25.300644
-80.499268
-155.738093
-393.521100
-21.820328
-52.553609
-21.288215
-36.067893
-48.975154
-46.671526
23.894602
-102.864659
18.279517
-25.947733
-3.260877
11.181846
39.153365
-0.646185
-242.694215
-52.931778
-179.274860
-389.587850
69.858504
53.461842
-177.722243
64.695576
11.104401
-51.068972
-45.197739
29.037223
-51.086914
-168.320985
-78.878958
-100.596234
51.875648
-62.014828
-289.751569
44.545448
-301.568119
32.476529
-13.051348
-335.110415
-36.615577
22.624762
-47.934025
-158.875245
-207.423412
-27.298953
-100.814369
-84.085344
-68.266796
-74.835416
-221.098407
-25.571905
-139.889370
-19.431260
-140.113978
-259.736571
-144.304968
-103.332318
-117.381169
-65.543339
29.021856
-83.458923
46.306200
-1.831041
-323.997239
48.077774
-41.221604
-359.777415
36.887443
-130.110832
-163.024998
-43.079154
-197.943689
-189.825627
-365.198834
-4.772491
54.255901
-111.142003
-154.273898
-10.975981
-415.839938
33.733989
-394.941687
-24.266211
-377.633619
-16.684304
-359.659204
-148.765988
-17.805986
50.289455
-176.227564
-72.154292
19.704663
16.143461
-366.983969
50.782970
-98.860864
-0.794354
60.001589
-401.710453
53.184487
-119.956533
-38.547951
-160.400282
-243.322971
-144.709338
13.838985
-183.067333
-42.746894
-39.092410
-3.188822
44.334201
44.169190
-21.337484
-103.512801
-29.910584
-174.734583
-87.554120
10.679249
-101.771951
-271.520310
-394.010040
-55.531217
-51.882131
-143.596529
-8.289645
-282.648358
16.633054
16.496652
-240.391450
6.048199
-298.050903
-100.058796
-55.782708
-178.499083
-62.438372
-9.759091
33.924827
-60.813819
-184.236465
-237.764616
-186.945874
-105.956237
-225.562845
-369.042389
-306.315420
-165.602384
-378.821247
-424.740953
-15.624283
10.548469
61.249790
-10.747067
-252.286777
-51.183274
-51.366699
-196.067302
-201.029442
30.819713
-375.536922
-312.371041
-30.919014
-205.821830
8.782945
-191.081358
-34.844726
-178.046216
-405.333265
23.478404
-136.549816
-69.278611
-176.267701
-70.757636
-103.615110
-22.178312
-321.042979
87.853353
-63.548630
-393.981603
-192.407950
-185.117330
-396.467545
-303.138065
-242.960369
34.517863
-362.143907
6.040847
-125.690406
-72.275148
-353.469333
12.271753
-28.359821
66.901671
-368.349395
-123.930645
-2.209804
-18.792204
23.955129
-102.946677
-173.059384
-170.218057
-125.371301
-26.611171
-204.721812
-233.520950
40.856399
-129.657911
21.265490
-159.311965
-393.244795
-173.673361
-401.602017
-22.611994
-59.504453
-108.500929
-80.212055
-106.239189
-391.482037
-40.233870
-95.852101
50.659880
-45.785675
92.559423
-100.965803
-395.961803
-245.990096
50.935275
-91.890468
-162.474137
-116.554891
-65.317736
-39.872465
-55.571545
-306.739866
85.751140
-99.922474
-394.657850
-443.079625
29.985121
-661.001452
-101.581143
-24.211459
-23.325256
-68.602902
-493.286705
30.030187
-237.429041
-436.716739
-255.468491
8.311467
-23.129562
-23.358402
-63.495630
-37.518505
-260.972594
-356.187010
-88.535183
-197.955892
-12.833896
4.371739
87.377449
-265.697421
57.618735
-322.809624
27.112453
-38.467598
-330.761498
54.222029
-253.824370
30.284060
68.211959
-177.026505
-211.249349
16.902114
-175.207301
-348.895444
56.916371
-138.758653
-11.722103
-78.631954
-330.577541
-404.550755
-22.687086
33.903779
-54.064806
61.514350
-367.606714
73.136611
-430.077738
-18.556675
41.140408
-108.517534
-81.130036
-127.051024
-96.199419
-57.181187
38.175000
-252.662286
-195.440874
-72.879429
-62.145134
43.393867
28.136695
2.584702
-7.219019
65.606688
-92.003362
-381.432271
-38.698831
-134.741036
-163.457506
-132.888668
-524.169069
58.452069
-16.576130
-366.810216
30.995573
-171.041047
-404.548544
-22.501133
51.767545
-389.992972
-317.238654
-306.466148
-375.622224
-171.585950
-62.341359
-404.174291
-12.155262
-57.809129
-46.538980
-226.218887
-66.193880
-32.498525
-116.626304
87.855119
-393.713361
33.820500
-28.831544
-13.947332
-358.069876
-115.626839
-99.051602
-7.860411
-278.648636
-273.273836
-168.842926
-139.243468
-77.596621
48.781377
-274.023760
-88.157170
34.900556
-307.581909
-278.312281
-66.453015
-102.262784
-98.153576
66.648170
-387.409950
72.863964
88.828707
-18.002519
41.833057
-16.912275
-23.166392
-361.376554
-152.250139
7.273792
-40.723346
-75.888532
-213.688548
-82.084003
-399.819305
-195.984978
-254.422512
-162.507679
-328.403153
-383.518638
-97.612331
38.105219
-244.210143
-201.416115
-104.955987
-12.945405
-323.045237
-222.307620
-293.757027
-147.309174
-756.382649
-42.247402
-129.368148
-249.227729
-141.252464
-217.239504
-382.248927
-123.123435
14.633426
-64.449012
-39.023460
-118.706299
-501.064875
-125.061757
51.479230
-67.641556
-269.752463
-236.308450
-120.128119
57.039265
-52.749075
-95.512729
-353.220687
-288.027864
-480.736863
-16.131536
-256.307492
-403.049230
-332.575024
-160.805736
-300.685165
-382.279566
-71.374014
-60.942279
-225.372116
-403.054073
-122.600987
-386.417649
-370.656384
-167.239199
-30.631434
-331.807715
-103.963662
-147.149292
-170.361019
15.273194
-63.753878
-235.032796
-300.030423
13.041220
-27.552700
39.421291
-37.931273
9.342729
-256.914911
-147.289865
-35.984484
-268.911596
15.192206
-36.440682
-407.477493
-11.032284
-239.514517
-89.136990
-4.597290
-397.152380
5.775319
-123.342777
12.286584
7.137970
-391.716599
-478.261881
-8.173004
-79.787556
-207.850437
77.999419
-263.820661
11.268201
-381.694669
-375.522573
-73.903985
-85.551926
-215.298315
-50.260126
79.270360
-340.047885
-15.965778
-113.338227
-296.679932
-716.183289
-141.843284
-373.697428
-17.757299
-144.482595
-335.489522
-249.427165
-378.319670
-293.157953
-112.690995
-252.139730
-77.380558
-489.630989
-28.692041
-65.751034
-138.107359
-323.444243
-182.562548
16.575916
18.954656
10.547936
-201.171126
-24.734076
-262.533534
-82.302678
-93.393471
-58.360635
-162.520347
-110.910209
57.329570
49.245268
-404.853273
-248.716697
-377.172325
-288.011077
-246.114893
20.921492
-315.576147
-487.012023
-307.114054
-38.225096
67.639593
-575.661903
-86.055385
-404.282684
-65.651023
-361.748507
-386.492359
-63.738567
-333.654709
-395.247124
17.090642
76.927279
-328.262861
36.217782
-115.745314
-169.953281
-338.811955
-98.341993
-341.049733
-305.338136
-343.599756
-626.551791
-343.712276
-99.238104
-734.861161
74.004939
-151.231093
-373.350604
-106.191418
-348.731501
-301.460968
-125.069444
-392.137097
-340.522840
64.509590
-314.052937
7.459102
-115.535899
-89.932907
-713.960595
-97.361661
5.567801
-154.883720
-116.255714
-40.271657
-406.843585
-387.285773
-39.349770
-254.908762
-74.499380
-251.156443
-96.106884
-203.294470
-657.737943
-226.293147
-42.631367
-545.778005
15.710998
-129.012330
-264.068874
-396.441788
-832.294589
-597.743555
-144.483087
-275.314783
-394.368039
2.192465
-259.931618
-372.175507
-360.513866
-164.547341
-406.375494
17.761583
13.087567
-191.892112
-150.828242
-67.336336
-310.016050
-313.150238
-286.870177
42.239866
-276.323024
-161.589444
-186.180681
-372.563527
-201.158470
-238.074385
-267.869296
-14.097692
-368.825763
-399.277203
-368.816787
-385.539341
-278.525098
83.834686
-75.531424
-121.696914
-345.742849
-480.566895
-69.044007
-152.412076
-320.093710
96.211578
10.692315
-206.698111
-162.849815
-202.722763
21.775913
-354.048196
-79.633486
-309.742401
-75.216055
-516.401350
-380.555252
-16.890494
-44.307349
-489.386305
-301.232451
-135.153693
-121.388021
-311.810191
-136.384987
-387.007729
-335.983212
26.516025
-211.033812
-6.300802
-307.251530
-138.908129
-188.583368
56.013925
-127.287570
-170.007590
-332.117223
-5.368427
-146.178346
-207.437713
-6.224894
-140.044007
-165.708660
-310.197968
-420.390765
-247.773127
-62.581822
-22.795731
-200.709811
-195.813162
66.160751
-69.644225
-340.408537
-128.250727
-409.849931
-351.519339
-443.717867
-330.246727
-258.575086
-287.865545
-13.036465
-284.085771
-236.915962
-413.500570
-307.449135
-59.227111
-225.137555
-217.647892
-142.293920
82.772630
-181.031761
-479.398604
-390.563873
-30.861085
-373.811715
81.195400
-506.955147
-273.155410
-45.309674
-58.342881
-294.161754
-398.266345
-293.797446
-261.682531
-126.735441
-371.451075
9.700521
-355.861390
-421.579888
-236.552337
-257.307837
-403.753900
-239.449578
-81.754409
-68.604391
-469.424328
-245.966688
-375.598270
-12.586777
-201.054144
-230.329198
-177.458186
-80.463277
-161.608122
-344.254542
-325.193492
46.145960
-9.643045
-108.670068
-178.310510
-83.043846
-218.527706
-175.003625
-223.812799
-302.555200
-336.368200
-401.831889
-147.325342
-374.032961
-91.247795
-289.401935
-211.309036
-97.282266
-605.159878
-145.594547
-104.665341
-205.593038
-137.904114
11.044038
-58.213666
15.903734
-106.790608
-166.552066
-426.335135
-218.710613
-57.101492
-133.778357
-52.539513
-129.644151
-275.633715
-54.564630
-50.632047
-57.189695
-326.139151
-347.894330
-281.303982
-153.352088
-160.853098
-107.070977
-203.123814
-280.459872
-335.770488
-433.758780
-396.050301
-392.630460
-299.466600
-365.332018
-844.126102
-182.442351
61.190333
-356.039439
-453.173610
-493.413764
-46.046192
-333.592555
-130.201374
-240.129342
-65.031227
9.963018
-188.983204
-278.351412
9.820188
-62.641498
-209.843879
-4.136543
-280.664416
-20.267643
-208.746944
-91.334545
-369.834121
-108.402578
-359.011414
-225.815336
-64.911835
-456.658544
-388.316659
-463.140049
-203.585461
-0.901640
-395.103834
-243.397135
-113.812423
65.170644
-371.550029
-206.446594
63.784719
-166.091659
-459.320827
-297.805852
-24.197106
-375.791289
-127.148475
-160.648977
-22.108744
7.889700
-204.828236
-48.838643
-108.018239
-69.883832
-84.732103
-97.366588
3.932398
-82.159147
-265.111347
-247.490769
-218.534624
-197.069620
97.842413
-93.590295
-241.028898
-96.301766
-198.413710
-343.002456
-251.584780
-146.282747
-129.004966
-459.622472
-385.966992
-375.472757
-28.394473
-3.777975
-119.358130
-148.277445
-81.585326
-79.061868
-284.040091
-394.642459
-130.041340
-442.436698
-349.949816
-488.077985
-521.070151
-228.566161
59.853136
-16.675460
-52.829570
-160.654320
-388.197197
-220.650236
-22.144244
-18.937189
-161.691512
-74.439579
-103.628061
-340.728579
-44.073710
-178.492318
-28.090258
-334.150112
-146.991595
-418.307255
-219.594988
-333.899169
-63.749609
-74.109299
-376.420410
-17.341193
-54.091725
-561.183453
-7.104844
-73.382035
-113.587300
-124.834136
-210.017213
-11.116478
-74.937212
-335.871914
-49.504906
-94.796297
-333.455552
-493.929227
-224.321527
-337.749090
-496.523062
-25.532016
-65.941501
84.056078
-121.697534
-357.643394
5.710447
-64.032825
-355.127535
-4.697337
7.388300
-217.055580
-523.927596
-169.624630
-96.058599
-103.398226
-56.978774
-491.030916
-257.710880
-197.651068
-378.629110
4.532878
-77.159960
-104.384921
-190.660935
-168.653241
-97.278052
-149.235191
-318.543157
-407.622385
-168.106698
-17.800863
-231.038588
-281.742131
-362.753619
-286.553518
-242.392097
-314.224514
87.988967
-462.018878
-61.896799
-101.819984
-390.975201
-395.856809
-11.807493
75.327821
-405.526748
-9.089893
-167.033746
-119.199087
-191.199838
-17.950274
7.457148
-100.323891
-1.133145
78.570323
-108.811920
-170.177177
-492.585893
-398.930944
-169.245161
-388.680429
-324.473150
-396.463191
-71.165680
40.202380
-269.435032
-431.719799
-55.841270
-159.992672
-13.686860
-99.474719
-369.306838
-387.368035
-359.067881
-49.216823
-89.103025
-225.169269
-168.862816
4.859264
-529.540309
-42.486156
52.761503
-137.368301
-13.885215
11.940394
-444.445720
-402.762485
-89.081884
89.267062
-229.909914
-382.922994
-229.538735
-21.415944
-180.554937
-294.517411
-71.748256
-164.145491
-217.484061
-13.745344
-64.510615
-513.594062
-249.137585
-546.662915
-387.790883
-12.342605
-163.016067
-170.207491
-99.994277
-512.269534
-365.449221
-319.853193
-92.887177
-505.144970
-20.166433
-2.767909
-307.907419
-289.522401
-354.285041
-118.445169
-352.494802
90.835986
-442.394265
-0.688461
-60.660365
-196.432720
-376.203628
-312.691492
-51.594422
-7.355504
-413.557552
25.661288
-124.521655
-152.971624
-221.047526
-25.938366
-102.646307
-312.867563
-162.973339
-75.289206
-106.643017
-348.471281
-320.831763
-188.238670
-314.733332
-287.443718
-319.061271
-381.798105
-407.880235
-302.205884
-195.738933
-50.521255
-386.365216
-215.981693
-141.697617
-346.027822
-232.326058
-44.909099
-219.322042
-40.639004
-330.778995
-216.528138
10.302661
-428.690228
-253.574089
-380.305845
-353.258577
-37.317700
-522.761577
-493.754806
-340.684561
-386.994332
-353.906562
-292.800959
-60.137455
-112.761380
-30.949295
8.466533
-47.674447
-8.853651
-395.219863
-4.796028
-270.166047
-6.072905
14.660520
-475.345702
-335.691038
-272.963021
-7.668298
-332.321547
-240.517173
-98.639093
15.227946
-55.771299
-173.561652
-65.969212
-351.309444
-642.571181
-73.459092
-53.614854
-316.479964
-58.377910
-19.571983
-214.107578
-19.652693
-652.082517
-199.598937
-676.010276
-330.075839
-20.789777
-97.872941
-201.187277
-51.104624
-126.659950
-385.826543
-383.698166
-243.294536
-210.222480
-160.877807
-224.074822
-260.345847
-101.936922
-126.035241
-231.760323
13.825671
-31.032153
-381.719391
-273.136220
-299.858432
-302.800096
-67.021471
-160.400312
-327.179608
-387.844952
2.670534
-410.851783
-348.677573
-492.162847
-431.444212
-186.312490
-197.345288
-289.814537
-340.083917
-420.313422
-139.204981
-604.097203
-259.774485
-160.473389
-161.211830
-319.389575
-421.847405
-403.065055
-573.786518
-390.656628
-398.382673
-419.070369
-499.839723
-437.241119
-357.025063
-99.001328
-326.620950
-113.393374
-36.574484
-141.493128
-183.468964
5.497739
-57.656900
-381.888566
23.412431
32.766430
-10.977992
-173.371180
-390.356736
-270.520737
-197.447314
-42.862272
-187.588508
-307.209699
-60.976450
-433.618628
-167.822247
-357.110611
-51.560161
-16.897348
-382.241208
-383.320103
-54.451384
-19.962994
-347.099481
-699.455801
-80.158060
-58.203447
-366.542124
-28.989341
-119.094709
-48.064409
-69.493347
-483.074196
-324.882016
-174.662640
-363.746402
-217.525721
-183.561533
-611.496027
-310.922451
-792.060275
-236.990185
-201.770606
-112.416109
-30.759387
-262.485476
-221.271331
-212.745767
-72.440939
-347.549936
-153.059563
-68.824515
-20.122557
-25.766708
-405.976289
-247.291991
-354.323575
-246.741046
-280.249505
2.754102
-341.316641
-402.085161
-105.423999
-235.053025
-426.026538
-293.871875
-29.630184
-541.121158
-6.608084
-28.247761
-399.070821
-211.009487
-151.580048
-60.433529
-130.109496
-15.751220
-371.929210
-337.055585
-106.817281
-105.389971
23.623161
-387.383604
-9.713431
-264.598938
-48.598670
-31.369658
-224.722269
31.315932
-333.163343
-16.097815
-556.972171
-19.342602
-104.799770
-278.201045
-170.913348
-390.932709
-230.584898
-80.669966
-219.186906
-341.623827
-192.693222
-148.648583
-316.423905
-244.142766
-49.636689
-270.368190
-533.177803
-161.985036
-293.137713
-239.209725
-232.263580
-392.233996
-16.806487
-230.120880
-29.477453
-376.073898
-270.654021
58.352333
-271.250695
-269.646150
15.941404
-105.603428
-23.044130
-317.253755
-149.905854
-1.983846
-157.215706
-121.229505
-165.888447
-361.783627
-2.252224
2.437782
-169.659379
-21.966982
-197.352216
-106.863502
-300.923438
-154.081133
-393.278959
-44.216345
-99.073203
-212.006984
-33.411274
-486.791786
-82.431673
-251.829951
-278.275979
-731.598310
-453.731180
-156.804195
-14.995226
-54.803643
-304.517154
-290.390112
-141.285923
-133.510844
-222.579228
-114.189311
-452.602236
-181.714258
-405.784776
-343.628706
-147.875130
-327.472846
-347.030494
-10.623901
-162.423024
-70.320680
-385.381945
-318.916583
-378.495987
-305.455456
-341.336843
-322.527849
-386.818885
-462.048602
-269.080732
-31.216082
-310.255439
4.686292
-195.260044
9.195182
-41.496444
-9.776983
-33.336780
-357.335472
-303.455768
-146.262473
-158.597299
-318.246907
-196.545301
-211.692023
-97.019373
-282.636746
-276.327581
-147.192886
-455.052550
-116.585687
-321.735828
-123.090010
-87.588900
-0.653003
6.926876
-383.475180
-633.577034
-107.618999
-306.489232
-169.825223
-127.783538
-403.772636
-78.842240
-78.799362
-247.890196
-108.001274
-377.633976
-398.233834
-183.987656
-151.954733
-185.970379
-60.395291
14.578908
-44.535859
-9.025173
-218.295861
-396.463880
-13.532847
-78.469202
-265.752788
-400.583993
-469.873996
-358.140117
-29.867095
-315.952851
-293.047745
-299.766783
-165.300616
-129.571839
-327.688139
-222.093557
-210.317788
-366.209167
-21.138116
-311.009027
-42.117707
-42.506982
-286.419995
-25.402849
-68.978842
-62.786469
-392.818545
-257.356583
-392.781110
-210.432260
-161.564962
-174.403923
-403.381220
-217.923329
-494.274528
-212.404549
-392.047332
-302.685992
-594.548821
-370.493924
-312.064861
-432.926592
-254.440015
-320.778574
-666.651492
-234.359429
-226.111151
-336.630953
-372.841981
-212.444204
-387.979279
-122.606369
-70.647481
-36.891682
-89.130697
55.878205
-108.224086
-25.677343
-338.782379
-384.431346
-145.867081
-184.585518
-240.558023
-120.933234
-371.884817
-315.498621
2.102477
-227.026701
-112.012119
-319.343792
-276.188024
-379.951498
-287.635448
-151.597293
-114.695267
-133.924974
-220.114325
-25.402746
-129.299754
-372.531333
-246.492276
-390.721341
-72.248906
-715.445214
-364.904068
-84.774526
-331.020467
-262.368875
-2.122506
9.060391
-391.250869
-41.017612
-381.678692
-92.425560
-151.279466
-313.083750
-367.971141
-267.347603
45.257131
-29.552214
-31.258853
-312.505623
-5.578511
-34.877658
-331.104871
-250.191643
-269.152537
-405.569518
-399.954025
-1.648759
-259.870535
-41.410065
-257.733418
-230.170466
-674.777959
-94.428631
-342.781365
-125.726273
1.486254
-387.902684
-233.385318
-38.269311
74.134329
-352.108795
-353.546594
-117.923067
-183.084719
-62.216910
-89.919523
-417.636751
-269.266489
-388.729430
-123.904053
-499.204658
-13.246194
-760.299555
-570.650150
-95.650671
-125.707753
-299.514519
-49.811039
-21.891485
-241.582564
-351.998290
-11.573699
-390.426441
-349.184913
-91.038108
-212.811658
3.437912
-302.880811
-132.350848
-62.581784
-154.742376
-32.694172
-310.573693
-217.949364
-132.630650
-349.436275
-298.181359
-285.079791
-314.105026
-246.078467
-359.333914
-188.235677
-375.102174
-135.835352
-49.503407
-345.229428
-402.280297
-96.126293
-65.497781
-385.423551
-16.499204
-389.745009
-61.265947
-248.062786
-223.928123
-109.262397
-79.200540
-359.882816
-139.262705
-328.794043
-630.915253
-50.414647
-135.468626
-348.006642
-406.380382
-181.384982
-173.889693
-109.673731
-218.532217
-106.407955
-7.294956
-269.206562
-57.870491
-48.283121
77.260254
-370.435857
-359.527644
-168.535092
-368.005652
-319.854200
-73.642985
-180.658900
-389.466814
-135.351321
-193.838792
-7.868708
-222.870034
-389.291090
-208.455565
-38.484021
-206.325539
-299.763312
-233.263941
-293.673910
-398.904623
-341.781823
-333.870415
-471.180602
-437.143894
-115.469081
-294.244918
-383.340003
-242.280486
-475.022699
-52.957525
-112.393615
-393.721266
-40.549698
-293.257328
-41.718504
90.424196
82.497989
-201.823691
-373.778415
-424.246807
-121.521008
-181.374560
-247.656033
-246.584735
55.636817
-396.666552
-369.450221
-36.922290
-388.231994
-104.092166
-162.152170
-110.957809
-44.697341
3.867598
69.710191
-237.220867
-102.275364
-312.230743
-383.689499
-72.738881
-118.105682
-91.649447
-231.985487
20.473922
-386.368759
-267.514824
-173.988024
-162.617233
-371.142156
-140.801794
7.168595
24.734504
-220.702823
-371.550344
-300.627381
-92.506046
-124.472287
17.228291
-339.481887
-169.976207
-39.821972
-221.217897
-342.673708
-10.167790
-2.939214
-318.099356
-316.393097
-824.681385
-331.961913
-117.081691
-216.455380
-180.608829
-293.670405
-373.842938
-228.640374
-234.234385
-391.864009
9.017903
-350.697135
-274.117685
-403.510034
-109.740303
-235.873218
-41.437905
-23.861908
-144.907803
-578.353623
-273.533501
-181.400873
-224.420223
-165.758211
-388.619403
-396.514573
-167.738267
-356.379060
-93.799325
-499.066052
-308.394061
-31.050392
-283.254708
-26.782520
16.993398
-129.432554
-196.333647
25.861176
-68.211991
8.389508
-175.098420
-15.126284
-573.402981
-351.452695
38.469151
-364.917049
-79.693330
-192.250001
-362.412517
-347.493719
-260.285754
-330.392231
-353.368731
-157.425390
-124.036473
-405.517520
-151.630259
-380.685070
-361.756976
-330.561674
-403.238221
-147.314328
-376.301099
-67.790547
-31.596656
-308.643315
-186.016330
-54.676040
-95.163505
-407.554733
-62.607987
-199.040789
-281.310455
-182.385897
-31.425526
-87.542321
-20.683103
-214.252943
-223.679103
-327.712330
-407.109228
-195.011992
-329.405556
-118.772630
-359.975620
-776.128517
-323.258875
-60.968824
-17.675228
-288.740162
-298.874976
-355.651054
-21.694058
-195.565299
-311.109580
-517.557578
-433.984115
-360.948196
-311.582328
-377.042644
-24.087505
-35.829362
36.249470
-374.391548
-333.867294
-19.248639
-365.347567
-189.934288
-42.553109
-241.670991
-232.977780
-386.110023
-398.329096
-46.180435
-263.540357
-30.230757
-249.094243
-25.762489
41.660013
-176.574510
-194.372748
-327.109260
-767.652700
-133.477095
-203.390675
-22.641822
-186.072119
-94.848813
-220.824306
-351.814963
-562.072390
-478.183994
-281.517682
-156.393647
-181.248325
-212.201469
-298.689331
-338.217615
-392.525657
-48.237648
-141.087875
-155.452629
-264.526569
-194.499859
-134.440860
-17.569177
-269.325403
-379.384248
-124.412119
12.649136
24.780077
-123.918331
-382.967320
-131.520900
-110.811891
-165.414460
-255.367560
-142.173887
-346.809512
-371.409875
-122.013464
-391.309313
-298.738643
-253.608614
-254.010018
-377.328240
-26.822828
-305.984667
-299.413493
-151.930858
-12.251223
-112.140212
-670.220334
-129.735273
-123.070672
-84.920848
-52.130296
-383.849551
-403.958122
-629.508235
-70.550426
-63.093319
27.672428
-287.224536
-389.155670
-1.622671
-124.816360
17.287208
-522.561445
-333.542799
-140.642160
-96.527768
-364.347747
-172.706312
-45.062464
-268.577490
-340.792201
-385.963155
-45.233777
-212.863040
-384.050086
-293.484022
-2.474564
-404.941474
-228.310534
-249.606733
-118.977366
-454.209903
-83.502934
-200.161823
-147.127659
-353.352225
-109.521046
-391.530005
-86.567329
-380.517128
-187.796541
-224.826706
3.241174
-369.729666
-392.965255
-331.065854
13.082683
-374.103484
-73.689428
-385.040101
-392.420537
-255.158617
-416.927183
-393.904192
-168.350322
-307.580758
-170.900958
-110.566439
-14.803017
-140.018111
-343.027107
-383.342519
-271.840213
-315.307361
-91.892203
-341.023992
-234.742546
-150.239889
-74.623906
-58.716337
-28.934527
-7.017429
12.684935
-237.882125
6.741086
-35.184287
-169.760426
-291.540302
19.274532
-199.459717
32.828016
-165.880315
-20.148260
-34.737466
-686.973891
-210.256119
-377.781912
-86.853886
-12.949742
-197.211091
-394.488322
-314.922159
5.456527
-395.771187
-394.553989
-111.922917
-395.530876
-78.828542
-108.253900
-434.435719
30.173363
-195.087614
-387.568677
-26.770273
-123.749396
-274.361246
-108.963403
-50.661977
-404.323664
-180.350995
4.248048
-294.489670
-68.894757
-397.058784
-340.724036
-84.002047
-286.544365
-352.167535
-409.295813
-17.944565
-104.888643
-329.063244
-749.960333
-146.698711
-55.701085
-82.965642
-12.162071
-282.465493
25.743098
-82.542401
-243.426440
-155.689021
-325.998980
-201.993517
-115.757115
-119.921674
-215.567767
-289.212701
-360.973365
-218.157366
-253.716642
-117.875210
-398.576317
-27.334130
-305.199019
-95.747321
-128.576747
-418.646844
-335.842392
-400.517942
-14.479992
-1.328527
34.926742
-78.341996
-422.948741
-237.011427
-394.077597
-134.717916
13.396714
5.283458
-130.050923
-378.644387
-405.674235
-109.994034
-152.626614
-150.662146
-107.194931
-358.842831
-817.175134
-94.636373
-229.529287
-386.430507
-319.154841
-363.408252
-401.772946
-36.963501
-128.261681
1.692783
-379.869119
-283.332814
-141.678891
-373.871489
-52.527889
-100.319626
-225.345347
-274.383401
-173.113084
-280.943744
-219.988979
-335.395106
-418.109848
-402.771746
-28.829670
-215.846574
-184.442239
-205.164674
-153.288487
-70.569925
-27.966529
-553.092986
-249.498650
-106.193478
-9.916824
-211.414845
-142.510937
-278.192569
-110.292389
18.323112
-155.875263
-116.417267
-383.232798
-292.171469
-192.876628
-488.787485
-174.942890
-384.313323
-439.348212
-32.777642
-445.444233
-367.451273
-389.002157
-341.326434
-376.074267
-147.051165
-398.183092
-371.072639
-398.382942
-707.069522
-17.229788
-731.857644
8.412439
-151.826809
-240.025982
-391.871002
-25.232006
18.095070
-391.896641
-396.303627
-584.527129
-380.975170
-390.561127
-9.850491
1.510719
-370.623833
-399.187115
-385.331341
-374.546951
-285.259296
-187.572882
-260.915147
-221.586255
-400.750513
-382.985369
-343.610271
73.960247
-451.276720
-131.428463
-340.923082
-36.879506
-249.290412
-98.413660
88.829939
-60.955525
-400.641616
-487.974827
-64.742656
-66.807966
-183.106676
-150.677427
-655.614032
-52.285844
-382.692043
-274.857087
-26.600382
-95.550752
-294.952574
-71.235814
-98.261159
-391.366821
-19.499542
-331.123966
-133.505235
-22.459599
-53.647683
-111.969593
-70.884735
-22.866242
-114.128573
-352.965147
-147.246045
-139.512118
-67.480674
-64.335838
-15.899206
-294.931382
-308.220682
-328.710946
-257.867864
-3.339162
-394.140371
-304.659183
-235.727589
-102.276581
-313.606990
-6.826005
-384.075262
-382.535784
-308.448260
-22.713521
6.890583
-177.169809
-145.598743
-316.647678
-3.955016
21.567101
-339.215970
-71.324196
-97.939157
-106.834386
-49.209541
-386.124198
-383.584194
-292.255535
-692.238519
8.650775
-137.694428
-342.336502
-54.551092
-268.496858
-402.289865
-127.041944
-196.931578
-371.739376
-336.891790
-400.271342
-58.603063
-545.199819
-277.401223
-60.834224
-99.986270
-254.014299
-388.351546
-358.025725
-369.616479
-276.992519
-251.773178
-376.135518
-364.016017
-372.646103
-233.942020
-129.972696
-110.633866
-378.397589
-372.043126
-70.736817
-401.225393
-335.990549
-457.132323
-274.423756
-388.918119
-194.964966
-204.364518
14.986494
-371.544712
-393.718975
-274.581526
-240.519134
-189.792220
-489.580127
-96.879951
-90.030609
-182.092684
-38.472032
-258.854964
-171.974203
-289.235387
-135.941910
-116.707460
-142.043353
-113.506907
-459.785789
-395.996318
-269.402537
-657.940859
-51.531200
-160.352652
-375.310582
-53.281509
-154.032404
-146.699996
-5.289713
-101.730113
-212.424910
-390.902819
-135.356222
-153.600227
-47.844471
-81.535462
-110.771462
-116.586709
-408.992092
-314.149717
-110.358468
-213.059004
-365.285641
-248.652040
-91.062261
-72.003287
-17.172417
-245.782878
-267.140380
-403.120722
-374.835606
-51.251617
-132.301728
-52.331433
-155.332286
-190.895712
32.790181
-405.093153
-395.295967
-120.837544
-27.753901
1.539840
-250.568628
-230.878115
-466.120377
-121.447246
-383.488308
-261.006674
-330.782495
-323.832995
-295.109284
-45.201021
-202.433517
-158.577251
-315.032668
-339.130056
-248.222100
-548.261446
-301.537320
-357.956195
-388.405586
-44.093499
-395.543478
-93.768465
-188.377289
1.695565
-380.989331
26.976690
-123.649589
-307.359325
-95.082880
-53.190120
-77.640197
-47.564806
-306.833953
-82.672890
-358.085022
-187.833734
-314.127211
-298.085494
-398.204396
-305.721178
-17.045253
-634.034961
-185.676486
-121.573959
-209.546216
-145.792451
-207.408606
-384.459688
-246.233556
-336.876795
-343.628113
-384.900452
-333.719740
-336.417871
-323.669275
-360.442423
-383.616617
-344.693058
-38.882564
-368.789607
2.224920
-443.118625
-40.347315
-229.430488
-472.433982
-6.830237
-46.539443
-52.523442
-191.224723
-406.960842
-246.302988
-379.053928
-116.607361
-331.675843
-115.337191
67.306410
79.303531
-598.433879
-116.208530
0.380019
-443.688829
22.501683
-246.705503
-77.668384
-121.427326
54.425711
-256.551356
-391.347790
-175.154170
-288.356758
-373.363265
-214.421673
48.128173
-61.696576
-187.625613
-52.184056
-146.931209
-401.372587
-67.479411
-376.973159
-36.862761
-73.435729
-262.376335
-435.871297
-80.327907
-156.377321
-299.696585
-625.987408
-144.449690
-235.931393
-283.645105
-148.735537
-366.410346
-51.756781
93.893060
-116.604687
-363.648733
-333.384323
-98.181455
-216.306637
-159.105469
-104.832203
-131.138952
-231.552692
-451.245105
-13.652094
84.994267
-206.156885
-570.584680
30.208964
-354.089339
75.231852
-406.541132
-202.695397
12.416564
-284.488455
-121.838487
-149.273397
-286.612645
-134.171429
-38.333338
1.786250
-152.605035
18.385767
-386.606891
-68.503460
-673.115948
-136.683981
-207.041510
12.050590
-409.292389
-107.558499
-392.547643
-409.578162
-207.041843
-274.996748
-87.323150
-368.266830
-37.394994
-250.014056
-66.394339
-317.703608
-386.822038
-236.118027
-340.230311
-78.593126
-484.506964
-278.291090
-101.355946
-449.264873
-492.135078
-318.030601
-271.715217
-296.913944
-60.417481
21.588836
-118.845516
-384.516007
-75.127698
-67.959456
-24.997655
-349.361875
-257.687425
-408.525510
-120.383471
-12.098024
-79.388841
3.013113
-398.899419
-40.523489
-358.499212
-270.570221
-59.034401
-367.991243
-206.273125
-33.173957
-344.740508
-127.816422
-69.919820
-95.945225
-109.981685
-338.388705
-221.775679
-98.089576
-397.640218
-346.742541
-314.209339
-193.052443
-67.444036
-75.701327
-196.782414
-12.664876
-627.319897
-391.310325
-423.718063
-184.485038
-363.248862
-381.682252
-190.182216
-177.300671
-52.377762
-201.306086
-92.476746
-90.353759
-132.431293
-394.373792
-636.856707
-348.729090
-443.535987
-60.800827
-539.627666
-45.911830
-374.833305
-447.980908
-107.524764
-101.053342
-225.696806
-656.921365
-249.947625
-351.417891
-569.564452
-327.781584
-262.195059
-229.701351
-407.207487
-48.546269
-691.507522
-2.175165
-9.961756
-232.461761
-103.282470
-36.559926
-194.431382
-182.363299
-364.217497
-124.055672
-384.657211
-196.289446
-585.280609
-183.829066
-93.193657
4.084686
-69.787309
-215.984627
-711.382374
-191.403495
-162.361865
-241.035047
-122.975388
-94.223628
-63.975092
-102.711050
1.616330
-313.134189
-279.580276
-257.663292
-450.007555
-156.597682
-335.020523
-320.343158
-192.225805
-104.145304
-364.237071
-208.816017
-439.903078
-168.539649
-615.852901
-241.949036
-247.820701
-298.231363
-87.291005
-132.845785
-162.080036
-202.148922
-359.716639
-139.057002
4.990569
-376.293294
-211.462995
-381.520147
-150.580091
-103.467726
-377.106073
-158.531108
-235.855135
7.933634
-228.066809
-396.907976
-242.628872
-331.181545
-2.876670
-228.241099
-373.400614
-68.531297
-212.105032
-235.101270
-75.705303
-159.730130
-373.320951
-172.175800
-158.658711
-122.757255
-17.076068
-43.120229
-214.270593
-386.672270
-544.530342
-383.909679
-34.886864
8.142234
-32.798008
11.213825
-7.541769
-157.379591
-37.306015
-386.798017
-163.993583
-396.773357
-122.352103
-88.032801
-521.298163
-183.896943
-197.487422
18.245387
-223.985512
-117.633212
-278.320916
-222.952477
-111.821401
-30.797262
-376.310718
-435.545127
-159.085890
-128.830662
-149.903712
-596.631829
-264.638798
-607.347869
-194.954121
-583.297388
-465.918895
-533.654921
-379.033410
-657.556394
-427.870892
-95.669173
-407.598992
-387.373848
-339.001132
-284.235399
-188.106991
-200.531917
-308.974955
-40.752434
-180.759085
-370.265842
-58.960358
-228.806481
-482.905152
-53.905331
-325.990016
-290.342569
-167.433548
-147.204496
-217.531377
-56.545282
-104.561493
-82.708198
-295.186582
-90.327271
-238.756721
-378.228976
-395.628415
-378.814858
-67.675009
-61.417846
-370.462486
-576.630034
-539.693471
-398.939481
-381.838450
46.240777
-2.069256
-253.316179
-282.408702
-226.242732
-209.828029
-57.076050
-350.663066
-322.227450
-56.980223
-394.263839
-338.583047
-159.763954
-215.099554
-442.124371
-146.593826
-219.069507
-511.617398
-382.466441
-367.703415
-323.728203
-139.095725
-423.156272
-310.704932
-356.341146
-78.665421
-544.079177
-95.418726
-79.198982
-113.603316
-104.399330
-157.744819
-60.303112
4.404412
-208.814277
-231.969100
-314.891335
-235.539626
-229.856648
-53.268582
-193.363069
-125.697709
-7.151393
10.157218
-247.081500
-345.256237
-425.149773
-379.296678
-581.113482
-276.185234
-223.657372
-153.582397
-221.647174
-166.015986
-2.210305
-383.959406
-352.857670
23.377412
-199.306979
-7.194994
-88.984575
-406.152217
-282.452854
-331.906984
-98.770093
-298.177225
-265.510414
-106.350181
-277.817917
-235.274825
-132.542779
-510.040439
-353.800353
-45.175303
-282.507788
-357.727721
-222.135465
-751.407633
-263.128803
-498.775025
-344.985711
-244.973801
-384.023851
-345.309057
-8.987787
-75.393053
-180.843942
-461.220016
-227.910108
-229.863162
-294.158275
-216.407492
-254.424479
-380.265885
-279.948105
-402.908875
-0.670566
-369.350965
-137.365567
-340.994499
-69.770934
-186.775069
-385.426389
-299.289491
-394.963596
-50.732384
-365.625231
-211.057271
-347.065684
-83.911622
-440.075320
-197.045683
-10.333684
-203.629502
-614.268363
-63.562085
-208.274232
-467.807423
-32.049084
-395.243022
-355.818698
-372.197920
-95.376780
-298.030995
-30.034063
-118.286506
-226.797304
-388.020008
-258.397877
-691.809409
-17.547611
-453.113458
23.260563
-175.582363
-282.457255
-140.960238
-437.016899
-160.265934
-227.993054
-476.551969
-683.308137
-205.911716
-130.352859
-278.621029
-451.429420
-24.889390
-235.192860
-494.078181
-151.896847
-239.797077
-327.771239
-133.497312
-350.419194
-236.835459
-75.176217
-417.168103
-8.229535
-140.440727
-336.732371
-61.595185
-567.772921
-445.978092
-102.448696
-334.768704
-191.348978
-141.819550
-201.889464
-206.182937
-175.733440
-497.738604
-125.265049
-311.343875
-349.153842
-38.794529
-576.660911
-306.711912
-320.908118
-92.495240
-123.064242
-18.237154
-9.958108
-155.529855
-277.476706
-547.611593
-388.496321
-61.255385
-343.472579
-169.015289
-290.810533
-458.027495
-350.988823
-434.862628
-268.209219
-362.134007
-399.589394
-453.631579
-389.982071
-43.184681
27.819717
-36.376876
-71.300649
-348.352325
-189.012866
-267.156214
-320.789793
-470.018398
-177.285643
-619.727395
-238.953009
-159.445049
-386.202136
-359.457562
-618.380159
-159.698619
-138.218930
-254.118456
-245.676446
-190.662457
-376.847059
31.367962
-571.494983
-368.163424
-5.317870
-393.537274
-134.300274
-407.965196
-177.518742
-45.439223
-94.942215
-549.538281
-277.636480
-454.414615
-178.651959
-400.650293
-231.651324
-30.940760
-305.473373
-2.963108
-60.635804
-350.625583
-395.667000
-591.123047
-173.621744
-135.502667
-72.505111
-150.823177
-73.231455
-384.067587
-434.139888
19.201099
-347.126947
-217.293986
-388.463635
-399.194156
-328.584660
-361.131873
-130.496090
-368.667989
-394.830399
-73.941576
-236.647490
-306.281276
-236.067574
-557.099880
-230.512437
1.040078
-167.731869
-230.460630
-349.463275
-472.032243
-335.284872
-41.333247
-270.869775
-292.369307
-433.523779
-287.693736
-368.848222
-372.001091
-353.741036
-199.664522
-246.138747
-353.542013
-237.261947
-502.512201
-132.847772
-68.785909
30.731344
-347.477105
-385.756229
-407.932223
-351.078152
3.273302
-257.249959
-129.745717
-331.397480
-250.786952
-708.310848
-267.929045
-303.631628
-393.146569
-148.824226
19.073648
-155.217242
-124.851281
-121.025493
-399.017166
-145.789201
-62.441245
-216.852959
-553.842826
-263.005566
-68.038113
-117.982695
-100.040828
-565.554512
-273.243452
-47.743783
16.418246
-380.387798
-236.237798
-365.344011
-359.532508
-83.857224
-232.477888
-177.467056
-61.595192
-91.793344
17.406169
-369.957941
-639.324970
-103.939645
-376.337914
-307.016037
-204.661570
-391.978696
-317.429394
-258.763761
-706.263497
-539.614874
-620.814431
-266.549604
-264.411850
-112.885918
-66.932996
-125.631884
-3.587160
31.621424
-294.151838
-235.699286
-14.785290
-380.810040
-105.217077
-462.473075
-225.424985
-252.305680
-342.422576
-310.634361
-583.043649
-252.006885
-13.014002
44.813109
-225.479187
-398.636944
-153.536687
-381.953289
-224.236308
-351.483475
-380.145157
-329.258091
-325.429826
15.601331
21.850132
-25.950506
-298.531940
-229.480885
-149.661895
-397.830561
-498.193545
-629.830909
-407.927071
-234.426240
-419.168135
-139.140732
-320.187027
-212.790956
-80.015036
-298.669749
-293.803004
-146.277381
-278.411221
-215.509770
-194.025416
-586.722972
-153.205289
-228.758574
-488.771879
-299.035946
-52.497394
-166.386156
-59.732557
-171.864164
-313.362205
-308.644721
-370.805711
-85.003012
-183.110278
-33.209785
-128.038406
-61.225432
-232.060953
-60.615017
-250.725067
-87.288349
13.690991
-135.465156
9.648707
-253.668113
-252.945480
-417.294467
-282.242717
-339.706904
-202.442684
-60.558650
-210.985684
-767.430856
-143.204903
-204.177021
-195.914644
-329.673073
-321.154223
-46.691551
-349.197399
-126.931353
-385.753372
-583.862446
-631.256423
-219.601625
-213.927691
-173.160858
-605.618958
-528.798359
-281.347652
-7.651877
-224.333649
-432.210967
-39.505409
-226.887463
-343.416611
-559.099514
-64.872154
-653.232298
-399.788716
-129.575845
-390.393097
14.995720
-103.984936
-393.775851
-228.173969
-144.173764
-525.242711
-205.247908
17.335365
-440.395681
-240.240615
-389.737837
-53.378643
-388.776768
-308.638465
-68.135717
80.883391
-39.206479
-24.276252
85.911777
-76.912213
-328.050259
-636.518140
-369.611187
-147.292900
-100.635190
-342.961651
-283.901233
-67.960493
-592.888391
-270.559717
-148.114402
-350.445610
-137.335652
-391.080820
-268.739634
-56.079799
-404.842808
-20.036714
-574.394726
-200.173925
-203.171166
-133.966449
-124.742888
-376.162408
-381.638793
-591.745130
-545.425254
-345.032617
36.988612
-398.515892
-233.839388
0.139324
-219.766556
-45.461540
-145.079667
58.916228
-467.940515
48.671301
-43.218733
-466.299820
-276.586759
74.945358
-353.642666
-357.506119
-76.356164
49.725995
-458.686261
-217.398621
-392.157080
-389.081695
-578.925654
-83.419942
-58.504213
-8.097924
-381.940800
-21.472298
-329.600626
-51.773985
-79.916764
-389.454758
-304.308058
-28.583197
-229.314258
-284.927334
-258.398479
-389.189561
-127.303284
-261.412581
-369.688471
-394.156036
-290.076156
-298.374410
-296.769865
-473.035943
-11.303792
-350.899124
-305.624993
8.249941
-75.022958
-56.425902
-265.743488
-198.271620
-133.431557
-143.334676
-392.006783
35.714737
-535.458183
-239.284100
-179.168555
-395.938977
-332.667917
-151.956713
-86.385602
-43.110284
-425.424808
-50.851700
-223.276406
-45.767370
-61.909719
-567.446793
-361.429061
-299.201203
-91.957573
-318.445146
-353.118621
-325.025445
-478.632344
-58.769019
-24.233057
-356.956520
-87.263928
-405.522780
-287.028329
-272.227002
-317.074139
-140.760792
-235.097591
-150.373963
-379.189633
-350.665702
-10.729999
-127.957059
-202.609682
-529.468409
-673.084676
-192.307859
-155.208698
-35.582939
-198.559372
-209.891895
-33.442542
-341.253261
-336.806553
-278.094876
-650.821726
-287.017136
-71.055459
-392.447067
-156.910824
-90.295180
-288.722741
-67.839019
-430.258256
-10.296626
-238.931681
-22.188641
-38.265967
-271.096749
-274.486719
-54.471312
-334.429265
-326.517784
-110.806847
-280.673292
-295.955020
-199.618382
-37.588544
-553.161930
-238.494717
-186.448227
-191.017764
-368.059464
-76.101169
-82.522036
-345.694200
-384.002189
1.011376
-134.775882
-617.940195
-169.379509
-171.916381
-646.352818
-27.435343
-635.382513
-381.231986
-579.862943
-68.630003
-598.082406
-146.815588
-284.714813
-132.213013
-390.863053
-77.614493
-318.458367
-97.288434
-497.420963
-222.736208
-215.174488
-341.494219
-207.983050
-61.351056
31.868276
-84.280169
-238.638642
10.192554
0.392229
-405.284049
-517.606184
-239.602673
-85.953972
-365.290214
-128.854995
-401.858704
-198.453584
-266.842459
-522.861790
-259.591014
-355.568963
-63.806271
-196.252219
-183.301571
-94.599108
-181.188375
-396.133428
-403.358597
-404.186949
-325.560806
-294.383907
-134.633571
-367.970479
-2.101895
-286.321965
-129.666889
-400.498142
-53.738122
-164.613427
-32.207064
-144.655723
-483.695574
-178.698239
-297.379102
-689.672486
-236.197668
-67.810196
-299.658670
-201.413275
-370.572759
-236.266043
-549.804475
-379.406176
-386.625650
-380.785510
-175.427196
-230.807630
-62.826174
-277.054337
-165.131735
-559.062452
-472.309033
-658.869324
-315.265244
-321.251620
26.275133
-378.983630
-88.408037
-593.998797
-354.614788
-290.471877
-392.431141
-60.300152
-57.021463
-27.394278
-303.580360
-67.477229
-0.861980
-30.743774
9.188595
6.039632
-5.417346
-242.445726
-148.376795
-123.636273
-140.844629
-93.892579
-250.539275
-373.081351
-208.692285
-299.909401
-105.696308
-305.634736
-396.108497
-88.797486
-281.336964
-323.449190
-447.316384
-441.722523
-387.279691
-379.613476
-32.130188
-400.190645
-356.427575
-110.775029
-5.118265
-53.873234
-318.923554
-370.983384
-175.158700
-253.658064
-41.398821
-497.173997
-268.417397
-255.935426
-127.919184
-62.142535
-425.705194
-181.164908
-52.075148
-167.410506
-43.270341
-212.398659
-79.094313
-173.060532
-240.798360
-240.216924
-263.475506
-186.598521
-112.915780
-47.365617
-586.794880
-389.388728
-275.966668
-25.653393
-120.596092
-200.794216
-387.293606
-506.220603
-49.820359
-294.729610
-102.178775
-69.718948
-335.692949
-635.109819
-386.587987
-393.565837
-8.706440
-266.661693
-384.281427
-329.887742
-56.831294
-359.040271
-335.682570
-298.659291
-701.580910
-96.635493
-252.159656
-94.306795
-227.006688
-286.259069
-216.445598
-336.585451
-330.813186
-624.399980
-366.757678
-59.152215
-142.261425
-364.160639
-66.426292
-16.274881
-401.645236
-311.049835
-4.173503
-276.134837
-254.330439
-244.137067
-333.781410
-311.308730
-162.739443
-136.033879
-66.233382
-202.467660
-76.281904
-338.108487
-306.354783
-332.558407
-406.509825
-35.373657
-53.460919
-286.080614
-294.557762
-335.115933
-209.270773
2.429870
-403.378578
-290.821554
-165.774614
-365.085753
-66.649072
-205.528991
-140.742477
-326.498586
-60.011303
-303.959562
-136.947502
-253.021371
-282.141425
-396.977346
-332.438545
-55.187528
-303.212393
-258.916845
-100.210076
-259.461757
-328.085695
-93.401533
-170.789892
-60.897596
-389.186390
-207.279725
-207.137979
-43.197827
-294.987923
-324.607768
-114.532518
-405.951822
-354.383481
-325.960222
-81.061579
-649.726769
-50.060437
-188.467626
-68.423753
-196.688686
-302.903004
-230.940869
-397.841697
-159.268589
56.650817
6.344424
-156.749639
-55.957882
-366.082288
-218.175474
-419.815310
-386.943871
-216.825152
-391.770104
-306.382355
-122.018360
-46.340810
-774.270052
-85.261204
-70.246367
-307.891058
-75.963434
-214.949301
-74.763229
-63.835016
-76.974437
-73.961619
-421.458022
-239.090408
-398.238883
66.312281
-316.373498
-79.974083
69.023242
13.513574
-39.812549
-55.437589
-372.942231
-148.905733
-222.658650
-597.845988
-119.241938
-90.340401
-312.000810
-28.397301
-66.461863
-154.562928
-84.838158
-113.805312
-94.146462
-225.581774
-388.338188
-127.085899
-204.685823
-238.093496
-377.339381
-120.432608
-49.935367
-139.771696
-311.693304
-406.892435
-380.005696
-119.011012
-368.912726
-323.185580
-404.799552
-307.082359
-383.651925
-76.144461
-266.454645
-79.949973
-165.016575
-52.517206
-231.390735
-127.669949
-100.902281
-402.606721
-165.692822
-122.461787
-151.942200
-232.211974
17.637229
11.038083
-62.128509
-375.777600
23.192283
-88.516000
-68.442251
-292.796963
-392.145759
-74.533946
-345.040260
-383.189561
-292.893305
-137.220128
-394.191176
-105.539144
-421.131640
-300.338522
-404.206805
-223.891319
-213.949543
-395.149591
-77.073924
-338.639427
-53.131359
-260.342083
-103.235219
-110.515294
-352.147750
-73.274640
-404.309953
-383.212168
-253.016798
-157.074744
-129.447009
-151.018674
-406.048992
-110.706045
-160.715704
-28.527188
-340.192506
-260.113262
-44.166483
-91.342371
-25.554261
-309.547174
-260.720432
-112.304463
-299.119812
-73.096275
-102.903327
-267.680537
-259.895651
-228.371391
-38.891351
-145.785196
-74.800880
-282.380707
-209.099794
-117.703313
-137.456258
-156.527687
-380.669954
-378.351578
-317.571520
-60.721536
-99.672142
-221.262933
-267.548280
-106.538847
-86.192561
-396.891281
-63.165015
-196.515115
-76.736144
-125.913597
-332.531733
-87.735680
73.331818
66.271444
-44.615845
-322.352023
-266.543705
-398.295647
-211.264922
-215.301726
-361.463733
-75.192996
67.248399
-393.361454
33.684206
42.652060
-53.524397
41.383483
-65.390282
-112.675394
-71.444718
-231.999711
-108.864450
-377.580192
-287.753435
-326.443737
-210.794921
11.908440
-350.822343
-47.894554
-300.495268
-387.944299
-219.729171
-99.606131
-274.623757
-160.063649
-122.172611
-314.899457
-51.955965
-245.046976
-405.875996
-306.396211
-333.831540
-341.182275
-316.161323
-391.421180
-386.013843
-406.854386
-94.456540
-75.547998
-397.980023
-281.224727
-79.134467
-392.639602
-342.347662
-347.403087
-118.272283
-120.912469
-290.932426
-327.933348
-80.448411
-195.025367
-128.451543
-397.589155
-383.065895
-220.631709
-266.701712
-397.287793
-87.299186
-273.525562
-318.738372
-312.423533
-134.731921
-58.232265
-281.551772
-280.391812
-367.164189
-388.687558
-202.783412
-273.421914
-404.737016
-266.004099
-288.316848
-274.520402
-179.553329
-360.994897
-98.785389
-360.683465
-276.369694
-318.669358
-395.751344
14.302927
-114.294668
-191.864767
-391.398583
-176.088184
-355.809553
-213.548099
-204.804623
-104.792043
-0.481388
-27.404373
-5.705101
-20.742366
7.502217
-399.828774
-394.822051
-401.989004
-99.335454
-59.119121
-304.325797
-81.256731
-238.682919
-111.524735
-152.499638
-398.187249
-280.040390
-405.582273
1.539807
-215.492593
-385.879677
-98.146998
-401.668124
-293.716399
-164.431476
-94.129804
-310.160240
-127.272258
-286.541338
-165.252722
-346.710094
-103.731046
-154.834635
-371.129483
-131.329487
-316.358020
-287.127717
-160.160031
-327.833220
-249.369339
-219.089309
-271.547737
-382.130563
-107.568906
-371.133643
-208.539523
-135.408635
-205.678045
-325.211594
-312.503040
-364.302774
-329.141480
-82.610603
-216.347412
-330.467865
-292.907084
-355.822121
-388.039251
-215.022992
-394.842877
-324.317776
-398.122401
-391.831761
-86.497287
-402.723597
-340.277477
-387.984316
-79.312809
-375.066557
-327.241266
-290.129605
-381.067449
-388.340450
-248.424521
-211.869504
-361.311644
-316.703078
-282.185154
-130.990259
-154.720398
-168.581775
-347.011067
-157.781606
-375.289757
-72.991036
-187.262403
-172.350765
-184.130680
-379.510617
-168.942210
-358.480037
-349.016707
-367.173640
-210.272282
-368.698486
-338.821949
-337.472527
80.136248
-353.153487
-271.364169
43.849963
42.632389
54.990874
70.333939
-355.510508
-324.736940
-372.311374
-363.872613
-344.248404
-328.324232
-345.917197
-404.369129
-320.267783
-392.680680
-386.431002
-398.966146
-334.625145
-345.963240
-271.428203
-226.946082
-317.723206
-3.268399
-6.560261
-18.034135
4.888151
-24.739558
-253.776159
-254.614328
-248.741066
-76.814170
-86.702883
-98.627599
-258.853404
-268.455467
-116.144493
-394.200424
-394.265296
-121.961647
-229.848896
-155.825723
-132.349126
0.224184
64.289136
71.545769
61.800835
32.931942
46.398898
-92.642941
-87.321989
1.454626
-326.867301
-20.478018
-3.180307
2.521589
-80.355991
-70.673880
-73.809792
-263.453442
2.834431
-141.986029
-156.204877
78.764510
59.976302
29.632723
47.921480
-332.842850
-332.346573
-0.532611
-16.623549
-17.903928
-57.968120
-67.048815
-263.508679
-273.825658
-116.016942
-143.193277
-155.058883
68.596821
50.964250
30.123264
-308.410860
-116.824269
-14.838207
-12.595155
-0.061931
-60.828951
-268.635303
-154.090012
-46.899195
-33.913374
78.864112
75.895728
69.495022
52.848977
30.095742
41.498473
57.367297
-314.879820
-289.665913
-8.649118
-3.907902
-8.444403
-46.891369
-39.940322
-270.712801
-279.385919
-149.927527
-9.473074
64.397114
55.230921
46.963801
28.277672
12.824461
43.017617
-290.366495
-285.370269
-4.444708
4.428800
-40.934065
-33.758539
-273.601720
-277.873145
-161.478795
-176.711855
-151.480668
72.682234
51.122198
-27.353482
25.343133
44.292941
-63.892496
-47.578762
-296.334149
-269.686978
-43.114338
-41.497551
-0.223909
-9.280213
-26.424675
-21.504659
-284.592337
-67.769819
-35.067717
-170.307287
-154.517559
-41.615550
58.628219
40.862597
9.138790
33.475197
26.021699
37.078339
14.392669
-266.054322
-39.400237
-3.506914
1.201437
-20.903755
-4.079025
-289.367500
-295.071532
8.828521
-14.220482
-20.011551
-135.562055
-166.684044
-126.641916
-118.225192
66.783923
72.392198
58.792318
34.034347
22.534611
7.562532
35.294727
-274.333043
-8.645576
-11.357372
-124.548406
-104.238956
12.203691
4.942702
1.280060
-3.752944
-5.922918
57.343694
55.758342
65.034705
-311.001145
-300.654327
52.679138
-117.491260
-114.399194
-125.189814
-155.255738
-137.133047
78.908459
-251.156340
-112.549316
68.909383
99.532940
43.482796
119.426187
57.292354
58.611557
50.423164
138.163968
-453.954494
22.123640
-5.064963
26.670347
-8.307556
0.185005
-242.378259
40.414674
-114.669175
-727.099137
-97.649510
30.926331
15.537054
7.156623
-1.153564
-218.240625
37.234414
71.207492
-303.170027
30.230613
-87.370183
168.947074
-577.866799
-62.591378
-120.887856
-167.028785
-146.526613
193.157152
-689.694152
154.406415
-49.235911
-113.830462
-110.344995
-338.833423
66.098522
-3.915138
13.177381
18.069871
-4.580118
-0.045456
-91.225134
39.371856
14.028398
-250.754306
18.110321
-10.161715
1.800616
0.127816
43.451685
0.698201
0.014077
-470.688959
-276.886645
-726.215002
-308.349424
-851.951282
-264.469381
-289.498397
10.978912
14.319735
-279.613629
1.607608
163.385254
16.661301
-588.345490
-319.196778
-204.938957
-208.494736
31.508603
0.554443
0.958783
-67.311740
3.014860
6.744423
2.537125
2.261028
-794.773474
207.145140
17.117064
-181.850025
-97.313119
-256.106694
36.070670
42.239674
-0.719747
-0.942550
-247.192083
-242.823259
-151.104786
4.217956
-5.974502
-289.790153
-6.515194
-799.361011
-283.773003
-280.360139
-85.128693
-690.841508
-288.786271
2.717115
-91.129905
-103.714183
-3.828238
-10.489148
2.794939
-277.559776
-2.546019
-57.154316
-12.261256
-16.673507
183.520163
36.359732
29.033941
4.156845
48.666913
4.790730
1.753783
3.339443
3.764077
8.301841
-11.227612
-19.053912
-910.110638
208.461890
-213.528495
-284.643658
-0.354223
-153.949323
-9.703230
4.388851
4.604994
-9.458030
-9.583013
-10.056036
-9.717624
4.299887
4.055135
5.377088
4.873605
8.039651
3.741072
4.130354
-2.801253
-2.244747
-4.494037
2.331074
-7.773192
-9.009269
1.588303
5.574782
7.819775
2.909170
-2.511076
-12.156974
8.336746
-3.323235
-9.030537
-8.821289
-9.944229
-10.246691
-8.108711
2.032607
-30.695823
-41.530794
43.841098
73.534434
-0.003682
-14.763056
-309.351874
86.738604
-239.023700
-927.737130
-277.597527
-760.508519
-957.067873
-858.458346
42.451438
-280.650457
3.279476
-288.434043
-14.446143
-111.052392
26.282309
-102.303720
-975.651356
-936.901638
189.825390
-56.281352
-1056.445603
-705.846750
-659.908653
-567.648884
14.526911
-610.211577
-1063.421048
-182.404623
47.296666
-963.568484
-1055.694984
-1054.418120
-1062.069120
180.387044
-830.920858
-323.505294
210.181453
-417.086322
-1011.007112
-1047.849097
-274.299568
-22.446695
76.563931
147.917673
101.113807
-100.500859
-1044.721718
13.802533
18.068450
40.297339
-282.550225
68.998310
29.565912
-151.371864
-147.398957
-295.934401
42.763002
-291.940116
-2.758199
-12.984230
78.343946
-8.935440
-4.550548
-34.371568
-23.644593
-1.064891
-260.378907
-794.560369
-1010.822128
-396.026082
-900.233709
93.370114
-175.182100
-978.177966
30.944854
-325.017336
-317.906537
-1.289056
-218.248046
2.503158
-735.110675
-309.834010
-294.312169
-0.136740
0.288474
-4.508009
-135.527563
56.464351
-92.965765
-3.255981
-1.102650
26.528988
189.598713
-899.918023
-103.640818
-11.149540
-379.656856
0.322679
0.444355
-199.117328
38.416508
-365.510438
-375.461617
3.529827
-185.041466
-9.335437
-2.721939
-5.880286
-5.416160
-3.102042
-3.412229
-2.105678
6.213773
-9.735793
-3.552249
-2.740204
2.118722
-4.525589
-2.938245
2.942498
2.625195
-5.372474
-10.956717
-5.088491
-2.341095
0.938791
-65.104219
-41.412865
-2.746577
-6.169683
-792.766752
-3.169385
0.185817
-176.735268
-149.821484
82.279296
-126.770281
80.538901
84.682114
89.447547
-278.651323
-161.176753
-136.343711
123.530545
26.770218
-42.209147
-115.696989
30.994098
-2.470617
-54.210073
-156.610141
31.077182
-3.246611
1.345220
-284.537940
-2.903352
-252.264914
9.415897
8.036002
28.121955
-155.662885
-13.194425
-75.263970
-330.376338
34.015769
-152.444673
5.744993
2.433727
-5.048190
-6.863804
-9.495253
63.256693
39.361791
-1.785225
-753.603167
-656.324539
8.339424
-4.758188
48.526614
52.804658
-4.275027
24.151794
-0.334705
-89.395158
-41.377124
4.703095
-13.832277
-0.816747
39.407275
-0.025143
-33.056251
2.076455
-3.077094
0.427058
81.487371
-0.486550
-467.296431
-5.093405
1.576546
-0.074591
-220.154722
2.707440
-4.242689
1.966511
-53.523019
45.127891
-647.657202
40.911809
5.212073
-302.194771
-113.175858
-3.500209
2.554981
-177.120790
-179.145947
2.504743
-13.930186
-0.504471
-2.878599
-99.258868
0.799232
3.364322
-397.855831
-8.315348
-154.842558
-3.107213
4.840894
83.115042
-2.934632
35.607786
3.804668
-315.938050
-307.423369
81.839261
5.207141
-0.732599
3.157517
-914.708682
-19.531547
-27.219242
1.967531
-177.173290
-122.784560
50.953865
23.648598
-3.908526
-7.010747
-126.167293
-0.876444
-0.619511
-17.844626
-4.122953
2.165544
-0.692596
-12.787326
3.418655
11.227357
2.965126
-0.288212
70.477260
-4.478425
-177.674026
71.416261
74.943867
1.978550
-14.720282
37.883895
-2.791983
-8.026276
15.151034
77.800451
-54.866028
16.188754
-3.482014
-2.479298
-3.721978
-3.710598
-296.928945
-84.765338
-1.446173
2.755438
1.277570
-0.893908
6.963437
-97.514412
25.748878
-216.649391
-203.530097
75.763066
2.662016
1.612352
2.887187
-9.523311
18.115467
1.557917
3.498472
1.059768
38.899076
36.103010
-25.958188
-61.619280
13.970723
-15.422675
3.157399
-0.893613
-383.323419
-3.721324
2.462042
-356.204119
-354.880867
2.105908
-8.428434
3.390079
-375.767905
-379.343829
-2.619182
-40.280224
2.710885
-4.978196
-367.271251
-4.730675
-8.882481
-249.050086
-3.097370
-2.752543
-0.828676
-7.566379
-0.227144
-188.444229
-6.265585
-0.471763
-0.747276
2.070517
30.088483
2.913854
-114.770825
-3.617775
-2.219975
-3.042016
-2.939840
29.615396
3.739503
0.276613
-2.136406
-0.824230
89.921649
-292.088858
-893.862807
3.797596
-1.310155
1.573723
-5.332162
18.074121
24.208021
-16.256212
-371.770810
-371.951954
-180.261145
9.455354
4.494041
0.805497
-8.167465
27.705191
28.485119
-0.718403
32.998574
-2.017643
-0.814292
6.159414
-17.758481
-3.002507
0.937341
-5.680524
-5.854951
-6.776935
-0.511751
-330.708321
-337.698666
-35.850801
47.061939
-225.511976
132.742576
11.975202
-0.700336
3.091673
3.655147
-2.001607
-226.911121
-3.140396
-6.204297
18.148225
-7.520356
3.645161
16.366446
-5.464810
-2.876958
-6.375771
-1.120332
-7.222533
2.574934
-842.958153
-2.177365
-525.845580
-119.104506
-1.919462
103.660918
45.604187
19.438051
-1.071258
84.212572
-2.132417
-131.118544
1.838002
-18.957912
-0.356224
-2.035197
5.856232
2.553911
-3.760750
-7.367482
94.141029
-292.408399
-292.092579
-7.234948
-263.790436
-101.611492
-6.058181
-0.536190
-7.302529
-47.433881
18.500485
-117.834468
17.164780
-0.086826
-4.071218
-102.556865
-7.835533
-0.692370
-4.214693
-6.834222
-6.981494
-66.062318
-608.987078
-578.219254
1.643450
-1.778495
19.705033
-276.190791
20.203422
4.515211
3.177257
3.370698
-265.688211
-2.218490
-50.873109
-89.524387
-6.175039
-38.369871
95.276766
-312.456730
-252.386683
3.655124
-376.166349
-377.311921
-4.171073
-65.582148
-84.970346
-6.359845
-97.540260
-3.347422
2.549755
38.130395
-4.010903
-1.913659
-2.681413
-1.624786
3.068133
-5.403045
-37.705488
-181.883590
-4.210499
33.831118
6.081102
-36.417098
-7.687323
-1.956025
3.055333
0.763149
-184.613247
-3.827501
185.219225
176.457475
-9.186770
-373.693713
-183.142184
2.414398
-202.293849
0.216872
2.986811
-1.265120
-2.644974
45.282472
-213.713519
-140.887345
-0.487282
-3.284864
-5.869076
-3.735242
39.740530
15.825235
-16.113441
2.404091
90.803502
2.252901
-498.797087
14.570449
2.214354
83.709823
0.020749
49.788710
56.010608
-181.598299
-3.672674
-305.562790
-1.772923
18.102501
21.111390
-2.072874
-3.126165
64.748365
-5.890227
15.462214
-2.378189
-374.053531
7.068313
-23.364952
36.206961
-377.587879
39.551168
20.834134
3.624864
-18.379204
29.518116
-65.553933
-0.090106
-3.545587
-20.584678
-1.392919
39.829557
-3.243398
-1.256023
-7.211681
-8.474728
1.942114
-613.137079
72.123722
-8.638079
-6.107559
-140.891325
-2.628662
-1.808327
-2.330706
-0.463261
-0.509145
-30.741701
-53.496109
-334.446308
-1.818907
-77.649835
17.071655
22.611084
-5.745091
-36.455701
-6.760261
24.340303
-1.598471
-375.686952
54.291971
-12.227280
-10.875801
0.487976
-17.262022
37.834068
-54.524164
-373.061593
-212.459421
19.045220
67.269061
-1023.873637
-288.316314
-273.638075
5.174592
6.323238
23.308480
24.247075
80.895309
-14.558839
3.245033
-77.947596
3.266839
-62.374957
-159.381537
41.597950
-90.331057
6.035596
2.811140
-1.193225
-271.652403
-767.322092
-382.781143
-385.749622
-183.294575
33.724827
-5.652041
-19.574714
-311.767180
-306.149449
70.749522
-77.200507
-351.568279
-2.065752
-426.704774
-247.914330
-232.824554
-82.505190
-92.051251
-102.140413
-384.269665
39.824557
-260.707260
-257.759534
-138.797372
-145.782520
20.792494
49.509376
-98.006703
2.512319
67.405982
-2.326974
-5.019837
-15.544258
-16.003114
-165.295197
7.662884
-369.628545
2.568758
-821.212142
0.292575
1.383412
-38.564806
-12.560044
-18.347542
41.327297
7.018832
9.245784
84.579169
3.250740
-185.654193
0.560377
-1.010503
-24.769482
40.474541
8.989037
27.098208
22.329552
-373.803347
20.914870
-875.506978
-710.415005
-326.989609
87.213639
74.526971
41.805321
65.753068
66.492289
-257.540595
0.351775
-11.603074
-0.415872
-64.367292
3.629294
-8.130987
-10.324093
-5.998090
-41.682198
6.438177
8.218845
19.892751
59.049316
49.682154
-5.510525
-2.521284
-5.125998
-80.204302
20.963064
-95.366260
12.549331
4.155126
94.512660
-1.322983
-13.685107
81.316319
-11.584419
-258.478053
-3.732975
-364.144041
-211.688678
-121.905749
-67.136988
-363.662151
-325.162844
6.226300
-4.799116
3.548270
-905.801309
-150.247995
-36.555997
-19.748915
-1.279749
-5.814688
-8.185910
-289.600845
-14.205996
-1.901487
3.481377
-923.504619
48.437024
-187.161010
11.299302
-155.622682
-13.544667
9.607406
-128.638293
-145.698166
-119.222591
-4.152600
13.696266
-55.542393
-228.953735
-830.032203
88.383000
30.108447
-16.527228
-569.096039
-512.683882
1.817778
2.560421
16.859153
0.417966
-10.922407
-558.453135
0.015446
29.304271
6.037871
-1.887385
35.619210
-183.798508
-96.526947
8.845304
-10.405596
-6.392287
-481.283113
-741.517184
-19.372071
-48.425193
6.535779
24.392396
-82.796601
-3.831471
-300.837765
60.411520
3.655513
-4.952895
-831.378614
11.422982
7.128060
-1.719468
-439.578363
10.185147
-7.513242
2.153733
-346.378358
2.174313
47.238193
-16.504159
6.929822
-2.868533
-1.154359
1.247272
-4.124924
-16.529695
3.387338
-600.830887
-1.130927
-13.620652
-43.056615
-383.754832
-16.353896
1.302473
-2.614203
-42.777364
-10.470582
-96.749958
27.537112
-26.513952
-2.281322
-374.648513
-9.113553
-648.870311
-129.448287
0.139378
-833.061636
45.385601
-2.294448
-231.425595
-372.526382
6.080501
-96.671702
-65.532592
-8.481696
13.505688
-369.674049
0.395434
31.975559
-614.605119
-11.421719
12.303981
-377.739402
3.262261
-366.422473
-7.204210
-371.192702
-2.292932
-2.128585
-8.070339
0.584333
-47.974321
-33.196398
-66.230610
19.374325
5.764808
-38.312902
-7.065010
-20.519018
-20.330286
-378.681541
-22.077144
-658.830183
70.484286
75.127913
-13.467200
-12.697154
4.566690
-24.033247
-366.021599
48.238738
-0.383651
-170.607054
-12.322302
2.930914
-127.873938
-183.124501
-5.342345
-5.400580
-10.328787
29.598402
-0.187464
-73.208688
-263.806451
-9.031470
-274.907363
1.994859
-168.667071
8.853574
-5.226851
-6.171527
16.581652
42.907898
-2.810046
-407.008880
76.809377
-102.116773
-186.281246
-2.763932
17.836350
-2.265318
12.697086
-2.569632
6.963528
-12.298688
-12.686694
-254.601579
-190.108897
63.741538
-15.955646
-2.807237
-12.569990
-74.296734
-130.949587
-0.716846
-159.898022
-483.653273
-88.328445
-170.996659
-105.692430
35.302673
-62.936011
-57.023386
12.294437
-2.458959
36.586839
-39.131529
27.241232
-16.694974
6.285588
-3.704987
20.064073
-16.679504
149.329561
150.000582
-6.985523
-42.291160
5.839840
-4.594604
0.818270
-146.386145
-14.490456
-39.367521
-224.880016
71.559576
7.020762
1.163124
-790.072043
-789.446080
7.328284
85.900027
-105.769179
-93.609611
-0.657383
-34.640408
5.763361
1.642293
-280.419982
0.956454
-248.762573
29.253983
-0.052734
-91.350462
23.107656
28.487757
-6.165592
-29.152092
10.758559
-119.532849
3.814191
5.383554
-121.494427
-269.294122
23.586986
-71.486642
-57.451912
-0.091912
1.824806
-22.963391
-5.995563
-13.128637
44.459823
54.952092
41.337889
-39.061235
35.964141
25.423997
-84.684488
-278.939124
-344.061563
-321.103064
-190.637562
1.776698
-963.780132
203.144380
-676.892178
-192.578542
-543.515386
-952.162361
-46.524329
-182.144239
-196.178736
-37.546832
-380.823472
5.110355
-174.470870
28.261882
-0.097291
-274.862717
-5.352811
1.088448
-138.928667
-224.637971
40.909841
20.528823
-49.948072
-385.875954
-743.176928
-65.489865
91.541679
-885.580731
8.024742
-244.736694
-927.126485
-360.972351
82.311764
11.349486
-279.658463
-20.004742
-4.018261
12.034418
20.098496
57.205523
43.492024
-19.180125
-160.640690
-54.465239
21.816671
-28.715425
1.537575
-371.462149
-379.962833
-706.654518
0.009913
0.356523
0.009657
0.573951
1.300378
-88.008516
81.224290
-0.252329
-2.496547
60.727499
-176.330504
3.406208
-313.399806
-2.565117
-329.028527
90.056945
-44.186583
-149.581802
-191.676466
-13.128632
-474.661370
-18.524863
-238.916299
15.098962
-6.805686
-98.215739
-6.031859
4.718942
-296.712473
31.738475
-34.420669
-267.996502
9.589331
-164.371456
-176.766329
-1.350055
-10.782918
-134.611020
-145.573313
-249.422239
-246.186019
-0.794370
-752.626215
-62.986457
33.606241
42.159290
-78.325534
1.599492
55.806574
4.287422
1.262391
49.869457
-326.512877
-211.530268
62.230233
58.112242
-539.525969
-42.255269
0.649665
-99.619461
-217.163427
15.572214
-843.523278
-9.685241
-0.876811
-81.892562
59.227750
28.768477
-180.176110
-7.187501
-7.038553
-8.409548
-72.744024
19.318323
-49.312040
-888.623837
-2.235755
-1.527238
1.596218
-28.743622
0.476153
-140.623711
-1005.026936
-845.228595
-269.824180
34.451747
-330.275334
4.479094
-36.805148
15.085976
-47.521763
59.811636
56.036187
-363.046361
-3.042670
14.838877
-232.383710
13.453175
-69.946641
-183.738266
-380.463617
-84.855513
-864.626756
-0.255647
-700.994141
-319.925452
-80.280496
2.801248
-4.886849
97.378008
-10.906945
-182.747450
-25.993893
-358.556102
-97.224354
-173.698688
58.588389
-0.309151
-42.134254
-283.641743
-10.784323
-948.516756
0.755577
-115.605059
0.082719
76.980546
-8.055714
-193.147134
2.050336
-259.363742
-18.980574
-311.528922
-64.047575
-867.461749
-73.622352
-22.032428
4.129773
57.195647
12.696356
-321.611618
-7.123466
-59.248789
-0.897226
-218.002314
-1.865936
42.839549
-91.052088
-289.619631
-81.460054
-42.339727
12.687161
0.753889
-0.551712
-71.535931
-76.121847
65.432826
5.470719
-264.322435
52.422142
-538.594681
-114.216591
0.087794
-0.085214
-0.619667
-382.215296
0.483023
-122.756593
-223.964302
7.291223
-17.606099
0.612984
7.782735
-0.894989
74.445449
-18.137178
-283.091661
-272.308172
-2.331187
-92.191553
22.535861
-146.917020
-72.815997
9.488333
83.334697
-0.604977
-18.414543
-179.566610
-204.194661
93.778533
-8.109658
2.402499
-191.883951
67.164600
-214.295051
-4.961467
-16.453055
0.736494
4.607939
-823.308733
-817.125272
78.799597
-198.122318
152.656695
-5.430945
-350.793924
-290.413700
-16.593113
7.335725
4.379691
42.298577
83.676261
11.590279
15.528831
0.020096
0.019025
-109.806161
-40.230511
-366.599857
-383.410623
-4.004985
54.128854
-79.618903
67.641141
19.978224
24.446732
-257.063547
-206.289208
-12.651150
26.085182
-273.676500
-284.928455
-239.653693
-862.324306
-70.619857
-43.043463
82.758849
13.521190
1.883368
-91.166321
-36.465398
52.770350
6.579058
-348.923424
-849.161045
-18.748084
-33.590521
-80.835495
4.284679
-9.951850
-20.152908
-21.060240
-87.215059
-288.211946
-15.901931
-17.907211
-77.592254
-351.889250
-604.405158
-657.718024
11.570037
31.743674
21.141654
-93.308215
21.553086
-0.849572
-267.198833
-1.806940
67.307760
-139.159609
-44.515857
5.329815
-1006.856619
24.772489
-140.834060
44.288996
3.922969
6.868832
-11.853937
5.868838
-8.064191
-251.281163
-153.819551
-102.095577
-515.056863
13.397466
-119.517231
-122.106786
-79.313241
-7.015592
-423.256670
9.547125
-72.618865
2.062538
6.071750
-103.722529
-140.560167
-10.139428
-5.804494
1.709588
-12.629550
-277.478512
-139.025482
88.915232
-54.336736
-18.753712
-904.644470
4.399396
4.905946
-5.215936
-1.515478
-239.879368
-4.765356
-7.084118
-88.859620
-93.774215
7.529090
-19.670046
-4.596503
-194.245760
39.360891
11.976152
1.260715
96.017040
6.087113
-6.637507
3.966664
-161.882381
2.505697
-238.848356
6.368679
-3.624115
-149.887466
54.974673
-155.424511
66.447057
-180.867502
-149.896093
-787.063846
-127.481438
6.628470
21.518298
6.108637
-218.966287
-11.624138
-336.199974
45.493579
73.094182
-15.342696
5.816357
21.407109
-62.023631
-150.489439
76.359295
-6.340961
1.350366
-1.684376
-417.694417
-2.933253
41.971369
-242.907894
0.600433
-2.496723
-59.680723
-2.334308
2.541801
7.780429
9.215573
48.749453
-182.804645
-0.473502
3.764241
-97.545350
-71.582693
-376.927318
-171.481206
145.059819
42.384714
53.982208
-108.133622
37.861297
-250.021928
-0.698703
-9.582151
33.456538
-25.710807
-612.699099
8.120017
-8.653916
-82.963350
3.819603
0.680238
-4.081151
1.944430
-171.631421
-6.429665
-11.287359
-641.766587
43.738213
12.648549
39.145015
-88.369715
-85.986156
3.892920
-44.041569
-7.340342
73.334227
0.496329
-5.422261
102.926700
-234.923985
3.062459
-1.550235
-13.207305
-23.370523
-187.133593
44.768555
-5.831004
-173.682315
-15.534260
7.688912
-35.655911
-32.697568
-21.599379
-18.974403
-0.723926
0.821665
27.668558
10.416218
11.048840
92.448225
-13.138392
0.446015
-893.607377
-86.963457
-0.803578
-8.731389
-91.872907
-1.824331
-15.806688
24.954686
-235.710469
-442.877418
-221.026790
-36.855572
4.953876
-2.023809
12.212682
-446.490790
70.047771
-301.687025
6.738230
-198.691064
-12.885253
-133.633696
-73.502082
-953.297379
8.151064
38.073462
-71.192596
-500.965321
-374.502159
12.906510
-193.678869
-14.421011
-5.750386
42.228566
48.609436
12.732000
-735.914721
-6.084477
-147.543764
-103.363775
-46.848432
-29.983696
-173.631647
-956.943645
5.858174
20.819468
-184.636163
91.931683
-107.103158
40.758026
-11.402798
-32.126148
-261.880939
-16.650857
1.103818
101.242750
-826.476677
5.965247
-248.601782
-119.722669
18.876182
-115.957557
2.102216
-360.789853
-66.731434
-16.906108
-330.616753
-215.268390
1.339799
-363.049114
-33.947945
-207.066526
-917.949178
-3.470495
8.814429
10.487266
-6.311944
-25.795095
-5.972786
1.972258
-165.772951
-19.579802
-36.523354
-215.659203
-111.364802
-131.140641
33.535050
3.271794
2.310819
40.883616
-0.052600
-40.664457
-45.227666
10.826982
-389.490062
-22.530048
-47.656311
-1.807394
-12.693277
-1.033570
1.125913
-53.357538
54.210329
-0.057245
-12.515042
0.449690
-627.821317
-16.999368
7.824590
-138.020247
-775.559712
-621.220763
-116.874806
5.990351
-12.725592
-64.206154
-384.649525
-778.919282
-19.341420
-211.355455
-18.309395
-129.519505
1.493777
-4.349771
0.996782
-385.193318
-932.288847
-65.038464
42.106502
-262.920981
-44.093187
64.444962
-943.773180
30.747477
-90.471980
6.467772
-32.647073
8.930257
55.911365
-16.554180
-104.608762
-67.044446
-7.591804
12.044050
-0.315052
2.040229
-12.326992
-199.121076
-92.779560
1.340428
0.305153
-357.502395
-130.244953
-167.854709
1.291015
-160.745796
71.028485
3.980741
30.974556
-7.391315
-156.394821
-7.079755
-3.387284
-26.986618
116.894803
-12.725686
-41.747885
-47.204528
-278.513658
-2.909853
-171.630090
27.283026
-6.576213
1.677199
170.308979
-39.019328
19.312616
-27.090999
-124.510111
8.174625
-359.897040
8.803307
10.675169
-257.892957
-252.401864
12.087609
8.978546
-6.389798
10.991099
-48.600308
-38.928587
-79.239924
-179.650034
8.106018
-206.113913
-25.112898
-23.445616
-61.168967
13.885621
127.452556
-1.614645
30.069730
-104.618425
-261.636847
-210.602414
-20.108192
10.467824
-179.868877
-15.868753
-45.494110
-379.977765
2.114226
-37.965590
-911.160648
-4.232999
-10.967630
-79.272520
3.185027
-3.281867
-579.413519
-947.968583
-43.021314
-31.273264
3.546067
-191.870112
-48.124489
-814.268513
-222.714677
-315.864033
-100.700117
4.244179
-5.563209
-237.094066
-36.259660
-792.564283
13.987441
23.454581
-811.205966
1.717842
-6.325828
-7.631544
17.388229
-50.347383
-287.588430
-114.749191
-295.125445
-51.684027
-21.195957
-115.960028
-4.819497
-43.983750
-32.352089
-34.414128
-99.484066
-368.767713
-8.727187
-5.318782
10.375376
-0.836065
13.280877
51.171334
-24.140488
-74.629128
0.011742
-19.335008
12.037256
7.059138
-482.387509
-353.960582
-15.849493
-699.770258
0.529503
-9.687889
-532.629789
71.493232
-146.685586
81.817260
88.086130
-11.784902
-143.200912
-24.877447
25.279924
-33.047725
2.161489
-22.432960
19.514881
5.337180
25.938308
70.999852
2.564380
9.163801
-17.921477
-297.936237
-13.859687
-3.142615
9.423271
-71.406886
-136.304604
-328.941585
-47.279592
-17.466241
-17.411537
-101.834709
-140.545649
-242.265178
-49.170330
-6.833978
-50.156301
55.382563
0.245986
18.195602
-47.207919
-10.893535
14.623340
25.450996
-77.568560
30.737732
-98.534471
10.349716
3.630616
-745.477760
-6.316278
0.439983
-20.403230
60.059378
-0.249425
-0.614948
35.352657
-0.461374
-22.474008
-32.531725
-0.240374
9.939038
-217.715826
48.975616
2.925459
-944.866278
-383.557140
-378.923511
-2.954525
0.719128
7.958343
1.913681
30.549622
43.576040
-1.073787
6.425146
-241.223402
-60.562256
-6.071441
17.741003
2.812840
0.709119
-804.514356
-645.938800
-358.519832
-260.004152
53.690200
89.239122
0.612896
-109.312751
-151.739739
-80.552205
12.515362
0.936406
-833.029715
-0.426580
-8.884888
-8.454679
3.258445
-5.240807
38.853585
-29.264430
17.850575
-7.048286
-5.639182
-70.947313
-6.239872
28.256172
2.554661
6.360149
72.918537
-4.497414
37.593856
-33.175523
51.589948
-0.272303
-17.852388
-770.584878
-37.310074
2.765438
6.039413
-4.034867
-518.236946
-3.671382
9.528680
-42.703552
59.875480
-35.018001
17.156603
73.174406
-20.697720
-365.683945
-1.761044
48.429957
-6.631615
-144.030823
-141.226234
-13.727478
-22.638465
-10.335170
-534.108975
-21.464844
37.576783
1.513562
-27.124183
12.228632
12.419899
57.424116
-337.191900
-36.970571
-35.898235
-24.548286
9.942754
-13.047436
-110.688198
-0.208914
-59.321184
-297.088319
-35.294027
-55.828589
13.363541
6.591178
-762.435531
-177.514363
-1.212164
0.022739
10.615059
-181.374227
2.592620
6.578960
39.599691
-4.690282
-15.217077
-0.188343
-47.354681
-3.077130
11.110914
-126.965016
-17.901864
33.176249
-14.495486
36.325724
37.624900
-614.380724
-5.247149
-41.633968
80.667270
-1.239924
8.826404
1.612868
18.813219
-0.059240
-968.779760
4.944933
12.677048
-9.857013
69.014939
-0.930074
-124.382727
-88.316126
49.241499
-281.938817
-1.347457
-25.203614
5.529252
-13.722233
-74.161559
34.371260
-42.828366
-123.755386
-125.817713
-14.308040
-298.233615
-271.198884
-25.356973
-6.559754
-282.465595
-180.879781
-167.592656
1.785008
8.423980
-16.671189
26.418075
-36.442022
-18.439846
-963.404772
11.485015
-0.127789
27.819663
-212.826884
59.383946
-363.384999
-228.095622
-102.955354
-6.823872
46.064128
-215.073537
-20.022280
-0.102016
-86.079262
-285.665867
1.876043
-3.003838
-4.042875
-85.890482
-86.794662
-23.395703
-0.368312
-806.177947
32.628526
-104.371070
89.572367
-8.250906
-125.966969
23.424304
-74.087820
-9.437435
-975.297506
6.039563
-10.171877
-37.507839
1.181432
1.508607
1.156510
37.830287
38.313394
57.307275
1.393141
-202.137596
-43.175179
-15.690461
-259.932383
-215.715159
1.328278
-187.092117
-254.508074
-0.341767
0.235451
-113.031477
5.880429
-11.114665
-114.381682
-1.514768
-780.194382
-126.811273
-71.624391
-67.311586
36.354089
22.962022
-343.245306
0.026664
-0.426646
-31.210202
139.519954
7.148989
-398.516264
-154.514554
-794.957570
-251.012014
-10.570834
-45.321120
-10.721274
-77.235137
33.509960
-23.261080
-138.611468
-905.834788
-38.740517
-983.156963
91.081366
0.579525
86.909040
-111.902589
-3.047094
15.471493
-22.052325
77.301566
-211.218314
-266.139945
-985.770756
55.214674
-214.878949
7.737904
-204.409014
-4.266246
-21.095723
-165.798025
-272.572163
-231.543201
32.015273
-853.115468
-1.406019
-43.048832
36.626731
-191.983620
-3.183722
13.276913
11.708709
-332.693963
-308.435966
63.699152
0.465809
-596.165595
-214.566592
-345.653150
64.462537
29.348084
-210.467228
16.478973
1.303816
38.791340
-52.157694
105.468641
37.753577
-32.270652
-4.549352
-381.058537
-4.563266
-203.099556
-884.282376
-91.571857
-74.478545
-75.619206
-7.210349
53.388560
152.077926
-350.727069
-70.805209
132.306834
-141.932577
-192.101553
-203.165375
-1.470231
-7.649647
15.628250
-164.054468
13.963405
-191.415223
-138.548724
1.164325
-370.921300
1.522355
-21.748181
-23.992162
-97.590143
91.911244
-9.715475
30.496472
-41.872670
-266.229827
-818.621197
77.798568
-222.218478
-873.625430
30.722244
95.610553
-137.857074
-28.415213
70.222522
-1.201522
97.817969
-479.886773
-5.555538
-2.861390
38.655810
-370.510281
36.808775
-41.956370
17.792559
-60.917281
-506.766644
-56.190841
34.760201
5.757298
-899.344134
1.762911
11.521115
-0.864747
-15.052331
-600.584038
-73.022129
-11.046962
-75.076363
-199.631811
27.219384
17.304940
-17.216727
-298.268823
-671.899028
-197.430864
-21.664696
59.875972
27.113744
1.074462
-31.521646
-71.708253
-887.056653
-18.004643
-7.882478
-14.545694
-355.291248
-820.717618
-149.809711
-34.122397
-94.755707
14.011283
-132.456566
-133.487901
18.687576
-298.978481
-807.776400
-31.175186
7.984798
45.825701
-451.733929
-46.784376
-6.622588
18.724684
-222.265753
-0.838809
-22.315210
-357.257477
-344.506304
-20.682320
-90.898935
-184.280021
-15.151608
-366.415072
-186.465584
0.020490
-14.054328
-3.448199
-8.999491
0.578700
65.926559
-20.482343
-374.520481
0.870153
24.956140
-153.986401
-205.406920
-11.189345
2.479043
5.537709
-95.401190
-1.043144
9.568651
-242.419565
7.801611
-237.302971
18.347703
-38.544674
32.230878
-167.790105
-169.864478
-64.581517
88.302158
-87.808005
-17.674022
1.973896
-64.070099
-267.529216
-52.013208
-302.001853
-293.062924
-187.418490
-73.552743
58.465107
57.478183
2.731007
-106.262381
16.470936
-45.039812
-340.712570
2.956276
80.337530
-49.627515
11.695599
11.763301
-21.251864
6.976118
-49.808529
20.117739
-14.581552
-373.773525
-85.791429
30.348767
39.190973
3.766019
-161.881258
25.259111
44.935588
-61.874346
-223.833998
-652.938966
-3.510001
14.985430
76.525619
-27.844263
-66.786874
-367.266347
-795.456759
71.952068
15.573511
-137.867194
-18.091665
-253.869317
-38.054043
6.649551
-363.045634
-374.069238
5.372849
-418.764739
-368.245051
24.045544
5.430799
-217.420298
-306.955570
15.496229
-19.282164
39.305138
5.984241
51.732256
69.797321
-9.868674
1.122726
22.584805
89.436109
10.412616
11.049882
-17.331736
24.506302
-174.817889
-2.206704
39.039434
5.164965
35.812712
13.928079
-828.503190
7.067377
17.505375
-272.129510
-13.114000
38.109519
15.289377
-103.675838
7.998896
-19.869295
30.766771
-359.323471
-190.970608
43.269015
-27.766469
-158.723649
-162.724239
11.629413
-139.016186
3.054493
-84.663264
-133.728106
18.223668
-89.816158
-103.213947
-380.156722
-157.249505
-30.915658
20.776219
5.027755
-209.056762
-23.226466
-9.476978
-163.477213
-30.972003
-47.024387
64.838223
9.695679
-183.101057
-190.856993
0.782272
-8.775572
-145.445459
-133.104900
28.769531
-214.341349
-209.721218
2.473875
6.169628
41.001590
-136.088700
-21.067725
-32.579785
-34.090959
-245.398847
-188.739058
-37.823813
-348.168020
-203.896752
-41.703166
-360.571476
-20.480474
38.797515
-277.716653
-613.941208
6.044591
-46.632502
25.445425
-130.767882
-43.273469
42.166701
-19.503380
79.664443
72.498789
-8.250778
46.795482
-20.935243
-267.841753
56.139176
40.183791
33.822272
-135.543868
42.719263
-517.423082
-155.486385
-228.349666
-43.872158
-129.515868
-79.793900
-4.078911
0.896328
1.696633
19.505015
-225.281234
-373.751913
2.908518
-208.746663
-204.489758
-168.833312
-198.994342
-177.651054
1.670677
53.474554
17.596164
31.437617
6.462849
-136.445580
13.860796
37.812919
24.861667
-209.963406
-367.940054
-4.284183
-104.075882
34.030388
37.759242
-323.331118
38.388255
-244.636565
7.292596
29.506839
-133.127390
69.463050
-1.481097
-205.224758
-351.169131
5.949544
17.876219
22.446471
15.708254
26.867086
23.138233
-59.528985
-312.590987
-72.778122
-70.261492
0.916693
-4.452746
-214.924095
-63.374109
-3.751869
-199.561922
47.817161
-62.737795
-202.945078
18.862339
-379.338884
-341.951582
76.933142
-296.046113
-8.415484
-7.776051
7.686487
10.889913
-369.885933
29.388125
-147.918071
35.714875
-305.854432
-305.197586
64.860758
-236.610084
51.878221
-367.135714
-18.318497
-120.282628
5.422976
44.440735
45.298534
-124.761457
-362.251851
39.677517
-53.808489
-23.390313
-350.648742
-98.165412
-151.006540
-19.523232
-116.431354
-85.633275
-258.478997
-18.894442
-375.976937
-199.046914
-245.155878
-131.327743
-32.841835
-34.623216
-153.079122
32.719543
34.049144
-23.265412
-21.878830
43.691688
-109.046866
31.761207
44.629456
-4.902233
16.662715
-17.176991
-192.937957
-336.360057
-13.110842
-178.261688
-130.591877
-111.537865
-196.063569
-125.851826
-7.443148
32.631323
-374.350534
-36.428209
-373.763204
43.674028
-70.108057
-60.104574
-361.830405
-105.784742
-338.271672
-48.912358
-55.119719
-75.615296
-85.650707
-139.224061
-45.016395
-190.036469
-251.806567
-261.853412
-13.958420
39.823744
17.592650
-11.193234
5.645203
-22.185958
-84.815488
-78.777630
-280.040917
-275.386437
-275.245613
-100.058081
-97.506648
-88.264492
-14.955806
-202.246233
-206.287458
-46.593455
-68.000947
91.807553
97.693693
91.466167
-331.179637
-337.995734
-144.286629
39.034092
-230.336897
-122.599912
-32.856267
81.882387
90.750649
-78.437189
27.077036
30.029226
-270.805116
-258.445635
-110.927374
-181.184970
-175.941237
-108.118414
80.781441
-247.067518
38.129658
26.967766
-138.643557
23.795243
-266.953773
SCALARS stress_s11 float 1
LOOKUP_TABLE default
-17695825.375374
-8452569.765876
111342.614441
7544964.659909
4063368.926736
25691753.931844
7332348.466042
-1850554.484292
-61213794.963074
-1051664.818968
-697804.824185
390436.311336
23955.161421
-18177371.102980
-11468876.681744
-15779437.946467
11255532.626085
-11261798.176058
-2084384.499556
-18465828.266707
65483.688072
26923.144223
-4220896.492806
570477.851247
3362478.507835
36103763.241763
3221474.510479
13233804.937555
-11028900.559388
-16963156.346407
-11662541.883391
-460679.135819
36658978.037279
-17476219.452337
1487100.503064
-6203333.377538
-12436172.865331
-2688676.991719
11416919.084067
37049161.779250
-3418881.709504
-7011488.409197
-495853.094236
14839038.290653
-70779015.643031
-3417412.200541
2396638.349378
35477856.584695
-30612407.290752
-1268357.688064
11615264.330077
-1075870.140347
-9169205.703015
96500.030390
10406541.892013
-3618848.959589
8264927.218561
-18183677.073371
-1374133.361950
-28203210.640475
25690336.740688
813799.331640
-6790675.142809
-11596699.645899
-72857.595015
-55229359.088219
-3531855.467049
-62077869.439392
6056.154753
-14359278.721429
-9094671.191399
2616116.852254
-31964541.583529
1825922.087861
-35003436.784077
-39774583.232894
1952320.776105
-2291176.594162
-10245185.131475
-634223.736688
-2117516.148482
349053.718257
203438.861774
-3792933.600649
-16322969.232494
-33494278.402116
-12013699.330714
-78776594.238023
-10048756.040972
-17341172.350069
-13589047.682143
-13293984.544165
-1244118.748087
-15985006.501031
1454625.864016
-9677607.017375
466961.690831
-303128.338239
-36996030.501257
-9817225.173626
-376305.088526
-26840469.186688
-10500877.825734
30169674.766526
530803.356971
-3423236.213262
-16146221.241669
-11029495.316480
2215605.990064
-7481461.740318
-11186.518131
-9926556.682648
9003339.557980
-9045572.222654
-11753917.091591
-18385790.727340
-42097.388860
-11974022.965166
1551616.458378
-1010778.612007
-9518626.858806
-8180639.344965
-16878989.155309
-943898.728028
444048.374602
74268.550905
9251855.243630
-5652297.946938
37364485.231204
-3314171.055977
20437917.639598
-14245885.612878
7996279.643605
-34801.457734
2856675.796392
-62909.219754
6464529.472356
-40615449.479909
-6378391.891593
-3169270.610827
-3542187.874688
-59942734.381058
-546129.740425
-18055491.937871
-1309387.185435
-3294514.053265
-9283251.911407
-62708639.490710
-18623616.150665
-14195782.914473
-14835235.089251
-1084338.830629
96199.732328
29551747.398559
-7656276.627426
-18175982.487547
233889.379199
1142086.819309
-29398202.169897
23384473.218046
25387334.156463
37321990.861375
414857.820188
-87776.480798
-9584453.309701
-36232356.677239
35428898.567634
-12444181.196876
1088996.490623
2969879.383106
1964807.707375
36798838.599938
-56765379.413609
37436888.916073
-21367408.597965
11400107.351074
37280502.342005
-18868785.557023
-19812.006792
30937224.328608
-671850.425237
-1266770.029638
39638458.156632
2540669.364564
647878.290328
-1188761.038906
19446756.296667
36341627.877781
44912789.021335
26852914.836547
37428405.115358
-25915795.835763
-15964085.867560
35874236.033823
1092080.936020
-908360.396759
-1144142.114103
13721727.234683
13116261.875093
-1236.860746
-86462749.254979
684062.544360
-394117.542287
1716959.426510
225253.566644
3590950.884722
19297899.445042
78316.124623
-14565785.534530
2477121.555948
34112091.199301
302024.071581
-1304664.075596
24197189.132236
31344295.231947
-16451740.924787
624528.254396
-10948231.968262
-201813.538984
4726495.806628
38962311.790195
34489323.096778
34544986.587285
37033891.663580
-14329815.932039
6397185.881976
-359232.691750
30249204.720572
-7379673.959034
6186713.278594
-15385706.174723
30452099.844096
-15065748.139842
-33.257602
31131471.451453
13160860.429731
-12955213.460803
19226481.534331
-1423279.964006
35425989.600649
-317333.203525
5323748.487141
1712057.905690
-3304314.649315
-64902.411056
337153.895439
-799832.722262
35058139.098979
37729097.383041
-32390.520701
-2447884.088384
37341115.183306
-11554321.511045
2042577.674017
-9842614.279831
-7617983.876175
28941122.402149
-296812.261413
529855.828728
1688564.568688
1490203.401215
-1218849.132322
3617489.143939
1968027.729363
127181.634255
-9659088.695108
-3739911.670020
568065.829390
-11547249.786479
-4078002.192823
-4971285.571387
-7314954.557680
-11804630.453785
2022354.873298
-801958.451660
-2451759.142926
285724.618430
-73162370.870318
-8994877.075055
-18324716.012451
-17313636.634511
-10363382.466646
-7778407.738409
6983012.621731
-4985802.866757
7179115.684699
8920620.756626
20817992.096866
369941.798794
4588024.853178
26177638.284228
36560433.909461
-5885350.424361
1848153.183040
-4212970.488683
-7563930.504960
25956948.580356
-7892557.611064
1519548.866921
-13937818.454423
-12625112.117446
7029012.269292
36315707.263049
479339.807087
-2761232.446595
-3886.947616
14117105.584635
24025955.679700
-2915455.579438
-10087211.215301
1882875.259657
7549.262186
-14895159.810534
-34018915.330292
29265316.652431
-5691123.328735
-4775390.302581
35984726.981973
-6410875.415748
14113708.745587
3124107.152510
14062214.794000
700770.795677
593457.903383
1941376.781580
20080071.719360
240505.339179
-16509066.154612
1067699.128266
-18540184.108938
-13167829.244740
34570009.104662
-34413517.057792
26976.943970
-9583904.153234
-482956.021361
37519261.965519
-33207725.431810
331874.389639
20988633.053810
-5680199.917874
7192787.525811
-17804519.067030
-14616819.552476
-18020850.244710
-11066312.907866
19194663.707752
748650.977614
-5879191.657686
34834092.733817
1152230.416457
36753875.056151
33552653.683435
-3836149.338649
575194.341292
-12738315.884489
41167.887469
-34254877.267150
-91779751.492374
25944845.507525
-1197485.768009
-6757663.902417
-7620300.283702
-15006690.577047
37264803.356305
-1225017.937352
-8792117.549529
-380255.017393
29555319.750226
-9723778.959803
17369646.575862
197097.461497
3263925.090572
-406822.386576
31086675.736613
10610926.673801
-8885629.604973
31374605.285344
34143517.424706
36608517.040030
2498649.971004
-7226085.832442
-32527.949286
-2841843.977401
-13701099.105194
-16136142.772858
-82574323.234746
-13512145.078999
2053943.170522
12466003.376534
-4446094.141337
-3470257.786417
-39782734.537205
34860341.805848
-1104265.522349
-371680.144910
189507.392848
184111.730613
-18450815.287517
4889390.797133
33216444.826043
29923756.389555
-1107499.746052
536987.605024
494915.960523
3507350.652997
-32419775.736274
6227.748692
2019637.658619
1086684.657685
-2121588.131575
-9922223.217688
-413774.217180
-556521.262620
-10053718.331663
490386.033042
15153710.768045
36902976.918762
795826.979690
33958668.840691
24850346.855064
22793702.205595
-1226910.844246
-22856.970098
-12748965.033239
-4218011.586498
36544472.650384
520429.072456
23206674.949916
-8905904.051710
29732993.862914
2580749.881871
-5818851.831813
-1162498.693333
30258995.730413
2015787.205808
36728175.998095
-18773590.686169
-2615923.445818
377687.152939
-25749008.559030
-10669339.562630
13547513.560737
-15789845.822863
537269.401286
1590983.703907
1938949.512784
-6282716.721827
-9534755.271435
-180998.828669
891045.059267
-692961.947948
-1663558.211812
-6649520.610049
1225951.445719
36154166.137280
-10248973.437488
29081964.333116
-460258.647684
3256146.914487
-13934179.330501
1644626.822143
-36476974.983405
40663353.402243
25408115.301039
5872431.344582
-15746286.611093
45485494.481219
26002656.438361
-9989847.363412
3865532.626702
814010.254422
3846607.895173
14999.520721
-9085711.855517
-17568064.044022
6526481.354558
-26952069.275522
4307044.515083
22238.262528
-20403637.785340
-12932430.716180
-3596701.917051
32618757.389489
510203.379081
2299605.811731
1705972.475819
134426.752374
21234380.213125
-6581580.348067
-66263390.186952
10597721.061432
19629279.566466
-16248235.209257
-1336712.106527
985767.480001
1371139.511396
34814261.893345
19174903.146319
-8968.772961
-10819942.849374
22437932.252787
-18197479.541353
-825629.234912
419390.305647
23376394.922012
-17375342.961672
352893.895441
-170019.421347
-6155964.133794
-3016916.658515
-482555.536937
3916270.001205
-6983095.311912
-5193327.234965
1547028.654743
-3380786.693900
325598.135735
-8302018.828170
42630093.631327
38890607.255779
-8775887.433893
-1463.950440
3905099.934992
-18062716.057667
-16334532.485100
-11243718.800626
36720151.830146
12356606.076579
-624936.472306
-2714338.188426
27571.106761
-17657961.702444
45605575.817297
-11380038.742756
-9013236.759566
-5110734.904638
35577671.280417
-15874741.090188
-44579402.747303
-8198053.838705
-13162420.679615
-10653603.140617
37349700.676214
37025341.364733
1310802.920687
284433.387907
-10874368.900332
-10124408.788283
-3804089.836198
2930.298655
8940974.769410
-18096094.481168
7479452.312483
784668.182388
-15280597.304307
339331.760976
18788067.768729
-10362291.181738
-71270014.083371
321058.650095
3586456.205003
-1738719.074773
3632260.948671
34013742.268762
6214357.479827
-5377196.762517
34882498.313621
-16478742.515618
-15895214.422410
3844175.991882
32272876.847317
-11685479.077050
-9911163.371707
13057.524132
-10031119.031334
-16348126.078004
-15228762.742157
-18350269.947433
2026201.774020
519308.625633
-9209684.095582
35377737.209701
-5657496.708777
-9033355.000355
32312197.382804
-14168.714734
34511802.777545
-1937228.687344
-15629627.953552
34182347.988381
-5702995.061133
-13268206.915232
-1020891.313638
-433978.106420
-11504610.032345
9968696.568470
461264.870759
1575051.199875
17677759.396424
-16393495.447055
41807.591389
1197398.675570
354888.998160
3049035.675702
36736616.020194
-8288230.843910
-205523.451617
-1106247.847400
17108108.406501
643073.261078
-12842196.889400
1803.344920
19616475.336839
-13861191.249274
36379800.556345
-459280.954620
3985643.033377
4353308.664425
2513024.282361
-1092794.527473
-1056949.430394
-7112702.439039
3682137.030009
2987796.132653
-3542452.039579
-18498563.487429
8193316.474675
28571794.426960
-1088556.499623
10916306.438734
2871686.143913
-1470345.267990
-4076955.384132
9350365.328913
-5280371.555583
20717656.119834
808815.018310
496.026008
422610.367417
-843752.359656
5923636.417154
-605490.061927
-1145747.254527
-6851456.475418
530098.919837
-432600.483988
15430161.358263
400620.593939
-10339981.040014
-33240433.089816
1250449.435140
-3031288.355044
-16420597.592742
-18679505.309241
15457209.601401
2724590.094381
26417006.866284
6574522.458682
4179781.027241
43393.270420
36096535.252774
36340998.281982
-28390767.690515
186424.714151
3227746.440221
-9128806.956622
-17629486.951063
24950389.517677
-15102886.691575
-7364809.093875
-2282906.381184
-14704650.177888
-18315856.593828
45226.737112
11590001.043252
550987.153471
-10375969.095675
17045574.577333
-12824057.277100
2058394.969025
1259848.874782
-383980.465510
34197792.333655
-144670.472298
-6057553.943561
12475049.965050
-1780177.061782
1532718.680123
15799597.811071
36591947.535158
-12196952.810629
3037385.032698
-571486.649229
6673535.494722
8803558.598991
-3360062.638071
14625444.708384
-2184936.111877
26056006.146189
-10702988.640207
184405.140636
33007457.138103
484339.470717
8962755.754013
757661.820768
-14985134.702093
36211357.050389
345210.327136
-3731565.280612
-17292296.018089
587510.295409
36060450.629165
1434585.801092
36206548.017877
6572179.330695
15251718.675883
-513284.203331
35577101.623931
2476617.988375
39206049.737384
18152723.473794
31876098.700398
36063785.261445
-71055949.489075
36464780.568299
-13526975.391565
-663447.280381
26240073.304697
14758675.632735
-507121.150008
43187982.774651
155712.089993
37774638.932393
-18234083.415133
-17990194.820452
-741680.312679
-8456911.202075
13320144.791166
-13004803.045356
17311505.363841
7142028.222371
-6654186.442259
-7209102.793375
-6006527.153309
20313500.221551
-576946.693651
96936.344132
-17008518.706600
-1444485.506611
-9764400.085551
36749010.615304
-17023131.966349
22639211.822717
35260928.799885
15932432.703786
31091206.807266
37505338.858481
401334.601468
-762510.460383
292772.610243
263098.992656
-213058.160598
13855049.416070
-664776.510651
733426.831121
-933881.179413
-8924384.733722
-8434852.528740
34718774.027766
984972.019601
54264.306414
10796006.808749
2169716.432526
2034577.940111
-205997.210412
-384528.081071
32642490.254772
36277573.767179
-337505.574553
3427645.840699
-20672.347583
-31503.208478
-14332394.991168
-348670.801407
28260288.556709
-11448077.634740
5178999.315723
28041638.220741
2287140.432767
-15233846.413090
205538.819738
-1501124.149851
36666598.689426
-15716604.124978
25316959.664027
-561706.347431
6076047.441466
14744203.393787
372254.905535
-327050.572192
32268211.861686
36117987.079265
-38255.753384
7755412.414143
-3952329.697821
-3999097.414945
327965.837244
31226277.434450
15516000.239163
-413463.117924
-352440.848528
32793206.815505
-5342530.081412
-11433553.750647
4490425.003934
31520316.897598
246332.248094
46899.520701
-8103021.367453
220502.932713
164384.434709
-11866699.901156
3709165.324764
564518.866184
-15681591.351898
-17377543.660680
8465.985550
-37122046.324379
505649.852930
-1398801.342400
1872942.572563
-15748753.085534
16671048.479072
-3310788.466314
-16053743.711954
13232294.944751
-18499321.207093
-21675.138059
-5337162.184397
-562870.596683
-634612.498204
33376830.307290
-72750507.206735
-1434871.432135
-11960140.911354
-81542984.855731
-5148215.248086
43935503.683486
8999033.012597
11206436.977206
-14227533.072993
14847971.584211
-17335.564296
546804.107199
2798581.883991
-981117.126078
-12609807.578981
273027.031214
-882860.868147
821916.243287
22108419.232622
-403157.907982
14044582.117454
9269516.134382
289977.357626
-145963.436061
583310.535741
27077691.282463
-8340229.338229
-4303755.435538
-290628.011072
-16153349.757676
-138192.146572
-17436714.852572
7922308.563064
-5622895.409984
-3413223.029024
-14252839.255969
17689435.545436
29729879.482345
-78276696.855674
30222016.424644
-77608698.303653
-2169028.255729
-19251.414738
-11941512.623250
29822866.098113
-6514705.438107
-18776399.571384
34661617.200082
498083.595268
1665417.022208
-161111.462258
40662560.461595
37592853.241426
508428.371832
541651.198124
-15575911.833747
-14057753.516797
-9989459.041062
-17230409.276808
-102155.221008
22144969.796289
18339.399245
-11651028.741090
-10991201.632958
-7619464.730338
18124579.495506
-539648.135381
1267406.383902
-3368110.128229
348172.029984
33687238.427993
-13392393.717094
-1759.342990
-13453591.874937
-12545579.891577
-9963151.646738
-11701760.882686
-12590425.091891
-10589086.637608
-13513254.705398
-55212.072530
644090.105808
34078359.344251
1851701.392060
5260697.449447
-16223884.184686
-325676.489239
5160182.776994
3653100.406101
-18321990.816886
17514142.482532
84728.944632
37130214.761244
-8988488.145882
13457611.557516
-5467095.594796
42611777.124762
15281046.391042
35310636.173331
2398977.530268
2458685.748327
-6660616.309400
-409090.029705
-15559288.364351
117224.713304
7943921.491208
22971.479998
23398278.097252
439074.200561
13288400.976458
25197397.031060
11228395.359527
-349029.885860
-18147976.621920
-214173.439750
-84036833.170198
-466365.905604
-1052245.513684
-168906.944883
-17521576.029028
4522477.645571
33495991.059076
-15541244.928036
1279559.277510
-55042195.724999
-1006077.640867
-75900731.959319
-9793632.362823
30743549.058913
436942.448138
-736931.281831
-7190869.823235
40725319.281435
-48330022.419920
32003605.578067
13496715.485185
-11638549.611292
-15667495.470646
-9878075.700678
4614251.242304
3452813.981942
-10210235.384572
-16632782.740429
-5755002.124693
-77849856.329156
-2910315.668752
-763285.558121
15051826.734998
-479848.058995
-79627053.882931
36061642.337781
15539891.457082
-322994.870993
20560415.648651
301178.221459
-14654626.536115
-117394.905658
-40510176.403882
-80029796.100744
-976866.219332
6733153.039206
-465856.589130
-11805399.368199
-364200.348319
-10351986.584012
-12450657.666440
-6757324.618513
-12699806.186667
-13258169.460599
1050862.518091
16258403.245281
19785171.906107
-1350958.604329
41214468.592373
-15769963.476919
-287349.228492
750311.695846
6227203.907721
9407928.380999
7992417.932837
-908454.876785
-57606.046664
7951.357577
-1249368.061805
-17394563.202003
-72966887.884474
-430462.645330
34107280.577610
33574257.955367
-7046773.948446
-7155994.473013
-6266452.260884
18395249.891419
-17631316.894854
2891907.548634
11910650.053630
48778654.872293
-18195438.036326
15167345.730892
30663462.307023
-9217594.506555
15679191.455009
-27070.262750
2824141.890775
17764985.889303
31254522.266551
-12720404.997029
-684213.539616
327781.262627
17661748.879015
24198558.887156
-382642.528015
7230003.655105
16528442.230317
18490864.096820
-130127.471897
17123554.591033
-965396.120079
36306298.980110
16407559.751488
-12078645.186288
15525441.972734
2239172.139569
441151.828750
-690237.565210
-3046550.607922
15369207.267260
1033674.368507
-2227116.347036
-1397502.145159
-1485355.420387
-85285414.346120
35791422.844143
281532.572210
-10766069.166103
31993048.433444
-48293.448152
-16803793.698580
201370.261972
2539768.341884
17330430.488856
44857.314480
-76662202.003940
-16189.643134
-312002.208240
363452.205111
-40465052.446247
-3702870.266187
-264797.721698
-14994517.574280
25625342.577262
26159706.223217
859810.625391
-5875639.377733
3471186.529026
-217325.930259
29126.688159
-9864016.664098
-7421636.607556
7510934.241515
-10706840.402332
1083528.041374
4093357.507082
-1346797.074596
-20635242.684312
-1065840.153682
19904504.788877
11545125.805685
-6664548.852044
1930075.413020
3649488.451439
53278283.418937
50893134.368193
-1360446.028817
17471221.673981
-12422874.558465
-299633.171932
-378611.048764
-7145441.067125
-104710.512209
-18420061.604018
-364313.665049
-10495888.157734
39412.669287
-13656992.353101
46134376.831522
18831806.393453
223752.518072
-3149365.888236
-1313767.855410
-33526938.566136
-9759967.846998
-9054531.703052
-15614378.031826
-15399233.616742
29062525.663772
3128890.469349
35645068.317600
35547953.666149
41689490.438974
31941193.851637
31051173.589739
27326.579224
791797.898568
38813.403688
33528280.942222
36697483.640905
-280177.004682
-207603.528827
-788840.642181
-880734.822115
-10269070.135691
581736.012380
15418643.531828
15408467.623424
474843.722548
-92255503.829211
-89587911.014522
702568.820598
-18856613.454647
-15076153.551159
12866353.531649
4096407.213813
-11484871.317415
30714228.727201
29546163.772508
-285495.594055
-13506570.253040
-152125.934884
707563.215055
-244646.047503
5571356.322240
-463375.003504
-662660.410633
26197285.879427
-70955359.680868
1349721.531032
-77378469.656484
16073604.591095
18410958.137678
9023631.439752
280672.834595
-27394774.364659
7051842.761326
-1183104.851095
33887839.448353
-132524.699682
-14297570.117726
-18016823.430658
-33790.419314
-71300552.380290
-8958775.677689
830.298282
37038274.072835
-27589.508189
45326.457027
-77273656.047278
13312539.929922
31649587.667575
705951.936672
2450192.331122
16918812.236598
-211930.162275
-138337.038860
-14103651.478972
-3253095.170969
695180.123025
23359312.626227
15031327.321466
-15224428.164676
18818729.956383
-27142.815491
-13593698.827381
90525.280622
-551379.628070
-268977.775065
-69987992.565456
15181101.661478
13294788.659849
-18244441.565025
-9777836.218239
-58719.425406
-3078450.251689
-7162904.691006
-7500352.187841
-8223381.181391
221196.746034
1097.765133
187734.967145
-47186.100633
-8362509.364422
15179992.042524
-17374978.617896
-471601.319724
13409222.172870
-984962.819170
163634.392554
34920599.960941
14796100.511902
-7746312.692606
-45665.380340
-111107.556459
-6617400.326773
21915657.504409
-459607.443544
1028701.304282
-31410768.871573
-10752348.341849
503810.314745
-43633.301000
-41850.555684
-185662.663066
-391325.981002
-59159888.131107
24979758.550686
1315886.101593
30859662.012038
47744241.637517
-26604542.249629
12286467.462914
19894497.397419
49527948.216198
35722432.171574
34411474.108703
16144292.862559
-534446.050300
35988777.545617
-419813.123781
301924.818807
-6279390.656123
2036877.721455
398428.197510
-9243755.807555
4337016.143994
-73337858.579015
-1118240.138897
20000122.336631
15531375.042253
-229234.285431
-10578880.803238
-800619.409815
4606802.364474
-36362337.890907
4958978.646389
16335966.017871
493839.034051
2802834.749922
1324953.509385
-86563.674669
169274.457698
-17840498.103516
55489975.184748
-93743.574471
32690263.602086
-127755.452213
19089214.239937
556494.301328
17927080.625592
49765182.401016
-3262142.103830
133903.328485
-845.495726
-12396930.221472
-756870.293235
180307.921237
-297489.230023
446332.487292
-117370.503025
2612271.582285
-17509906.402801
1415868.876541
-100019.222764
-10910967.544446
-4370422.228883
142279.409659
-19957143.262196
-12159390.759433
-210784.274188
3874660.148075
-914736.359398
176499.210771
1460630.956265
-6727051.717475
588594.763018
-8992358.991310
1505181.787688
-1827916.911602
-1311114.917554
154570.126679
1736.300838
-12733488.378096
21127550.066978
36400314.911856
-3718986.288676
-9452807.191502
-106307.119460
-193307.205520
-3294261.408403
-124638.850685
-350106.402640
499757.281903
-1264194.626090
480.517342
22603540.201508
-91112914.298720
26310749.474882
-118345.438342
-4628573.103207
-77039875.869181
-93115324.541135
21303629.023506
3160444.849272
2802809.572002
-346671.619561
-87797.545430
44932475.288463
4245653.966753
753227.745912
224102.368653
-100409.417420
18792172.585658
20666204.735158
1567719.537151
-3614545.710316
4764883.298992
-437056.990283
1993130.446931
-36507046.610916
-27099.828800
2785706.301509
23199154.656579
49646815.850804
22526056.778637
16767519.558494
-8142502.912479
24765467.715410
-67493.468657
-11537147.657844
2877080.231883
-282049.518770
-96370.244765
3244137.418475
15361109.579049
15259371.347606
63172.712751
408691.197713
-18386321.978478
-89762.688486
4703528.410968
690388.835975
328467.800569
12723516.745022
-508849.560436
9853.998670
531.402757
1450071.874336
-743706.139345
-90232.197614
-2910059.551646
13855782.237178
-3253670.998544
-8396512.378834
-12912961.923483
3969.718633
-10155484.011354
-3789699.003180
51079071.856123
-10033911.749752
-4740405.137964
185705.782483
1183837.613720
-10901019.812699
-14954227.960580
-15099356.700456
-12551562.196799
111210.714008
-15496770.598930
19877679.673015
23714460.132926
-89347098.905822
-90575262.259676
13798196.038235
-87756645.465145
20375623.630421
-17498873.840444
-85757128.471642
-91398537.572371
-11102028.917605
43531480.519938
922389.478335
171060.425492
-83400468.110976
11763869.402172
-80536240.074252
-84677211.137651
-14556.284890
-291413.349497
-6016.709936
2707206.410088
15480018.256271
470496.063400
-15838.877763
-928076.619974
124235.284462
-9006626.331308
676.278640
-78089648.456959
16629.662860
34882814.895133
-96429.231568
41439248.037637
19237923.675017
-24507426.159005
-31598941.307668
35727484.821604
1953222.452929
-363160.783110
-9842624.625934
-4185452.006463
-14070511.074796
856880.266837
282682.933750
54622.957066
-12918460.864486
17161319.677211
55669715.925715
52540886.187919
33823614.065882
-29173541.052325
54262666.038623
12214513.692218
21645655.880449
54545800.038052
15358897.394079
-2483574.793329
22106904.419653
1258661.741270
1058515.697250
-3973238.372753
805.948131
4363.764567
5163750.291825
21541719.968685
698877.659241
-85417378.153130
43113766.912560
-1125.143425
-64902434.658890
30502283.300921
-14310654.738156
21640161.049390
1028.566571
-227475.783127
-12995562.021275
-61082.584281
677991.855203
23705144.480437
-87713369.971844
-17505739.414806
-71073883.314925
-4411.867319
-136228.062046
1149819.235018
82723.608008
-12337000.844092
8193250.924784
581662.091124
27923.693679
780134.812523
-2508.320025
-1121853.882231
8504572.547264
45521830.293365
10992.646149
287119.847976
5415913.504174
-17877545.969305
35533225.701448
-103129.365635
579351.566940
243210.914133
-70349641.480794
22322382.584467
101020.977038
2506637.467120
110622.420830
2881.744062
-14472050.783565
-13653196.895196
-683.487224
66227.672393
-17546828.353974
455183.036587
-16653572.659431
943027.232212
-164593.076540
116149.662913
8091965.681605
-274360.204618
43837766.495376
1135721.503429
-4956420.316505
-53487.694420
1279763.368563
10361.552074
-13356806.545289
12220.927931
23155652.261902
-12482.150099
-378275.037071
1083586.706419
-15973535.520572
-15974767.404174
-81616029.805112
-82898259.841971
-1764752.451801
-64800315.601827
-194.884188
31842646.860496
-6329518.203151
-12427273.728971
-12029820.526871
-123748.825290
16268446.002278
-2883701.393005
50454519.795470
38903956.752477
46333193.797872
42987861.740495
-2235354.287544
-11878149.150795
-7215650.068241
-41121355.829121
34878305.920226
6790346.152580
37568940.472695
-16427266.114105
43814589.021214
47457178.225873
2881382.582412
27347769.530512
45110302.427404
40985847.918114
-63269209.009549
13456.585860
-12952322.347970
1151.961324
-2088902.874528
76059.498628
-953977.610905
-16339.182862
-18341112.446119
-78681.354617
4842904.586094
-84701505.252165
-16242791.412906
3716.689561
20504451.863582
-533023.997675
-1641080.772780
-208551.642929
-2759264.044562
247362.613763
-15967056.077457
1333547.612899
2808501.804308
1185799.858003
20235847.645247
201776.658922
-6959795.680826
-16793760.923519
1594.248601
-16434058.934515
11636.355617
39875184.326123
-30844017.781791
-15252512.935691
-5917.971643
-4537140.605005
-5160560.758806
-11921318.299697
-6454.618533
-16921894.392980
-63573334.059650
306023.635076
14200.115872
20536307.316810
-64529344.294296
-15239154.064831
165751.410078
809468.926688
35359.012086
198227.403176
146989.373600
2194636.038590
-3968057.595517
22881990.415013
1571.279603
-14606.160310
-13549.799002
1183.010679
3265809.607763
-1185172.754596
21474109.129842
221606.270358
1561763.054014
6745.154422
-1183814.490970
748427.714018
547094.168852
-5632.690628
-81070.566270
-67341324.660837
-13191300.619790
1472250.916216
-2199090.232799
-778.287631
1370641.277810
9821218.229970
-18297330.673770
15860361.997387
9803850.073283
-83047831.566656
23049789.246544
8012154.586271
-4083515.740681
30956175.341427
-1805627.169799
-1408697.144814
171329.823592
1639709.818856
-29320155.815136
-87460.936628
-2651655.774891
-4873967.218959
-518961.318464
9661056.234043
22466761.192855
-1253802.271842
24270075.546750
33401.620840
-994190.949485
7563421.549736
56181.697168
-4156.683449
7792743.487546
-1747938.950617
-429259.646664
23968270.543238
19178972.305669
9245210.053457
9470037.804066
-1345067.859801
1014871.087825
11384354.133667
7028258.757941
5854731.741525
7308916.098270
-108431.765186
-11549730.854699
-110920.541836
-13071756.381861
8982837.862882
8673433.180739
20069081.182024
-54236306.713212
4387336.419414
26100070.481403
-935201.226783
1100371.800971
-5286433.057287
-13279612.405594
9555904.638075
9692933.734220
6742299.466525
6408013.106800
4408266.078231
4773308.259520
-59408974.588784
959.830290
-4388420.284646
1493668.880608
16447457.590349
-72893886.836678
2479621.382439
-2606811.490947
5380.620317
21070712.868046
-2920650.792930
-58461811.553662
-12925827.721071
-12637827.402800
6712827.912984
-1705911.067847
-2799072.280675
-2043360.478607
7726353.782073
-1297516.156739
-1209299.870651
2028244.711619
-165954.928364
3875794.952861
763482.599076
-59227944.872543
-46743783.497153
-7790.083747
538.241277
21995333.412852
-5651009.776519
6072206.756792
-50996233.885703
5720610.839762
5320651.089287
-50952525.961621
5846982.556389
-59560368.711212
-18537571.420569
19550311.776356
-6592763.807461
2992635.935886
-55861349.331971
6133595.023120
4266207.822164
3451429.820826
-49487191.345641
2624262.307872
-5255995.330051
-48760788.370864
-54287994.373231
-3881937.261564
-6742366.512369
-6453092.963055
-54250983.772925
-49761431.910917
-1531772.710239
-45677809.570474
-5842.065956
-5096067.546938
-1534525.903889
19402150.300602
4874506.456736
-48907698.605187
-1935778.032356
11178767.352979
-1793533.380012
-2110717.136609
-1764060.928407
-1673981.735918
-54153998.784793
-6443321.439230
-1645108.931839
-1784141.741402
-1323687.359500
-1966242.015877
-3070421.586949
-1643193.648175
-7058835.516642
-1961038.500019
9401170.818897
9223716.061676
-2467525.207014
-2056437.399262
3685014.174954
-1454106.259185
28055986.612812
17723046.839719
28243607.746869
5164507.455886
-1959690.156509
-2323435.671804
-45394818.153679
-42574853.355449
-10476720.319111
1886974.455443
-2143717.149238
-2662132.108905
27157412.484028
-6972103.464961
-2179193.558914
-7249960.222973
-8129368.062649
-2088264.068799
-2517371.425483
-2288922.995652
-1319457.364777
-5372857.125857
-1547671.990210
-889229.310378
-2942982.553462
7090150.940608
-3839097.544780
-2286475.961011
-6720654.545493
-3732090.315343
6300532.896561
-4632529.043085
-5714343.010586
-3046151.259687
-7559345.291361
-4513148.378149
-4337403.534081
-5412243.984066
-3939977.129960
-46058048.931244
-7672258.061708
-4105322.391377
-2519624.475238
5283431.993022
3500413.737958
-5272469.114362
-5886906.102268
6452964.591583
-5747591.785313
-4503135.849062
-7142706.269086
4925859.747621
-5076690.773975
-1375267.431238
5522388.958143
3196685.586161
-1445920.201636
-5009674.341439
-5488124.558374
-2097403.921945
6554055.404745
-8628695.346781
-2314665.218122
1516974.895779
3128712.733664
-41953326.914231
-1435626.477388
-2338023.374782
-6156266.398351
-7848831.714624
-1464960.842875
-1436844.359008
2685000.021497
-8276896.977025
5472990.157809
-1288470.219182
-15957067.409869
-1228982.779573
-12786406.892982
-14175477.982781
-1470080.809046
-44579060.821822
7425696.722221
-1452946.711210
-1263447.494954
-13159817.298420
-13651065.946426
-13973267.733768
-1375249.156690
-14909096.702416
-1252348.181465
1011537.411373
-39437930.690890
-13543324.678952
-13709644.097257
-8150282.383160
-14792267.383688
-15002459.734964
-13316684.573132
-14982781.484092
-14411441.532630
-41362387.562026
-1434540.886965
-14196619.656400
-45207512.099680
-42548716.157539
-13638893.938028
-1683420.745855
-35413868.813500
-1283241.375898
-26569556.691608
-27344262.046634
-8117756.533695
-27541744.451863
-15637065.230275
-34381313.815930
-32451814.966297
-33137534.605321
-31416638.235268
-31886819.056547
-30377686.252031
-15777074.964610
-18235277.126394
-30642843.195211
-18987635.262685
-19455651.381041
-18498550.263409
-17765316.755960
-17597788.841690
-17190700.495296
-14541060.523569
-15483101.601474
-1220207.341188
27251299.066263
-2745754.258666
-16408718.627007
-8310476.311663
-26692468.457740
-34462905.053468
-24944869.417366
-14994386.390365
-24623752.257594
-36784953.536448
-23979081.710550
-33471427.231554
-23818153.737349
-23087214.899433
-12492451.236716
-23069970.706495
-10211055.495874
-10502186.189125
-8376490.278077
-27075481.074514
-22272250.709858
-18123443.303979
-25483621.788159
-13210310.241905
-18562469.164349
-7148752.898008
-4715403.698107
-4433838.569262
-8925886.129056
-8021639.457870
-12220889.519879
5830526.584519
4540703.852084
-5164332.611601
-27566248.830665
-35602828.951035
1390840.461372
-14026627.005423
-9149891.247417
-1918642.707661
-6875050.228247
-860561.090260
-7550366.906808
459797.375789
7123788.804710
-2202670.209978
-20877534.311497
-21187368.111397
8441004.307005
-637874.197356
-10429931.387021
652502.793110
1790129.020952
-21754097.200509
-31889269.285637
-21535703.672307
-22381617.084692
-19355362.513653
1948250.673666
-18447716.877790
-20680458.108032
-17883943.527187
-20296548.131891
-19790310.819911
-20231384.504344
3125838.946220
-2060473.490558
-17005959.146338
3245532.411939
-19837415.520106
-16322505.529783
-18950801.662911
-12270799.036086
-13298713.969036
-18187733.942950
-14816455.662347
-17655950.523907
-18414742.693062
-10236881.461750
-14974889.620382
-15423592.628994
-18291474.847041
-17789025.252136
-1153789.425270
-1027451.774195
-16536381.442098
-15765074.652772
-22577584.162303
-16247491.937053
-11278488.073055
-21543007.227896
-18098895.342269
-17826676.284123
-25979161.411254
-26392458.929853
-21264377.505409
-8206632.205059
-14488017.040675
-21198317.494824
-15767714.934359
5796536.076298
-6191233.657529
-2454667.725998
-14146488.566924
-20885767.133270
-14122956.123295
-14948458.720794
-6856573.252882
9981828.443592
-21007407.022166
-15363987.652584
10806987.619918
-14093796.290596
-5659050.104803
9745174.878208
-14151461.475481
9710725.163355
-9589365.323223
23652013.638096
8314430.240160
12009939.884847
-3452957.159325
21877066.207908
-20317784.215485
-1291601.648798
10475150.585182
-14424747.599160
11677326.995175
5741229.006026
26347759.491207
-25080343.130460
-12396299.015891
-11439102.626241
-2166449.319433
4462657.732501
-27415533.212853
10248125.401550
-9372224.385309
11997818.182491
10478606.373052
-8073682.020849
8157299.670516
-20134461.284621
5578937.775245
-14143721.756143
-37910453.539659
13268823.342671
10078914.084319
-21603370.481639
4453379.682672
-10601825.239010
3168141.378788
9824683.956041
22949888.880149
7112084.018977
10471832.323093
2985086.451059
4280132.674969
1888430.242731
-7125318.523163
1697000.765979
617153.009626
10985733.328471
10098816.040720
9467685.141430
10271911.679849
-5944039.533812
-21699125.603412
-14134755.225523
10710066.273077
11743241.937906
12198424.863488
-14347952.485267
9526127.189134
8575803.766852
10959093.923242
-21486167.837070
25690439.509354
-22175380.366960
-24123615.499763
-3060120.135609
10614514.593597
-1887564.145206
11709199.034096
11210590.703250
-33835086.938769
-13403525.355118
-5720182.656923
-32815024.380711
-5518528.251718
-22025788.897815
-19084590.660054
16807206.022546
13305916.138382
-21683748.184947
-216456.883693
-16930889.579656
-19771814.215791
-19999885.464556
-17538285.122080
-20333371.069197
-19783987.158701
11362230.112931
-1659189.033678
16020905.118325
15008966.763694
-22374140.760175
-10969990.661697
-22859090.702930
-19958864.306393
354180.560682
-19466952.216181
25949005.515137
21243685.492835
-10125294.392598
-18771699.327701
14977658.067604
-1775813.144566
-41217387.655711
-11018504.865311
-20884921.155522
-38417905.246630
8635949.223575
8175528.464094
23770397.297976
-17966957.903212
22186605.148715
-19648738.669282
-14459177.636320
-16799304.981340
12443911.518305
-20603394.220967
9955405.874781
-20253845.218713
-27864354.208555
-18126889.521007
-2178952.748468
-8221071.648814
-20122683.716785
-18772885.666888
-22142382.441670
-22320926.983690
-19357302.470801
-19537182.865607
-19035643.484259
6878344.994591
-14255028.126335
-13499501.658072
24408847.635327
-9522300.891386
-19446627.895773
-7434700.342772
-12678239.792486
-8747955.982528
-14253193.226215
-14845781.735801
-63905.734265
9749483.767143
9594875.922683
-19155825.617800
-17875941.657404
11913723.058615
23576345.127812
-20302148.381932
-19276407.786748
-20491700.281248
-26776488.262870
17920295.262070
11140793.032832
23407563.139930
-20063803.186096
-19317042.296204
419242.882476
-13441601.946217
-18229133.537451
-19169531.726589
8382891.260919
-16221039.986314
-18700250.002063
-19172915.784430
-28594960.638624
-13239860.399397
-25614092.711616
-19185484.966604
-24707896.394743
-3317779.587928
10303397.204035
-19206410.391163
-23024879.977642
-2091693.019609
23964020.882108
27545062.309472
-19236211.053440
-9685485.141335
-9076643.612756
-18921293.559101
6960939.355635
-19785495.256686
-18535190.297705
-19272131.745174
-19763434.529304
8244377.481592
-17927327.486636
-23474565.527025
-844861.162635
-11856392.576714
-18526603.438586
-10042750.829398
-19166323.824840
-7878481.685742
26494398.676943
-21187881.289386
-15250017.300116
-7290325.306439
-19061376.078630
-19212882.467508
-19293502.917805
-16978576.474326
25086056.860827
51780.182764
28669002.460382
-16420519.367446
-19289290.528512
26580600.793112
-11524273.321336
18411688.781864
-30902739.359630
-19265802.787452
-15356745.944353
24578426.097626
-17244639.651258
-19784813.553135
-20976384.675543
23255792.441630
-12700083.528063
-19214075.930756
-18826867.250534
28462983.099835
20547975.365063
25430220.474551
-19608713.866526
-5421147.195329
-5203656.299039
-19950705.418765
-14562130.123560
25651409.105109
-20226042.583892
-19406728.323038
-19994989.709897
-17532983.388079
-18258651.758407
-31988781.231727
-18335328.328906
-14158919.831612
-14634241.075555
-17558747.513445
-16365524.593642
-19580398.117297
-19180941.591822
-16674829.546850
-15618735.818151
17349460.836296
-9429642.499723
-19124216.124561
-725358.762171
539667.010147
-16027060.164710
9903375.728553
-13950105.768040
-19223501.457824
-19186350.748329
-12356409.643247
17600188.184596
-16466988.436931
28589770.268834
-10705530.174759
-19317912.562780
-19898180.210523
-16810488.610058
-17921294.633796
-17864721.240729
-16845296.683703
-15259038.712063
-17208532.984398
-22474005.968157
-13822627.350899
-502679.635391
-14561753.438225
-11780583.558621
26024934.020637
-1677580.543006
23942352.811044
10251289.234130
13276350.720587
-19427638.070302
15521390.728284
-3210199.107695
-15648928.204000
-5948876.906495
-3185452.791537
-19090259.337969
-19220623.377788
25228229.373146
26229865.612485
-1976449.623173
28917255.043186
10525026.552041
15824007.430636
24661294.795087
-11870095.679040
-17825549.439369
-15451445.654544
-32452104.750799
-19439255.368786
14431194.357699
16148536.384662
21879668.658508
-16644231.745346
11582763.345521
-38563264.712294
-19705441.567449
20615892.571655
-19273426.745872
-18965771.776595
19368966.290645
-19247773.614003
-13860863.466502
-3739039.712976
-6496304.494171
29246023.858255
8282546.883299
-32687630.660464
-19112699.863935
30313481.691540
17049674.956581
-18550729.205826
26416862.622457
-7214197.719946
-19876269.716399
-19179690.353250
23130753.853429
-12101709.189906
-14230976.469425
-16520085.542992
-7376389.660811
-19296430.288724
-12872878.573323
-19225579.706440
8429194.740135
-21373803.760902
-15203118.610214
8238476.379540
-19265707.641175
-41540952.140836
-9192132.567770
-20353464.911538
-19817158.264516
-9782558.846673
30247316.922505
-13032706.719865
16831394.071802
13080530.568585
-14562281.045916
-12879920.824945
-19815046.873714
-8848221.646081
26834384.947189
-19049047.038456
-13577265.369026
-11619966.555705
-27039995.496109
-19370305.611664
-28424977.769500
-14735547.144306
-17383757.491301
-16113362.321263
-19397957.327964
8765601.686036
-20793630.276707
19122456.560466
-18669827.744861
-13038145.434780
-19156930.803057
-17440452.441244
-18998430.855519
11694270.208257
3555092.880938
-12563184.073674
-19823670.267968
19323719.341016
-19862801.698622
9862315.523025
-12194008.751598
-14999358.151076
-16294697.611649
24727731.814040
-19843481.862170
19572426.001398
-30555429.483194
-12544018.474107
-373330.530937
-3114524.401270
-19811093.010204
-12167809.546728
-4610570.641401
18221119.759902
-19153168.552501
-19679610.619291
9244800.812542
25643331.346221
-19273764.923153
22715594.879683
2959429.716756
-18130639.571900
-19369620.287626
31748588.056646
-19217696.456483
-27883102.489366
21580674.171799
-18211100.437411
8975279.473828
-30138436.489445
27069945.613098
2623606.070121
26554175.823974
-4316240.252906
-19440761.107083
10477556.646979
-19051516.080232
-4073514.624368
-13053646.032476
-15469092.006184
-9854324.619096
-19430814.460815
29582363.404141
-26591068.260911
-15358884.524055
-13982166.692730
-18999212.297768
3141538.582807
-19580728.548986
-30095247.673290
-22044953.199895
19741772.405571
-23721337.980282
11029226.700777
-19341070.937227
27096253.790084
-21004159.194383
-12346854.115119
-11533564.265547
-642571.428032
36005644.823667
-34258525.041028
14351770.748296
-13429733.529780
-11308186.927097
-15546693.337752
28256701.483226
14414911.980849
22679820.601362
-27311602.135260
-12716188.288099
-16240545.228427
-19338522.695574
28595220.398073
31112746.608899
-19111557.822835
30690035.339782
-9243381.243683
-19221459.298230
-18973579.109904
-28100989.942489
-17036991.619491
35988330.300607
-23670372.991871
-28726805.457310
-19553407.820974
-8030635.874289
-24646326.914979
17986843.289250
-19099350.809882
35114457.674881
-15986011.824585
7029104.221512
-8703435.643483
-26120838.194937
-19408859.554543
-19448198.829895
20534589.704236
-28749026.112175
12352449.001140
-14911992.915276
-19767207.466875
27283088.216138
-18882576.364830
-19802563.377965
-17712842.100227
26869008.100003
-479172.981981
-19784558.522441
22649380.134757
27724633.476385
-6330064.051731
-12153715.130900
-16191467.507827
20325158.566334
-28998722.615339
-18228060.315681
12123013.052925
-15440473.238086
22403505.135363
-940649.507605
31030060.378920
3582680.615184
8859249.523948
-35810580.313376
-4320046.679039
14881374.515210
-22813328.059706
19368654.708802
-24587815.857686
28005687.864105
-13923664.489752
-19345151.060884
35429255.217336
-30857842.807709
19194241.766960
-14172937.192263
-19663052.494612
-18922988.778665
21577409.633911
3447451.915099
-18433377.983850
-9538098.208885
-14013942.963432
-18932546.032451
23826017.216718
-24300555.499713
-19083485.477265
-27461099.561743
-14313145.358947
-17654159.678456
9051027.551382
18521168.071405
-19178632.548889
-14509598.299469
13958446.742053
22663464.032103
15855142.879629
-9863399.909478
33811437.394993
-16524874.448596
28758538.281242
-17761276.601227
-18893895.299327
-18041325.573731
-18260584.011800
-19877872.070919
-19818601.780600
-12779287.412424
34318169.615832
15657182.534413
-19857178.357523
10152347.638962
-18519021.014041
-19151054.894924
-19485445.667025
-14784325.120808
-18156970.809988
-18938769.845865
-19321562.479935
609794.245667
13551077.715968
-11682412.103629
-543753.887323
-25503559.828602
1960047.297959
-22008500.190608
6050736.402759
-16028788.786958
29479945.145976
31598186.477695
-19711006.012979
33101633.515040
4494940.092857
-15285527.206896
-13554488.450874
-6622292.819960
-12665398.764184
-11251900.224644
12646000.918774
-14277979.458470
-12743940.381139
-8832934.328490
-13729249.544930
24934479.731397
25377760.299158
22519842.330492
-19299850.360408
4483839.217212
-12774652.764242
32365503.029799
25933595.725240
31945800.380888
6950673.893262
32621929.308251
-13646773.787668
3096572.338403
-35120010.180209
-19278724.450293
-17565506.460728
-19536477.673838
28936364.218909
28716602.253523
-12696757.568584
-19839622.870085
-17191707.803749
30964711.444550
35703336.794530
28964558.179439
-23923569.601472
-21890712.126126
-19246050.405278
28829415.880908
-11949222.305722
24755775.546638
-19503319.056015
-10292503.255999
-17650201.877987
3204649.061150
-17123510.867110
3621845.521030
-21227921.073193
-23847788.656593
-18852113.463791
-16239638.920465
-9403425.108720
-25142270.660237
25636969.212438
825003.998294
30229785.794773
21518072.993978
32346703.823307
-19374213.360990
28807856.261796
-28944694.883547
-11436240.053881
-13503037.657903
-14640729.618071
-24803181.575198
18656524.759090
22093450.729843
-247141.549966
-13871421.507553
23196148.031489
5653654.255733
-16104016.635936
-17860773.445560
8564380.380328
-17397589.213339
-23193581.540310
-15593765.024630
-19145715.093000
-10504986.904025
-15885233.294165
20886499.286051
7572650.318711
-18993487.752511
9711171.976075
-23863195.290983
-33481564.259892
677348.164352
-16700989.269365
-19172405.007124
-20052040.704442
2765479.789160
-32210245.287586
21552245.989846
33229398.234465
-18715101.537438
-12519379.557500
2393731.488027
-9452564.610768
-14829140.640713
-12139405.231275
-15817335.390526
5288565.613956
-19451763.541607
-19691568.811131
-18861719.213452
-17493957.637107
2592118.454972
-19945215.584361
-17716387.614950
-8708296.420390
12850072.750567
-18656207.415156
22839028.196904
-22439891.673862
27908106.524772
-18643592.803761
-19409205.194209
-13967913.592855
-19197422.306692
-23866031.535859
-10986475.399167
-19453261.939410
22901367.171468
-18782779.200051
34354448.524686
-24153878.897531
-17359318.775429
-24896836.788978
-26898612.659121
30669654.309920
-18698817.385726
-18491638.503499
-18012550.487787
-16143481.103190
-4672564.990660
-18569780.594921
-24749775.533538
-19733283.435290
-27501358.536489
-15962636.021315
29442207.708068
-12714743.738800
-23809393.791007
2174201.872055
-23872991.932127
-19298230.268444
-17525766.016140
-19415390.285229
6939716.191135
35631241.738077
-17088193.360662
4349514.852840
-1358604.408514
-18628191.365984
-15097822.685274
-17331579.564382
-10253613.023837
-17246591.212403
20855514.492111
3758778.874770
-16595395.840376
-19109685.727403
-18013679.430036
-19006557.712210
15664899.831988
-19104199.573598
-17464128.451482
-9373701.662269
-20540904.263258
-10174625.913321
-12340523.513823
-19821927.766459
-15284361.699448
-11968354.232130
-17897434.505921
-16612067.804667
-18658778.889394
-6500798.333235
28456467.043647
-18996531.128466
-11624950.754671
-5713436.377360
-19341096.234820
-15854463.807907
-17431957.268735
-15667343.842879
-4956603.190411
-26719047.087450
-14752508.371933
-14764035.169824
17145824.181411
642747.468766
-32950108.317208
-34887322.597426
-11962848.783502
-13542348.332430
1933463.094016
31495555.389011
35740910.024035
-18811217.232139
-17763290.181117
-11375741.330765
-13056778.307536
-14165484.866794
-10211727.364718
-16553901.280910
-15918107.828511
-18044046.579450
-18882968.970170
-19265173.797561
29130664.047233
772007.521660
-13577318.692274
27005623.157281
-23172893.096384
-24826715.289264
-11186729.327201
23721265.205568
-11564315.816295
30996490.995227
30074382.256607
12238097.443060
-24102975.893846
31580805.794160
-14470631.033862
-17016700.350379
-15860302.033545
-19301684.330421
-11005687.437314
1927978.604333
33430450.403432
14494809.691467
750874.083887
-17248283.243879
-10112680.734011
-16121112.370764
19513962.487470
-14123173.308189
4569617.477971
-14638945.213375
22116954.245082
-12392383.913118
-16979639.802347
-16941626.408211
-10377294.642734
21363176.564219
-19428077.927551
-16975452.267547
-8389118.194864
-16300755.919020
-13160016.109363
910641.272068
-9291971.694762
-27036775.590651
-17862659.976867
-18730593.441356
-12439365.848444
-18420123.524823
-18583912.581902
18782726.852170
-18936475.124050
-17446968.515937
5445218.921209
-12811242.089275
-8245388.785591
-22854190.018317
22943622.391207
1212616.902894
-16430212.425615
9230733.416794
-18081673.846541
31688947.508197
2749910.176693
-19777710.445123
18861562.876128
-18398384.123397
-19425416.065674
-16188623.603208
-16723519.135725
-12797631.306811
-14248950.501558
19199806.582971
-10097125.993434
-14392004.482408
-17064360.936577
2397078.461795
1886396.191109
-12416366.618549
-19397993.776506
-32985469.102826
11834532.315771
-14241386.557357
-18916356.144267
-10203893.572543
-16904611.992115
-15132903.587584
22694247.833556
-17973204.204031
-20275998.977182
-15363738.021147
5420003.114572
34110170.177421
-14419945.537072
-19605288.715248
31902772.208307
-19759794.825028
-19732978.390274
-20834972.479863
-13109959.225737
-14184397.437772
-18232949.510412
-17106896.854220
-13409983.807792
-11519454.736456
27504428.648645
29612872.563608
-5230066.121225
14835234.123096
-10754834.991176
-369209.498321
-21241090.536259
-19093627.470723
-30420111.098327
22079961.472544
17690667.326434
1370443.749675
9241665.294982
-10857172.640453
-16065258.789823
-13173377.886396
-6788659.025441
23332615.810968
-8563260.478202
-10874867.300558
-11778163.315786
-8488810.896522
-16535239.393882
33730243.682925
24715569.818222
-25187312.096521
-19122425.063183
16190263.972006
31098823.218843
-16909943.696698
21107794.413016
35755251.812088
4727523.875165
-8379761.800723
-16535143.492887
-18855955.236563
-12754123.573643
36159737.115269
-17814568.277190
26023505.552151
-19948083.192182
28282573.384693
-19275952.658198
-17034954.736146
-16780089.978771
20294179.022769
-18658451.027568
-19676024.674899
29108085.581406
-23959131.750044
-36463769.443132
-19014471.023055
-19054611.466839
-6898606.289692
22731449.483678
-16826038.861104
-34557578.459184
-63897175.859537
-11960730.262225
-15560503.932041
-19357150.282570
-14487255.273698
26814063.434421
-10564212.486608
-11221458.099026
-1850046.427078
-2532399.335585
2789246.968184
-10678282.397819
-10199157.030538
25895481.956182
-18907010.694208
27490192.863415
7744514.919714
-17267611.773787
-16578314.374775
-11513551.494710
-18176490.623613
37464680.836042
-9939442.162833
-35854126.080254
21602323.666579
9023867.753004
-11233638.684932
4561722.366571
-7230988.919257
3912367.382217
-16511443.234047
25666388.452040
-3876215.848886
-23200774.944245
-17073583.524859
29932571.027054
-15054446.016330
31454141.673244
-16792956.419159
-18338922.658488
-12748874.110414
-17941052.634122
2959318.039833
7208125.929188
3432344.212110
-5912305.282451
-19405132.107609
-12770444.910054
33821218.788005
6487173.922888
424020.797407
28237721.360708
26829929.077633
-54978092.762657
-38938647.757533
-1752419.692255
-17058661.161861
-11800366.649081
-18206526.660509
37276704.513178
-16747649.683967
-15090418.154447
25757200.012781
-10405240.432018
32963026.972067
-19232690.424144
-19161939.823295
-17168374.271996
34283176.066890
-11443876.851450
-13393930.210312
-25613413.475438
4456063.755177
-19920602.591431
23919112.900033
-19888712.096900
-18433192.052705
-10434395.883490
-15917120.855338
-12817515.966698
-11646479.725182
-14894665.734931
-14955540.793985
23452348.096249
11880033.085480
-18659204.296406
26037972.699207
-15790199.531408
-28225223.939017
-10831659.682509
36169075.667420
-17302622.630900
-7774245.815474
19983436.571192
36229069.525847
-20023490.864742
22806731.973913
-13881033.694480
-3226806.735644
-17919093.708860
-17888327.950801
2868928.469152
-13289013.475517
-1492785.531457
6006687.018164
27135743.101894
29401139.999070
838750.707598
-6835827.015316
25938222.257961
-17023454.453164
-9951727.323300
-16878864.975146
-20575843.289931
-17565371.688541
8674337.017007
25219421.167174
-11429832.496133
21076436.619970
26758907.061474
20657343.170278
27642239.497979
-17495981.028689
-31709483.060078
-153622.748356
29471488.517223
-16984828.533669
-17515969.533847
31236317.629345
-18772639.552446
-727388.487523
-19146023.215204
-19318403.513039
-20793997.761430
-8651959.726614
-17052402.574559
-18421445.588921
-11001059.947880
-30007715.701994
29580310.666244
23160280.119178
-26048820.463507
-18276009.894742
5819079.010255
-12185849.009578
-6063083.742688
-4397227.505136
-34605586.305844
-7667623.888144
-19400372.575328
-16057124.520921
-17321479.960106
-15566401.581420
-18583915.580743
-21586015.777162
-7033432.396354
-13708918.586969
-16430062.127388
33795297.329902
-18126719.600469
-19285742.060289
-17163569.194867
34314727.687319
20458122.416891
-14992971.485376
23959973.426465
34906880.468845
-18132667.921639
-18916927.207505
-5834555.764013
-18856573.014012
2915703.859724
-13885009.009159
29569661.192458
-13703280.859700
19459091.116090
-18807637.910218
-9191645.254564
2273871.393337
-4596922.273662
-58022305.250466
-12188144.639402
-10819950.224793
35367408.326394
14535715.151992
-16880233.624388
-13987493.159942
6520638.138451
-11503963.174158
-32714782.410490
-17869752.822579
32412645.003621
-2524661.807662
44978.915617
-18075052.882651
-732073.243175
-37851727.076660
21826117.614387
-12985581.819829
13423762.933037
-17972511.575281
-11668556.561156
-17990428.597812
-17451519.746996
-17389655.908862
-19185248.191376
-21046718.554851
29552577.857820
-12607122.902492
-11811055.069762
-25938851.763340
-15098573.993580
-12877583.926169
-19223852.980061
-24118669.743086
-14731319.961682
-14934678.611317
-19317018.183811
-17105388.372989
20633368.984162
20792431.447820
11566597.364196
2198446.729371
27705138.614957
35514723.802883
-16093592.324503
-15773611.285500
-3291846.421376
2345496.004227
-18497328.490875
-18566851.602716
-11262194.243878
-5115598.162157
-18981145.216785
-1832211.155852
-18349268.484764
4400398.956798
-19418403.196860
-18202901.838287
16024749.887935
35151471.975649
-6909604.781071
-13952689.637238
-12435437.389147
26907140.087330
-1836224.332440
-8772943.891239
-18338481.718436
13450348.783870
-16856924.073016
23048386.503468
30594424.969745
26713835.386276
-10872859.073284
-16294440.682219
29098599.484398
31074021.808240
27645060.782324
-13874844.363835
-15586105.382556
37061369.008096
26100021.849648
35245947.488451
30404464.714371
-13773319.365017
27477852.364973
-1106874.945860
-15847442.367878
30121032.618170
-15612895.703046
28072183.437774
-17516919.740648
1592603.813923
-6682254.194801
-16019623.407493
-16321377.279891
-10052329.521121
-18821625.579550
24701737.490849
-18569050.401450
-1943648.766531
-19297196.142534
-18307075.921938
-17690789.790764
-23010914.806747
20270765.139271
-18197508.372171
24182183.473928
25125808.606599
-16283231.177079
-21855550.674550
-11615415.548875
-21074677.170915
22142459.328580
-19390687.184933
1490740.029403
-41046363.848478
-15831169.311972
-19057207.096533
-11224192.736160
20970613.024253
-15800640.385150
31104139.957619
8798981.910834
-14958398.945593
-19731231.375915
31066828.700575
-29645437.306953
-12688214.628990
-9935202.236545
-4505599.709331
-18375055.348462
-6710939.122430
-12705917.458943
10537610.735350
12489153.674802
34027480.681983
-12654579.846904
-4483257.020738
-18809520.626852
-26167870.663413
-19498917.703167
-19436945.151345
-17750051.025903
-19292969.969765
-16627188.925897
-12171283.744704
-4236028.716647
-18065851.270547
29306411.980788
-17335996.437001
30242742.355695
32199313.446537
-36311143.189775
-19858009.462421
14127455.468468
-18504904.032311
-6249231.574785
-10557325.920889
-14489910.457997
-17678796.997702
-35308093.887022
31484194.976157
8736688.924328
-18057176.549212
8060010.944038
23441702.231228
35809032.244482
-13049647.556807
19611606.163364
-3409450.085342
-16609032.583438
29955265.742935
-11232636.693849
240532.115950
26431050.663294
-19298110.900455
-6479439.056179
-16275901.366411
25728604.443497
13536443.584670
-24098592.005820
-19194864.202472
-6787379.143617
-17993922.455210
-2435092.735562
27108851.756036
33023336.239207
-4729737.863108
-3953388.087998
-16172718.266306
24814809.375809
-19899683.994042
-12494692.004795
-13533434.755858
2082645.692709
17907076.324162
37419781.758222
-18565487.528609
-18757212.779958
-19408501.799303
38141550.166094
-19442893.127745
26728179.502115
-21537659.731071
-9356722.202632
27551311.842883
28521418.940534
-8631288.677439
13420624.447543
-63820118.835598
-18613780.628191
-11043491.090479
29116268.225380
19704636.445234
35371730.615951
20733016.515206
25582791.303678
25959708.457965
-18293262.658850
-19679092.132627
-30934562.212733
-6299577.382503
-15961578.011821
-19884902.256277
-22150758.989154
-17699231.592680
-13797910.798387
28483706.486355
-11639435.600161
31526532.424526
5768053.783002
12373221.428781
-18079906.370671
-29288045.957296
27438183.172663
36739963.506324
-877646.751212
14215941.770631
-15498076.486325
-11865750.101975
-13240118.745036
-19554707.241160
-17767850.173760
-17939101.778782
-14777850.370382
-18842231.933012
21232470.584469
-18224658.793363
-14638149.653916
-16253001.469844
31675005.266782
405371.982509
37141790.901714
458746.234931
-14451729.256815
-18067595.819202
29096742.115448
11164973.283734
-12419781.550145
-22699726.993960
-18633774.824378
-18518319.195301
35901223.252224
-5219840.032895
34306445.076335
-18464934.591762
-2219542.694213
32785579.589247
6662605.840147
-1405295.432439
-19484355.077306
-19031360.021573
28234458.519832
28613759.751734
29398953.286153
-16624250.705857
-18975180.612337
-1674265.530071
-15276607.491840
-19385911.492461
-21000383.241622
-24728688.368674
29645576.743956
-21076057.933434
-11614397.445388
16039365.248114
-29139873.651746
35872375.710544
29951595.188904
28445341.258957
-1996653.144923
-14171362.853197
-8595202.371320
28589130.299008
29053266.009686
34101809.331051
31524122.799166
-1321109.042124
-19427613.155370
-17767239.820357
-19183438.326375
-11303966.049752
9471078.094330
-18932743.453804
16635242.039876
-20548895.818233
-12189378.127348
16288133.554514
-25632970.807350
20237787.486382
-16640804.016107
30600173.201000
-14630051.043527
-6011137.867060
11587773.792286
-19823624.540051
-18605218.180325
-18020345.833868
-15653257.173080
-4440206.477424
-8633553.177903
-37172093.322542
17185916.762946
13320599.904370
-16825768.873926
-8860210.311921
-18668053.956312
-15950917.522547
-18591068.455564
-23566745.548741
21483399.355558
-18498834.862247
29173432.522371
33779167.580935
-22204963.980710
13695505.927393
30266181.377875
-14055370.142613
-7547693.293057
-20981267.949944
-36538661.155646
-11399839.528561
-15932317.994101
-16712120.617638
30272717.944781
27955296.192411
-12086637.735001
-15325525.379564
-18045204.190018
-19309220.361743
-19554884.450738
3368977.334642
-13989906.611805
-17993754.083924
-16433724.497572
-13901931.748685
-15523011.410345
33114382.118573
17108029.159320
-18373988.468068
-16608287.922277
-21888408.673186
-18253443.054562
-10450637.494409
-19587525.448961
-8244840.861241
30912492.848040
-4729717.981594
12746837.053846
27675258.234957
18083084.334587
15939829.421779
-12999692.011652
-13323747.622441
-19406473.344596
-17996876.384347
24901692.254387
25875172.966002
36409794.601582
-19778553.087076
-18302954.865453
-25778185.512266
11137522.400945
-6408347.730545
-17913003.823538
20822151.595871
-19102039.161465
-19459523.267933
-15681585.231380
-2569682.377633
-16259469.026145
-5694521.782702
4907952.777077
35269687.683555
-19042648.046841
-18169930.642222
8102703.738056
-11962684.843143
-18913617.127195
-18170807.565251
-5319662.389363
2375427.024289
-18954772.798137
28862632.363821
-17806102.100303
5673745.931562
-17801768.678968
-17337119.160977
-20070064.973769
34940201.680431
-14987460.219407
-42390763.752030
29902895.348742
-22619419.294006
-19322776.381861
-17338481.613348
-15721187.409629
-15095327.480582
-19526885.073760
14529782.389635
-11930444.884971
-17243195.175757
-200423.268710
32785932.619037
-336613.211306
14540973.439798
-15631785.290661
-25317961.186907
1589092.990033
-18211268.813708
-19084346.982770
673387.466444
29735524.159565
-41577263.276673
4328480.936460
-15176937.729384
-18534637.961331
9872578.192651
-15890612.509779
-21854104.993120
-3883804.095331
8561202.186357
-2866757.853694
-19162615.919187
-40129477.201046
-19441511.342241
-8252872.518068
7491208.427100
-8317262.247584
-6091802.337716
20226836.817257
-18546673.751086
-10391398.768486
8391400.132826
17972249.724950
27417427.001228
-17560423.214336
5767500.198388
-16643329.808333
-13807955.823454
-11262663.303310
-17938869.963950
18416720.188683
33424460.216735
31216130.549306
-12872845.341217
-16491711.793718
-14126441.519177
24929205.828943
-19449816.912747
32447358.337281
-12158257.385603
-7983485.231887
19835339.259904
34526490.752523
32010877.823477
-16637529.363447
29349054.012823
-14893554.539822
-13403931.736443
-18107423.888392
-18494772.901671
28644259.575949
2075588.593292
-16796471.875959
25510317.207829
29062171.221791
-8184288.422644
-15983497.406520
-19443991.280867
-4340728.860170
21646263.691697
-21824395.343863
17651025.978547
7287406.198430
-16640552.595965
-18644949.917500
8991358.159191
-18434591.843997
-1066802.082072
-15761399.335940
-15569559.883309
-18770857.912096
30330278.695647
37513842.882052
-9640851.980671
32492857.927456
-15626160.899274
-4846995.068388
854053.614895
-25680155.884785
28295625.586891
13966320.063535
23700783.182181
-16849460.923748
-18379295.940639
-18309606.373018
-3261458.892620
11514483.913726
-17470568.434470
-2356137.247031
-8572595.486112
27866664.274395
1815202.652417
-11252426.867688
7476881.274133
-268437.082444
-18513723.904601
-13199626.808007
24334921.369834
-2887710.222253
25077333.589290
26831456.709554
-12723648.669407
2939788.502673
36082374.891097
-18039702.405963
-3938959.623844
-1878745.560432
-8142587.051714
-14002327.541170
1922376.726382
-5693355.736654
16603131.500625
-2323803.453669
-1838262.487393
2734317.098615
-17621314.349541
-10550984.034069
-15050764.003404
-31381076.731294
444337.488995
-24868152.468617
-2945666.938536
-19104125.425708
13656981.574546
9452289.068022
-8102196.679901
22131561.823560
-14885962.155568
121653.290707
-13948386.418381
-17303896.899650
3177178.465084
-9281822.644391
15775251.886035
-17803723.298427
-14596993.344015
-17543343.107952
28047027.805502
-3675023.153080
-9857697.504912
17561458.360283
4921117.415528
-10351817.830781
15779393.462523
28868810.115674
-15623440.143424
8241869.763306
-8023004.716708
18178794.336871
28716657.494720
-14414535.550055
-18376247.693051
-18212119.223490
-522427.697964
-17674581.471788
5549522.925576
-19233715.670842
-28986048.729414
-35004051.011148
-17158775.875779
-14238487.769155
29039996.364124
-29694962.538110
20979979.050468
-17928733.944597
-6298765.569306
-1928203.916898
35237186.041375
29420935.841235
26642510.225872
-22725574.953825
9157398.100830
-15556396.290859
-13605504.458306
11960030.235281
-19084124.064311
-15592223.901725
-18974497.799572
14375228.832149
37030014.423201
-12174349.000524
-7517650.228725
-14940727.316391
-4190465.437767
26704515.736309
25764976.273483
-41189265.945357
-18946199.424339
25856155.665762
-18700836.763859
22794164.006913
16316854.474512
5167421.525757
8275007.829079
-17510812.416953
-7881497.545145
-14050902.798513
-29917330.877272
-1964408.734055
-1774093.305850
15629217.165586
-21097363.611078
-15937858.815437
-18790174.381128
-12294197.723076
18786530.291548
-130680.630311
-18607350.902494
32136245.594465
28700698.211816
-8307682.389708
-19307624.680866
-11415683.427533
3227997.685177
23240577.323144
2388893.026589
-16224353.506940
-12124389.277300
-14330019.438206
17830692.789893
-10305333.766777
-11190413.009402
33876931.949761
-22343737.339032
22538585.174725
-16992966.394436
-7028235.963593
30225331.496107
28875392.629937
527069.806174
39402373.809834
5646875.866415
935510.732620
-9036834.950002
-18921764.891758
-12672964.454600
-12422677.248909
7310260.732160
17404866.101804
-839502.681839
30544923.788894
-32913153.425376
-22847846.165102
1074954.160137
35139447.140482
-19532395.976524
-16973529.676019
-478671.714804
-6925432.939731
-10041351.846595
34379835.289347
-11869919.381325
-11530727.335077
-14310546.891421
-15005353.914863
12930219.135598
-13565590.124144
31963389.032017
-18179497.322888
-37968924.408644
-3750341.317493
-16796123.199015
-3252731.988090
-40604123.947895
-14599686.490170
3921978.390205
5450651.570298
24112610.826247
-19578873.272723
-12662383.167698
-7472265.233331
-44468375.202648
-40407403.114297
-14418668.463321
-19359638.168971
-17071304.697660
26950429.955497
21617512.613972
-15508993.070595
-14418381.487330
-19734147.037108
-2313530.405133
-19406325.780843
-16938802.384567
-17470800.254066
-2973798.393118
21912969.679166
-14822065.536604
-25881533.744904
28400595.565701
-3008112.775424
16055983.237627
-14929194.276944
-7959117.813075
-19273208.731826
-26687071.887171
32787218.224829
-19290434.031389
32545921.728930
-9620470.307489
-25197970.226567
-9671213.821331
-19086441.668327
-3931598.236144
-15769925.253379
32326231.146323
-9899136.674261
-17452323.346708
33839688.109496
-54924054.122186
-10088313.770279
-33868771.991696
6631863.896691
32905079.373933
-7194258.426315
-6530712.081119
-16304730.304406
-21071487.730306
-13546129.987689
-15550426.104267
-18540594.372246
-13385275.278971
-17846158.670337
4736387.789512
-17442033.216710
-8340020.977382
-11502249.693364
-19495369.915489
-1589279.526390
-13671369.840250
30301045.639199
4855831.530193
30548711.456636
4640216.510762
25872786.095479
-16393836.110390
-19085410.949211
5387066.377483
29199817.051822
-18442889.606604
-6419393.164588
-16662875.849212
17980132.139119
-13023529.983976
36676424.013645
-16868144.840922
-18459668.415812
-8623054.114048
-35868704.089113
-19046988.987418
36722485.339611
-20119822.616741
22646025.127717
-17909072.594742
4945867.625299
-1495058.807502
-16934250.402630
-18864519.218407
-3883010.236651
-12436273.505271
-19313305.558374
-12289125.769844
21139728.875261
-17808758.656394
-17792248.877445
-18860743.093786
33067661.816753
-13964531.467241
-4414392.308278
32702855.583849
30811964.875170
-45025730.305797
-9415974.532582
33606104.119701
22194791.372159
24908861.213874
-14708723.791389
29445679.330107
9444685.551147
-17859079.662785
3129690.245776
18448720.810265
12959596.806473
-7056526.567116
-11922097.180784
-19267301.640994
-19243564.162438
6285499.011770
-17368764.751198
33481858.805541
-18091782.686894
27980534.979852
-19336850.606650
-3729099.338623
13198391.920284
3783999.537008
-16682706.134071
31003619.343439
-7484387.982534
-14247195.797056
26250112.137045
31866208.807267
16193603.621999
-6141780.659082
-11191920.318024
7484235.567487
-1789862.157369
-19962577.794802
25340705.857853
-19947689.782375
-14973332.141045
22950587.529284
-2010247.216293
-13497480.295901
-44298307.549452
-1492130.812701
-11584400.456294
-35482505.642226
14421454.169061
-15744109.307279
21574042.013780
-15624023.442897
-39085509.131660
-9424022.409034
-16823027.633810
-15770190.261380
21887184.015103
-19363156.954539
-16645780.386000
-19796420.095030
-19204177.150238
-29864416.393243
-16039016.735850
33579904.884781
-24506399.010261
-14303715.475427
-13856829.707552
34779682.223195
-18810851.120206
5856125.548246
-11196976.208005
-13400747.908423
7702502.154171
-4655791.612377
-19005982.086679
-7448992.785087
-16587938.840516
20090146.415451
16091431.471150
-51498224.801272
-18301946.738368
11591892.639632
-19382272.953907
24477057.627488
-12967299.908417
-13648934.192710
20866203.330456
-18210888.631218
-5161497.658861
-15542072.422356
-17208330.058462
-15713736.909336
-7567619.112272
-14946475.736110
-33798065.154146
-15775267.720453
16824912.176377
26455534.370136
-23921008.897001
-167935.751210
-5795953.359027
-17415437.270890
-16861898.848643
34026928.223221
2634766.499768
-17654679.880983
-17367131.704684
-19290330.527223
-18011165.708662
-16021513.164170
-25439493.082800
-19221234.965557
3675020.713418
21813544.601927
-13524867.691862
-17091873.218468
30171752.316260
-24337240.259637
-11636870.403754
-15267523.540062
-9233557.282237
-19006146.511170
-19210739.959339
-19860651.462438
-19626208.145679
34842300.887764
-14395856.890132
-14032296.343936
-18759283.421909
-16204020.417502
-19049381.799053
-19524811.171756
-25440260.122093
-14793766.169553
34163841.712486
-5231927.657213
-20884829.367689
20677138.659605
-27032429.426831
-13687935.391649
-29042295.189111
-35735424.515097
-50034552.779816
23254866.344431
-19326841.942037
21897565.860338
-8956781.896215
36163343.093827
-19083877.771385
-4664322.486447
-3808194.932864
-19387178.310963
-1934897.223944
10739964.957359
25132642.092312
-36753571.750918
-24348617.316693
-10769608.304410
33452527.966932
-15612501.943331
-23887601.978601
28953353.731363
-2464222.757603
-15670553.425975
-55395134.252824
-4936036.427607
-26646638.834035
-17634316.934812
-20238918.373754
9113004.710486
-13039845.174332
-15073284.189679
-11511391.926324
-18725235.846440
-14234484.591942
-8488472.347491
-11550226.985764
30223882.533420
4766437.842122
2132159.300839
8581679.017336
9876673.668257
3745418.336229
-22731716.470499
36563296.081024
-36187697.296606
28137751.328884
16904857.142678
20558158.853709
35331964.025086
-22357429.378270
-18909308.845459
4083407.489595
6946747.611475
-1981642.682596
-12553237.503213
-39561515.328071
-16132298.859567
-12277181.185791
-30595907.866464
-2973978.753041
-11768602.705489
-8387932.178743
18245718.760339
28308570.877027
1795642.713237
21677834.681059
-19585543.498203
-18165079.506052
23013721.494122
-1389862.471550
-20038509.354032
31286528.469913
-4641244.220044
-6714575.536053
-4950948.737760
-1745424.449825
-11290782.525896
32301344.131110
21683154.634748
-14768877.757514
-11463792.837919
30644612.032574
-22785663.597442
-3366999.424174
-25742930.558393
-11181217.659931
-36186009.433667
-29222610.240097
-14112341.199717
33132304.327945
-13880557.945974
28195398.173719
29732349.360332
-18352781.270818
-18739505.627088
34359153.076398
-13091433.558879
13993259.951954
29455075.694090
-19333990.933337
-12509753.462317
-7386773.499499
-19210382.934018
-16969590.846445
3489652.071674
-18755377.303613
-7024983.384498
25018220.545948
24372735.598277
10864031.938987
-3932118.226066
80486.889508
-17542031.725014
-11633432.803829
433879.595817
-17058151.232899
28406751.421351
-23132779.514123
33088105.987232
-18049480.950869
18908928.972165
-12082332.519979
-18009661.758562
-8645769.417595
-51295373.388094
27060619.480478
144192.334009
742616.182612
-658853.188463
-16549853.567970
-19390573.942014
-17225175.422307
26307160.450312
-10044186.790118
-15173819.713044
-40935393.166677
-14402350.960392
-12580447.866926
34754509.301452
-13428545.502030
26744238.124265
-18750373.830401
-6523465.811703
4042741.025510
24714797.430818
-21923579.905720
14578471.026200
36412442.389202
-56493530.840842
-16127721.734324
-43584263.554905
28300636.869341
-13020592.143854
21528543.375460
-14069767.650798
-14392145.565688
-15249839.184852
29735696.906299
16838479.175825
-33638200.637525
29191770.559280
13806430.839200
-15853682.006528
-14079238.705044
-14249378.010852
-31810668.969052
-14870678.542137
-1422275.702261
34264018.798698
31320968.309953
-42794849.592671
-18175654.714639
26568192.545823
-12570792.822004
-28928890.759471
3368241.809604
35033237.843842
-16017405.730804
-671654.889194
-15828431.859337
-19333834.477494
22984562.991164
-10751117.161862
-36253964.897208
9913309.079328
19316043.827310
-18125883.545996
-8520995.199418
-19492832.708557
-11021891.102728
-17861885.431289
5393768.889702
12854521.216044
23973186.783460
-14437336.265515
27507266.831125
29099211.889835
-2043440.127398
-16772263.833743
17986985.522414
24079482.901133
32949586.945437
-19183616.649458
-17318859.505693
17965486.707685
-9058984.703995
1127878.655597
-18824747.112817
30213204.573735
2105903.929545
11331404.799413
-60772526.384250
-17413024.461975
-14932107.881205
16983051.633583
-15041602.455806
-19611075.516049
-19684263.934249
-14185188.512841
-35647619.005441
-17234335.332647
-10243843.763965
-12050357.206808
-19463746.103455
25324358.617125
26613311.107790
-24809251.450229
6297468.392424
-18531285.438505
13666531.422696
34170682.613063
3110430.805080
-28090188.966474
-18674818.984182
3286682.767378
32711579.978847
-19905625.954890
-11590630.810016
12535547.498325
36852981.017768
-18515851.399734
-60105756.158051
-16520913.677806
30234934.205984
14998033.955421
13122502.192576
3313789.529732
35284109.087784
20830743.560855
-18689193.103032
-33491385.525078
-848925.528910
-2974933.916200
29517154.171337
-14213810.233525
-18058630.050102
-1742297.831367
-46141445.647495
32824942.264086
-11289602.701804
-19330466.241491
-13674686.710466
-5996975.885519
29744826.387323
-13209040.157049
-12326352.756930
-3274108.140147
1491149.168090
7836052.561152
-14944360.074876
23459089.920575
33927641.230561
-19363189.687681
21610814.647368
2028236.108304
2308666.655877
-19152682.207449
20434115.717499
-18347256.829181
-9518625.740270
-18113293.284205
23995762.585960
8869526.219943
-10741241.770365
30040622.095251
27475381.476514
-17259462.094960
2898572.119391
-39190570.035696
-9825984.401859
-13007156.781512
-13769628.977536
-26113565.025834
10370879.608268
-17083602.221249
-13171665.652235
-13458877.414004
10695555.741412
34844040.014726
-14393652.137475
30090041.809633
36239839.348619
23656662.722348
33750954.192321
-10067246.382710
-4995413.246563
-12948794.785263
10719666.755840
-9819030.192186
-13243693.520075
-14949655.625475
20128485.709819
-1271724.425135
-19113307.781566
27203399.010560
-7814200.714459
-2792277.259177
-12165421.047763
31417218.399247
-11539351.135282
25022366.166877
-12883111.834783
13891516.484178
-3047554.607907
-13109632.613613
19801883.702191
-16667276.393466
-17940478.413892
24858852.099000
-31642369.525195
-17576813.874940
28558260.769204
7297296.560289
-19986548.244718
-70568856.685550
-7819539.608461
20305583.442741
35317547.241634
29031810.651939
-16225259.255685
-11145285.652525
27726734.040842
-19161885.380538
-18720240.963060
-4104902.511588
-10499293.059604
-11637518.172810
-11698583.394122
-31507967.500964
5307919.265596
-15417444.587134
17244920.169317
19309411.825240
29583283.713887
-19335374.889829
31723320.384325
-17116517.601015
-18326107.989970
15679672.322076
15646070.130643
16683378.391900
-19391377.344967
29674379.322274
-21765223.874333
1603239.899679
14626711.365276
-58257738.470070
-16546611.631417
-16926637.921154
35039376.201156
-20117003.235648
-11050750.025412
-17828586.523362
-19622694.380748
-16459559.863030
11294595.002175
-34813196.570938
-13120022.540984
-17285379.943206
-14442566.397466
-14626192.232664
-14721635.199888
-21047635.494954
-15531864.759823
-362393.086602
-19266952.039802
36446600.171886
37413343.438583
-17599968.779154
8189937.038623
-15866209.482310
-1524555.605985
28375979.736957
-22257182.311017
-18569650.257895
31241771.398358
-4029218.604301
3873206.644285
18915070.383345
-3050820.905358
-19680457.946719
35984656.627661
-19313534.132599
5888660.384346
-18775592.606038
8001112.441559
-19186399.874005
-18246338.688426
-18064366.355929
-14384799.514583
36458171.665204
33037997.504624
-14280894.042269
-19303584.032698
29435207.143948
-14867178.560461
-18525589.841623
-8995356.719617
-17435925.611449
26311246.997742
-16188131.399193
-17059414.227247
19881158.446133
-19301521.021880
21239363.664240
-25309266.331155
25701466.442992
-17895737.655880
-11484265.063003
24892199.808267
8430088.945282
-17455815.717001
12336558.838283
29212078.959394
-7177847.870100
-13159934.902088
-18497686.918077
-17493180.978608
17780028.196169
-14786066.183943
-15153475.575989
-16831825.099550
-17267774.324628
-17155563.197756
21127695.245966
-46911467.701193
-20410145.341024
-18204428.133362
29359574.708000
-15256000.633440
30195755.028836
21057499.714790
-17776967.557456
35755995.159361
-14686985.464290
206291.308872
-11947034.095215
-19371694.165239
-17839850.437389
-13787110.733655
-12618938.876072
26524500.708379
-23669247.716886
-10551636.905828
26590633.403116
-8373219.772004
-19127913.573084
-18214726.518905
-20870115.382133
25684375.961028
29894078.553204
-18443439.332925
8474146.375423
33378475.402360
-15015281.626250
-18376763.651614
34414011.129082
-25006123.277308
29248223.925166
-28229050.719143
19085894.850533
16871091.828555
-12893213.958571
-13213552.701996
-17730550.643399
-20679962.234073
24616508.512508
26093079.990535
31235792.973690
-15196079.574043
17011625.996282
23176344.600945
34690025.847646
18411534.546153
15984567.141491
-15472099.021415
22851609.725787
-14458648.425612
-23610777.885276
30889840.764104
18499140.039944
27743109.066726
29371157.277419
-14125423.621631
-1377267.963573
25608033.396134
-19357558.629833
-12490307.155434
24321657.149249
22578763.383399
-9938638.982217
22873874.609915
-1390669.127465
-1479615.414995
-13934147.505012
-18217325.040847
-14684471.907795
-18684831.099299
23421695.724614
-13189112.029889
-32980872.063439
-14812645.814250
22302926.254238
-6602442.582771
27807394.369078
-33329646.733431
-5571653.399225
-19274251.134670
-8750927.420971
24935550.490494
35431138.028320
-18146643.112995
27659622.966972
26284158.665809
-18803298.206711
2537701.414144
12673573.053398
-13917803.210917
12575005.879576
36691702.799476
-9362574.904760
-11386526.884261
-18260244.586906
4091372.030152
5757106.547536
-19734251.985181
19156811.402521
-15635222.691647
-16505052.297142
19688045.785867
-29237133.672632
-6475408.400551
-16884484.653158
6552390.457767
22343502.002137
28145081.611425
-19802154.850888
-19013774.545516
-15518479.705637
-18671578.246526
-16249787.645495
-19370318.869098
-14853744.909562
-2917648.405759
33528975.770134
-16581872.107017
-16156799.809080
-19432179.339230
9311707.588890
33388696.128627
13507043.338134
8646655.308648
-12083832.425637
-5552238.630398
24986165.100537
-15511148.173298
-46544477.975355
-16034722.058252
24950542.120999
-15732331.900614
-19251910.948514
-26947779.465231
-17791988.089270
8747796.106144
-18477455.804374
28211866.012312
-12575740.716916
-10224593.256202
30333002.101764
26670417.917094
-17423312.793736
6304391.924139
-13725647.803275
-46273685.595683
13653002.648267
23842762.659463
11487009.144877
-17214378.038276
-24616646.155839
29103207.330596
-932478.084442
-9748973.907204
15904509.723126
-13090456.510307
5147814.843413
-15598800.231315
-19982462.701019
-9234321.148340
-11282329.485198
-11093208.354138
-16556178.018682
-18408206.740475
-22833366.768674
-18791091.685525
-17652951.286820
-18866310.845780
-15140480.429943
-5429063.195958
34905491.187642
-25744242.561968
36754378.432687
-13875328.591744
-38537839.439187
-16501555.527889
33852780.204860
-13604737.205271
-23565644.348318
29336470.671439
-11506881.435465
-13381809.661651
-19448639.274227
-16987364.043853
-15883842.609151
-8768983.804375
-16617047.445665
32784894.681711
36518933.087352
29385256.743320
-17056035.008377
-16468659.265954
36753204.548499
-1694930.531843
-12173695.169181
12761620.877731
22207128.974693
-19268551.875159
26125320.469788
-205117.336451
-25781099.274227
-18243383.248934
-2405184.996796
-5815353.049916
-17119647.701288
-15030528.794016
-12372809.954436
-16777898.277181
36971839.970733
8553697.552664
-15036707.090145
-15443886.002902
35307241.955829
-17933915.463906
34722939.551014
-30696712.169618
34681285.667757
30989243.800061
-19499628.151264
27660389.184704
-13404202.098232
8339922.972733
-65562564.381369
7365502.362976
-19276780.606746
-17773997.159286
-14936707.637475
-14451778.354393
34680844.004976
-13486827.500267
-17288584.672988
-18955385.512641
-37249523.423521
-1401480.295367
-9738666.105410
-15437708.380672
-8717256.264523
29277810.229115
30131233.823231
-17035954.032387
-15244358.335886
37181569.457954
-17273284.201225
-16850611.242356
-18567189.020431
34068125.099219
-15245631.630673
1671229.837754
26033665.157308
-23337335.755746
-10173750.505761
-15886837.557192
-16488925.266232
-15780504.412140
-11771999.433971
-17211939.812313
-26575095.118993
-19436015.875964
-16322021.372759
-5351973.827970
-14381198.981467
14661576.724542
27145841.468759
17334678.718383
-11991144.514139
-23697412.194454
17890345.806423
-10808642.535249
31589093.922294
27690554.401714
7053461.627610
-14091071.993073
-8732081.880628
-18517999.146677
-14983556.397202
-18920399.028861
-11323123.882145
-17635043.019446
-16911122.008509
15043748.544025
-745035.167584
19022195.930561
-19347798.606448
25836932.157941
25900319.153889
-18547129.831259
-13577729.736661
31639630.436128
9023736.772257
27417427.969106
30990862.448871
-11869437.894850
-12454402.964022
-19346733.179625
3954637.457880
27680833.139050
-9529289.790057
20587755.944121
-27923246.259789
-19275141.824764
-15550407.115925
-14887563.462183
-19198822.720463
9349457.904847
-12362402.922914
-11759279.653425
8491592.018170
28725572.320653
7012609.391596
-19572889.478001
-18552169.949211
37421381.593836
-11952299.339921
32140109.833798
-15919760.953209
12402365.854398
31668966.584732
-18659253.813093
-15407209.622941
-36155958.358310
22794844.589802
-17616072.772881
37104387.171686
-15023668.138142
-36133086.251852
12152636.988612
28916919.030998
-43423781.534961
9012765.888483
36550896.834323
-14626824.581992
14135700.900729
-13301204.437315
-21968456.181029
-39054283.494009
-19382341.363598
-9943620.598434
18004402.249232
-16610708.343036
-7270119.399009
-20298880.539292
-15735671.182802
-18947906.247882
-19489290.981048
-17524516.779586
-27377502.656531
-18741963.389071
-16931944.034950
-2121556.657561
17068599.462281
24006158.361030
34103635.432583
-18922194.316964
-14279308.117567
23592548.834173
-27602151.272747
-3337781.065571
25890788.734146
-17773910.602872
-657055.063893
-13616963.980118
-2506727.968172
16318051.167901
-13887015.177435
-28546935.674892
31627539.563492
-11318348.648000
16420919.885799
-17339203.271078
-9086980.181872
-31649401.990828
-17887951.840711
-28413022.633812
-12737313.692523
-4517903.700464
-18396410.211758
-17402369.679248
-12125135.038738
33008130.651282
-17170682.962315
-25635745.043146
-1522648.963114
-16501125.371548
-12682775.055866
-20927162.565596
37409450.787452
-13317533.669408
-17766389.328949
5038182.580291
-19769562.619174
5144858.832126
33660503.511566
-630905.961233
24038263.377657
-30394064.617016
22471762.964036
22584301.827084
-661976.589443
2856374.108650
34409826.420057
4333848.875071
-16702879.847367
-1581758.180729
-725129.666057
-15497201.271523
-18659101.347927
18164920.346368
-16991314.195281
-32162401.304256
3755037.741342
-18622424.777531
-9815994.462314
-3016594.249392
-19278821.653890
-9083320.658378
-15254628.932794
-15464437.917488
35663202.253578
-11742507.470923
-4737305.455919
7540565.116074
-17986032.670638
-15567091.257073
-15354199.746948
-14229641.734817
-18545795.705647
-9589719.590984
28665524.419572
-14675232.807617
-50745001.910263
-26188522.701166
-11504819.485573
-17909964.629472
23309370.465216
-17786927.006883
15686495.781250
29344056.952151
-16300352.723974
-17138878.779801
30521466.382656
11730912.116855
16547735.419225
32636552.900736
-15780271.007004
-10380000.374179
-875027.933516
22650460.417792
-10026004.767182
-21997137.994477
-3848638.480223
8122854.493311
-17659075.937171
-4001962.433462
-17114270.397193
35881087.956569
-16912074.001404
6310044.727360
-689447.005970
-19841339.618525
19356237.893103
4465436.741241
-18693290.672062
-18439133.992372
20005002.912858
-55542723.247209
14016411.515300
-1628446.552955
-16705477.551860
-16544115.814201
-14157773.545386
1115992.727069
31386971.949284
-19168869.987094
-5098322.445975
31257497.350777
-18155462.856964
-12507151.003727
-5595938.653996
-47051066.617851
-11087530.653627
-17097900.064580
-20676114.212367
-17886635.475954
-13401941.045758
12861938.111860
-5128968.622877
2944478.819072
9453077.418337
-12523897.793756
-7324557.969601
-12549193.199326
-18061505.746758
-12026397.070044
-6305461.696209
36561492.678598
-7335518.209991
22855689.085752
-8812041.307890
-5109677.658089
-3323692.715685
-23068362.215783
-19455765.299025
-13306812.195232
5974849.202726
-17382793.270800
-16237534.333039
-2964643.941985
-15617328.490654
28615619.530449
37249028.088848
-19496674.860273
-17678814.778092
-19484053.571067
-18310545.505846
-13036250.014802
-22485779.497332
-18366446.461313
-19549440.414248
26511521.814887
-16421290.468569
31045845.552008
-19601925.549028
-66476867.484181
37605863.707304
7787398.954334
31024581.537507
-17482669.019872
-13089537.908563
-20934388.479743
-12493618.535897
-14303410.132077
24159914.156055
-15722786.681162
-15678907.679641
-12918352.738219
-18009961.260376
-12273885.336977
-14681276.656613
-17945337.254688
-27676390.656596
-18348252.043560
23362527.227225
-14338946.865823
1441678.485369
32484909.007326
36491635.262238
13791974.972089
-16971092.035144
-20072591.395199
-16705733.385478
-3959230.738539
-3775734.948772
-14741539.448354
-13634473.936552
3004642.644009
24261594.294607
-18425818.959160
-21509503.110579
-15193654.665725
-10350119.613910
-6643738.325430
14565983.018647
-14427555.520304
-15194658.037308
25528827.254980
-17851076.898383
20489343.117135
-14697577.235710
-14813663.650815
-19918132.960151
28979492.073401
36329516.050485
-21677577.659459
25775950.110079
35787758.080554
2851376.960807
-5478388.888917
-17260352.433099
29316188.947653
-8830775.129967
-16669398.515290
28179939.983974
-27562275.505701
34527169.348020
-10042741.473024
-17362312.647804
-16327202.665849
-22749241.654440
-11858690.981601
-10914561.170995
34557807.941626
-32710798.735506
33039247.165185
-6138138.920011
3749720.647789
6578197.419748
-8547398.500506
-12114082.808139
-21534313.615668
-19234546.741085
-12807653.607203
16539302.651535
-48230983.697279
32452593.823866
-15967944.499784
-18351505.183867
1459389.953509
32006184.003040
-17795345.562984
8071246.124341
24951758.304935
-19388044.838395
8732052.403218
-16186415.306798
32064596.682348
31850248.582209
-42659524.458483
28331517.554623
-15127540.630914
19405433.212800
37621677.611785
-17777795.871207
34443553.565652
24668713.594412
23099.541992
-40955776.715841
27618365.188679
-25879393.122391
-15202627.069440
28553210.542203
29016779.073205
-13136093.495835
-17188156.073309
-2286118.978438
24622530.200532
-18198313.836872
25870457.342798
-17835648.543566
-18714305.756241
33012800.478792
-17402217.571972
-24303942.415034
4257466.192135
-15573714.639336
16644206.109542
-13954126.711217
3098858.672922
-17893972.952248
-3960184.463347
-18785363.612205
-18684102.470570
-19774849.180476
31177094.035013
-19473932.239608
-18311796.288485
-17294943.396311
-16998463.278151
36782554.048365
-18235138.507701
30978115.513297
-1693599.360191
21191839.037131
105147.960010
-15038885.861732
30743497.584809
-10251808.824957
-11271478.528289
-19182163.666111
-13327557.807524
-12302817.516302
34495286.267401
-30706871.408478
-10190092.197618
-4841965.212116
15681258.137714
33563126.003632
-18629506.916908
-8357514.190027
31949045.542439
-14849221.047821
-17818318.065400
16097559.518038
17055461.629964
-17399805.938875
-18503220.900677
10629566.873883
-17516316.054635
11751224.527716
28010626.580969
30082543.619767
26467873.686642
32988765.417928
12378706.083208
-8982884.946276
-728296.409978
3289231.809517
-9489798.036506
-8597543.701639
-19391644.386469
-65995141.504927
-13233835.680442
-24345853.457528
-19424572.326486
-16101654.553195
-2900793.611420
-6792219.772826
-17644902.805818
14633317.897768
-776601.471893
-31038010.205924
-19404414.940593
14889870.148826
25825184.524378
18877609.229743
-11556252.884427
-14409242.279951
-16094501.413955
-19740109.495428
-19693605.645651
13338379.812600
-10616011.801393
-14800436.870425
22414978.089370
-14549485.510671
-17780720.921354
-33853133.906906
14512226.264356
-16997554.780067
6449138.621004
-8783832.363910
-12173227.703211
-30949132.539544
-26651262.125595
29993183.559739
-35554524.424929
-16797735.895527
32678977.041588
-18134481.920919
22657931.815946
-4662104.513693
-18114092.964207
-13181229.749368
-18071012.019186
-4064167.342046
-23202996.010431
25011091.341189
-21800812.177269
-4327123.111012
443868.250937
17659179.402271
-17725364.100780
12015476.931446
-6208581.298047
11350712.760243
36640208.396852
-5176528.429453
-14189239.794674
-19606158.935430
-19659608.349409
-3322884.622582
-18734728.028357
13456986.075647
25857669.861504
-27924808.357569
-19611087.995397
-48439955.494234
-18046600.752350
-15015506.388855
-19378502.617976
-10191676.571585
-1677685.579632
8310014.243481
-18188465.466905
21947873.658707
827159.797067
-18945589.337661
15393274.538549
9499093.240817
-710421.580804
-17900403.151672
-13870752.862084
-19783188.752543
-16546077.416724
-18619841.008859
28240428.060754
27899996.550849
-23018460.181992
-18566471.067407
-8279569.963330
-18467081.131571
-548693.817492
18366927.322678
-10757229.802678
1138131.505803
-11448831.307079
-11313865.803111
16643554.029519
6343224.802562
11314778.853866
-5119197.854598
-19784584.008945
209719.237537
25220009.044817
-6046279.380059
-6759649.145238
-28542750.850472
-9163532.641391
-9129175.553241
-13191546.991156
-13357622.270444
25766130.402693
-2170016.887474
-23797444.092619
29197041.678665
-13788349.250735
10533906.820914
-4478561.974647
-7265177.552607
-6173841.374452
-172482.980221
-536269.675119
9896935.457056
30970058.375673
-5259109.109907
-771460.041545
20158107.943664
26871141.843028
-10723974.743919
-10803729.472696
-18499402.947515
-10327950.823393
-15537154.043959
-14538278.990357
-11923531.731160
-16360345.775358
-6871930.439687
-42988642.531467
-3486755.864206
-4172323.854248
-22637374.849108
-6868637.783891
-5758324.549021
-18924996.749599
1740052.982074
-15222564.589573
-16991112.244511
-13064496.274375
-17891058.760427
-6762528.655248
-10278207.620253
5323064.217349
-19130410.506058
9709217.376456
-13475241.271080
-6913785.148417
1064924.490620
-40975551.074517
-12549572.652652
-8513323.454782
-3416466.408973
636420.842281
5758710.800375
-26670549.088945
23287562.835037
-17047951.039516
35706961.843176
27383333.465376
-12757269.712204
29698875.665031
11315527.705669
-10684976.142082
24002761.459122
-29561467.388346
-17067522.313044
20564688.824251
16222831.599821
-14569552.794627
17216630.011443
-15191898.434456
-18599929.097538
-9601656.286415
-3678971.706382
-7044391.588528
-9085055.393716
-20213364.555146
-5870519.511226
-6118647.778665
27542292.911811
-19194902.375425
23883628.989900
-30325174.827818
-18159012.388355
-13259058.096853
-13922509.026970
27705854.292418
-15083390.501464
20256662.290427
-35373158.071879
-6992450.292202
-17235412.365104
23864566.608169
-483576.278345
-16470155.838917
-18798271.037211
16948382.015273
4914495.695843
31520057.000792
-12236973.713369
-6694140.034510
-13485792.083177
-8981365.167036
-14755923.530375
-4618734.846779
-13555187.458782
-18604971.252252
-19437496.123687
-14663977.193456
-21714772.407606
-6867756.452479
29209000.126080
36392145.553356
-17153771.876499
35001077.159265
-8024551.720406
-23783661.656596
-2664104.579090
24491316.374592
-708456.866085
-23528591.468739
-1258486.956202
-4051594.022246
-19794027.796543
-7057748.855278
-11412092.401544
28266196.968187
24807020.006406
-55532216.034992
-8140767.927325
22908512.654309
-1104869.380641
2880465.637208
-10553895.547226
3645273.115026
-13989322.138607
-18277617.017383
29217316.438164
14782922.118813
-17150666.750271
25749013.876793
-3473754.036904
-17625007.379261
1883568.898008
-14308072.035810
-14583024.382328
-10477430.950560
-16899949.375573
-12604736.562405
-13651324.019538
-11536591.838961
-7161747.733417
-18926251.873837
4421283.301444
-13030189.747748
-18228165.791615
-18155014.036228
33568209.621370
26637282.526810
-1114940.809400
-23167190.331303
-5211050.590735
22225229.712338
14066333.793346
623970.625240
-7754221.007244
-6293824.979666
28577475.358449
-23375881.196562
-8109705.924667
-16925132.936019
-10528505.875367
-15292913.065191
-10476892.699550
-24330180.023450
19524990.031681
-8085143.399243
26014249.897490
1456217.019889
-28236922.707173
-19009205.143171
-4825172.188313
-18477264.768782
27528058.123403
6165336.620163
28317033.973233
-1523356.103803
1562315.664904
17526176.696103
-14537260.535183
-19757702.332842
-6003401.979222
9865162.626760
31768069.502180
-6964075.211213
-9527883.868371
-17939550.604602
36731283.785288
-16232146.506373
-38090896.140796
-11327802.371291
-14810878.945911
33119594.792425
-572324.292971
-19343156.122487
-1872862.394164
29248540.592705
-26614963.173131
-18952046.563282
-17265905.307286
-15995518.371636
-17913855.756840
-6821219.082423
-6535976.712908
30187181.501161
-12859091.679631
-16174612.192473
32102279.818935
-16104920.500606
-7390087.858556
-12134238.916875
-15983124.871490
-13150834.841775
-12032473.615670
-11489764.365313
-55482435.352119
22786152.652538
-11994254.083992
3492769.136508
515790.366953
-8601190.114130
34171064.482950
-12811706.282315
-7803844.756008
-11350644.302179
-14661191.952265
29665122.039471
33432295.557554
23097043.452727
-19391019.480638
-18012261.061993
-2968055.064864
-12046919.786540
8190525.550362
-22257975.043717
26613232.775607
-19895777.334012
-5590733.725076
33797039.406380
-6803300.543697
-18342722.367483
-19892695.593451
13458388.395240
-10323374.613525
27149468.370360
-4866547.188861
28976785.638890
7649277.448675
10860021.138556
-13932161.119018
-18706909.730004
-40119392.615317
-1715940.994841
30229534.083208
-18139814.557964
-19393219.541614
-17827061.459383
-12446243.386462
15501621.725467
-14077582.293754
3770484.485636
1079271.311026
-15436856.283562
32555603.182183
-19867364.568161
33057859.407519
-13326088.780482
28938561.112865
21230687.271443
-162192.537299
-9227547.104823
-19110536.137557
-18367682.628770
455852.606693
-12839126.543261
6420923.322922
-17917211.020138
-60960432.961230
-18904796.591963
20687983.230268
-5112419.801982
-18791871.424663
-12313802.608205
-5346204.595114
-18957414.357537
-3476487.277202
-15325321.940668
-19509165.194838
152983.092173
-19340889.111884
-13456195.785521
-16934538.762638
-2014403.420818
-37313468.373454
29421030.699339
-5203983.074780
-525804.219468
11471335.828203
7273867.668149
-11938164.911095
-10366751.204842
-20877484.141238
6279592.915284
-14020347.792684
-29577792.285019
-11516195.157398
-11196181.481092
14623977.164118
-18768787.493931
-19442453.469973
-17468506.308689
32164928.709688
-1923927.527976
-10563762.162974
-21820676.129083
-18054277.801716
18222511.699632
12012843.844611
-32035558.944244
-48118975.607200
-19171112.865170
-18439577.994219
-4974300.615446
-4100591.786849
13291446.113813
-23908229.476689
-23364600.395611
-5336835.007530
-18578308.588447
-9548736.492659
313207.147870
-12391970.375425
2069075.524410
-5501916.750046
-22892347.511074
-22417880.490581
-8875297.922447
-18595167.517119
-13812374.247112
22440129.366508
8269803.465105
4471468.485255
-18310356.802162
-18334301.127230
-12932515.294246
-13438045.865598
-4416189.790244
15247496.551981
-28128503.462208
-6039498.731898
-1242657.404724
1838627.010943
23704660.282130
12052547.044314
-19378689.800097
-19267655.327001
-17025276.450092
-13272160.376884
-6695274.984699
-11684433.589047
-6174304.212639
-24553273.151827
-4571710.227642
-16172560.403510
336324.300006
-15280058.914028
-11587919.521788
18338775.388362
-14353599.075906
733397.581289
10570220.231422
-3935051.992548
-5755757.941912
13248047.891797
19996906.669079
-9848553.422951
-19093772.719315
-1444734.861074
15684996.253188
-30719172.457834
-10056340.100745
-22965648.181379
6587627.544093
-5671913.167437
2790578.516429
-11825193.486396
6094742.668143
8379677.037008
-19881609.608838
27854768.509090
-20696665.063107
-13306486.932818
-11166097.175715
-16915931.044983
-18741538.789396
-334769.609774
-16155256.495488
618251.641394
-2357770.063075
10883843.895883
-13635253.710423
1488783.367700
5318433.473584
-19243175.108618
-7894533.136944
-12798849.942670
-2181356.961410
-16182989.638765
12132062.021104
-12276400.211552
-8672562.765507
-18705067.349710
-4696891.975875
-17126167.575650
-12820813.057229
-4235807.781922
8820106.282224
-15315311.736335
-5908028.602813
-4200043.121051
-12641708.357255
-9734241.173560
-4191503.263391
-12024978.187587
29772655.209625
-18801927.137328
-703779.207551
-647499.355560
-14052141.197989
-5732805.833815
-18388973.578675
-21159520.075067
-17507902.753095
-18285472.039188
1183051.623117
-5693161.978954
11181315.405737
-9581643.679723
-13960667.817245
27031015.835504
23062758.361071
-880888.424714
-14697321.952354
-12475012.826526
-11736013.250783
-14859249.447626
-4658912.515261
31563389.408125
-11782903.244275
-9442907.224433
-13488067.483806
-2138662.377287
-18216720.419180
-15631480.724494
27805765.278727
25026225.881803
-7290070.770681
-10841079.276096
-9733152.866924
27523920.693854
-13089827.711485
-19244089.193400
-4500419.985552
-10850833.164704
-8269292.641788
-13896675.307006
30162626.151984
-8943973.826091
-13102486.721029
-52701969.987534
-7096601.898844
-18098817.383707
16013813.175775
-16760721.105595
-18710643.462903
-16026536.640171
-6419156.516744
-9110441.682189
-594309.039409
-5149511.440837
25054788.916051
-18613138.656185
-6519887.533896
-1858158.938599
-25923212.939917
-15244358.769820
-3584477.627931
-6710257.438779
-12272240.303833
-6708440.472740
-17093205.655869
-18522856.098119
-13639868.359079
-4811301.752584
-623492.930989
37235620.026355
-951301.763045
-17921752.289480
-2083999.722331
-17903608.430571
-15011879.674846
-4140601.910855
-17021700.129582
9857997.229654
-6671475.202251
-13172168.264620
18281080.029510
-12263283.178428
935027.682347
-13031963.214586
-3865363.717656
-21391542.843284
-14747838.370972
19816578.030611
8929794.643255
-13662447.729839
24097983.726823
-18180001.860824
-11596334.074002
-4523180.231568
8289776.473099
-15506500.228363
-17733456.236466
473683.093715
-12704527.883415
-10257194.647587
33250253.017670
30490528.691237
-8567152.201956
24144680.302989
-16845532.399324
-6208223.614664
-18036496.613111
-15148554.224018
-6206029.619205
28790827.162285
-17230906.363301
7326764.116372
-11495198.017735
-21084907.244181
-2614646.334639
-11016951.947393
-7336806.827720
-13638501.303319
1265257.527529
-1262128.641598
-25229192.325593
-13415198.367488
-15312058.485702
313613.159437
-5461840.768129
9189842.812644
-13756932.054606
-1071220.369847
-6406505.071311
-4022403.109525
-14012597.035208
12251878.855614
-18106923.361176
-3685491.818216
-8945822.170877
-5373143.571824
-987253.293038
-3329287.287852
-3974241.681980
-8720618.483380
-3905940.946829
-15020180.467431
-11436176.764642
-73410.906568
-18775446.871344
-966044.138930
2630588.652828
-14563406.025184
-1558556.307697
-4134580.881577
-14799200.584159
-14504703.365530
-14073759.433271
30862309.230359
-3832045.292902
8081899.686823
-11098731.344425
-13538869.366271
-8665813.428251
-3249741.178727
-10618331.567615
375433.449517
9370411.285044
-19332128.232362
467186.315633
1802073.683830
316577.322548
30402271.802849
-18613026.588605
-16331852.612256
-6266234.487926
-13343612.767887
13329220.397099
-44054541.908223
-31195418.256432
6999010.040846
-5586914.936904
12190762.661241
-13480191.746189
9533081.072590
5916738.600476
-4506686.952156
-1116611.784036
-15678019.067394
-6308442.997618
-41816137.822967
-15973551.571156
-7557025.295156
11058201.922284
894097.687363
-16212130.545024
-9452424.592343
-11926034.565993
-9219435.502615
-19174202.472342
23884274.444181
-1496488.293387
-3256635.674999
-6758635.813992
-16212570.468321
-18634918.527428
-1416397.759330
-15367650.371385
-14521701.089374
-19092737.870382
17733984.080042
-12778212.636124
11428757.617666
12049791.479631
-7728557.348827
-18697208.640539
-18623501.937895
-10587190.355962
-4324299.640166
-7846580.025839
-11347972.906311
4362132.699409
-64038.216576
20111189.058566
-4881313.820877
8608955.953521
1470645.593054
-11984155.641159
1282471.843680
28338534.890111
33314069.018152
293105.642306
-30150822.101381
27971976.174876
34255219.242926
5850736.221961
1385486.524240
-17593957.536390
-348316.121204
-10297453.297760
8956065.502296
9893025.689481
2459540.261304
-15840425.838119
2596733.244768
-854385.754902
385925.535699
-10103986.923691
-22728345.089711
-1115137.145638
-2325292.062429
15103061.472803
-27877378.763095
6990466.770888
2019385.653675
-4212349.289107
-1009564.025206
-4558273.898374
-10853469.629800
9064222.034460
-43447402.642312
-5314933.723856
-24463603.141093
1954433.107058
103735.816863
-1232718.041297
-9435973.559882
8217962.286463
-13860457.284990
71627.256912
-701992.698190
-14209233.956885
-12694164.723206
27387696.837377
-14330559.234913
-560205.701938
-508950.734084
-6445234.586705
2753490.873612
2149115.640821
-2712300.993336
10081888.170083
240631.576228
1595403.685436
36297112.555429
1496589.461842
1790938.901459
-418953.877807
-3255763.504839
-5198253.636212
-4655228.593460
20898450.566262
-1129507.154772
-15328786.476178
-8638474.895016
18482966.450758
-4018620.651136
-12775632.372164
1847475.470156
-3689428.137813
9202030.331998
1343663.913122
6321930.830146
9004631.265372
1444665.649126
-3345515.996217
-4033681.347055
-13036111.481991
-5263069.553043
-626561.173642
999815.738356
5142106.225659
-857794.716140
-4320700.747616
-5860473.165392
-11239859.707173
-3391506.603325
-8055472.371670
-4379481.614514
-14865386.097254
-12983380.508949
-9967828.034355
-7178965.216325
-4916859.954271
-11908767.129009
-8705882.380107
7153158.126627
-16638405.363485
-5952651.103622
-11961473.833663
26509689.605741
29178319.488894
-5097734.746437
-425682.733417
2505730.341914
-19939372.760208
8498254.931731
-115892.975596
-12604813.414010
-2653186.436130
-6523025.176458
-78948.024374
-13558296.096496
9621971.169405
7397498.929145
-15792572.592487
8460294.658931
444157.327280
-4089739.492909
-14795702.853088
-4054637.046196
37334450.218961
10987148.283662
-13512101.877488
-15381759.121091
-4110512.789377
-6598766.000357
-1578417.365781
1929433.013077
-2569501.429759
-4198722.595960
-5998942.100791
-7685787.784958
-10147156.003907
-8783849.391466
5427553.689116
-1826517.406862
1321907.229139
-2886509.260902
-3657672.345212
-3866676.144119
8847440.270259
4243325.395943
7817116.559640
-5403415.669162
-4287166.765101
9933709.186706
-10155526.645914
-10877617.264417
-4200221.901942
-11946411.213305
-13923273.403238
-4146379.186439
-9702286.570703
-17249894.252347
-7744695.491464
-3190218.830987
-5969511.927392
-5331040.989224
-4976822.524028
1566935.329715
-4518742.202444
-10754557.979720
-4332718.765117
-8822544.621274
-6439918.628808
-4415594.225196
-3219721.440411
-4909248.669862
-6426068.679759
-4194769.091365
-5804494.981111
-9218454.253635
-15774801.553038
-16473293.899419
27291437.644209
608148.449265
1986859.726858
106363.504208
-5991630.059514
1468895.187487
-7171965.462699
10917949.087639
-9776907.666841
-7187762.376251
-4441647.566964
-26811428.733089
29595538.803081
780360.430089
-1771367.106847
-5846638.624015
-2102849.235334
-320917.686504
129556.384184
-39977151.318558
61803.431525
-363780.065922
-6119557.777936
-3957391.321553
-5985035.999600
-2238545.669551
-4226610.596834
-7983396.682588
-1998714.386850
-182108.859011
1979822.422708
-5875201.993977
-6088322.132641
292507.423309
-15339070.935903
-18137951.263959
315503.847043
2715478.332185
-5762289.139933
-5465729.411185
-4934006.299196
-1274082.302230
-9253733.879672
-16086567.879720
-496848.560513
-587155.192332
-422221.625519
-1231320.393287
-8977850.839960
2276854.649516
-1889087.866920
-1741818.660847
3901401.587665
236165.204992
1548340.949046
-496873.348421
-879292.551445
-4761027.898938
-1111689.014017
-307400.458254
-4183449.956759
9095289.469819
-779542.159397
875297.771779
-6773128.289997
-417565.778614
-414879.123512
-10983.391684
-4885081.653438
-4709985.508383
-1332032.938891
-1076676.577186
-990348.035557
-5858689.902875
3370449.201539
-1651119.484672
-8830736.089226
-3989168.294760
-4424526.342158
-1136963.254358
-6958433.856653
-4647343.390755
-5620223.356237
-6124569.682419
-12367647.292616
-118158.316481
-147312.038545
-799058.175042
-1632299.476027
-1387149.625506
-1416332.602793
-1312367.448058
-1186491.684325
-1547006.406948
-51520.641544
2315388.774882
-1373783.583268
-1379821.984673
2458439.420332
-2293894.442719
206992.582488
353582.302478
-1700452.124439
-3968930.435747
-4032987.145809
6508563.538456
-1375728.023002
-1055222.280300
-962748.129488
744530.989237
-1031791.091969
24927146.109393
-11653692.445958
-1904973.111791
-991787.051053
-141547.297214
-3299831.308008
-3615497.260747
-4365893.389688
-4641709.834827
-398251.639665
-612556.357939
2282994.128697
-5431406.891543
-6117771.149191
8148626.736630
-4597936.567423
-998082.359062
-664410.264525
-6719840.019175
3752794.961120
-5046380.666776
-3015013.636911
-1468024.478684
960737.253930
-3244184.635448
-14139148.610236
-1221805.998876
-1318060.431658
223815.994462
663736.013623
91841.796591
-632962.810806
2010305.204774
2242329.263193
775867.190292
-1160029.015274
-9780632.838433
-6221171.971783
-4183243.701139
-5568447.287854
-3740611.521733
-3833150.619666
-237009.645833
18008612.815558
-301164.875779
-463468.664842
-1060705.995495
-18897206.995684
-1524653.424061
-860217.822010
-1103550.580857
1594063.982405
-369032.941563
-2892989.333406
-4466056.923892
-19083017.454834
-567883.175136
891958.898292
-2075161.041019
-5282382.193021
-6725869.600592
-567956.381741
-7207577.282717
-683833.977129
-1536013.292017
-4730535.869253
-1450055.764267
-1531566.222679
-1344590.988991
-1251556.872204
-1160688.458277
-1029006.571040
-1224453.237192
-1165762.652790
-1543490.600510
-1585948.696592
-25101437.889325
8584.838051
520542.809359
-167442.508753
-984167.303464
-955541.378023
-356716.245741
-5422799.731378
-4258282.970003
-4613588.795963
-402850.512364
-1985762.179038
-3871655.368267
-3764735.511323
-2114261.257460
-1870479.053677
-85334.046274
-320567.185679
428102.414017
826926.862386
2256312.790913
-1080783.082290
-8828364.135710
-513304.880667
-8133021.548212
-4160261.205092
-9906422.188951
-1069205.502036
713025.091025
134640.995170
6296340.363312
-1563051.600701
-1744465.123699
-1306751.227344
497955.032880
3001455.868583
-4373234.880378
-6845362.014316
1568826.963015
-8139247.288628
2300199.403478
-6413215.961877
-5767542.157290
-5936771.175350
-7199306.127049
-15073155.485615
-2997125.336531
-4442467.605568
-9708480.511882
-7744314.846648
-962308.795440
-4836998.132038
-5731061.207577
2560599.821860
6605074.520546
-3575038.041624
-8426931.799113
1494656.037616
-10274640.276934
-5584614.947722
1678081.963679
-997653.934065
314698.605039
-6365734.232280
1510842.251134
27277547.162868
-4055326.016492
1207305.309329
-5808509.886973
1984271.571924
-1035494.561310
-1355680.904131
-3342451.339907
-4324339.662774
-4454146.121894
-4481315.977349
-19023708.489712
1764685.130031
5279375.691906
-6424632.387436
1643809.942305
-10016474.991248
-7678193.374796
-4066552.833436
-5995869.200004
-6030156.638160
-1656279.446769
-3494935.683410
-7588866.623285
-1679583.938888
-757633.252041
-177652.581520
-5723974.168178
2590717.024200
-125449.117379
465292.441152
-5874543.538803
-5360777.059645
-7506212.748932
270644.845169
-3832432.559907
-14845493.285566
-8289290.364679
-1373347.159404
1847350.691974
-4636268.231471
-9220071.606101
261971.884430
1610764.708717
202847.326989
6931816.325462
-9757796.502657
-3740901.507151
-15835712.103905
-877265.958514
-955941.503445
-6119308.478766
-1086948.566302
-623573.217513
-4244596.640684
-15324797.001287
-29437159.896485
-4054637.707776
-8719882.612358
1806256.486656
3565148.996721
88832.514905
-3842495.211253
9634218.145022
32735016.885021
-1564194.970872
-7879072.533426
-11151083.927564
-6049384.367878
-2702916.411128
-5404158.734630
-5745485.858136
-816551.338851
-2291056.504202
-16289626.563142
-1010945.507848
-4504064.898307
-14923444.081418
-17419451.791043
-5361209.147374
2485112.342554
-4629497.464239
-4258407.513244
-4707979.045437
-3803295.357665
-3567193.850297
-4048642.645174
1427535.414943
-1296849.477227
-3422948.301403
-380232.348200
-1371204.243502
16827686.731602
-3904799.355796
1367283.505988
-7987339.992552
-19357286.249382
6829237.297848
4098318.024189
6946518.389785
7761996.608154
-2736169.523332
-6434902.414082
-10933016.571079
-1329045.758517
-4485838.539399
-7844643.026463
2125999.543427
-5906585.150270
-581567.393222
-7210086.340570
-6373945.456487
7308561.533611
12154329.982498
-3295758.429172
-4170695.105739
-9420561.351770
-559488.267941
-3467560.748687
-7896440.006099
-15817875.399647
-30170271.505429
-303343.822597
-4830805.739618
1048730.702363
1833988.050601
1230700.972931
-13537195.103195
-833931.084674
28270157.472794
-3486201.250292
-14821903.397417
18544821.612222
-1361687.670992
-3420415.347480
29812075.186217
-5738755.182774
-2157159.115884
-163321.844814
-25528.961614
-6782433.673224
-19327638.500721
8098204.096765
2092884.508684
-20843602.790113
-657094.565753
-28195318.866309
-14411752.798805
-10294002.376031
-17153042.553826
22174046.632538
-19828752.935091
-5407491.926456
5674960.607003
-5994122.231870
-15189679.241081
-4050014.031222
-532907.122685
12254503.329207
-17893744.361009
-3767151.138597
-19027720.091976
-3899664.072351
-10481206.385435
30155773.896672
280779.603514
-353528.511221
29753520.180133
959988.483430
12556408.091285
1352010.839658
-14039476.711516
3438251.759494
-433352.009162
-35194868.467632
5512156.913357
-18643670.433826
-1679978.209593
29903712.431808
-2252568.517485
-15585419.582203
-12275657.800335
28151872.383592
-10850.132262
-15334665.886953
1846037.598313
-8659375.394589
-53057209.261404
1301213.040346
10112883.769783
109648.545397
-4703501.109974
-7614938.090554
-14685892.002365
-25914587.782858
-268051.181208
-5368087.196145
-10395616.676826
-17177641.474373
-5377736.914417
-11401031.167120
-15922053.156296
-3733623.772409
-20662735.938673
423461.332773
1758445.228980
-13293875.290737
-844173.667013
-17777723.652202
-6039863.855536
2630529.614957
19604794.185378
-34076043.251751
-1739511.853014
9831853.287028
-4378718.570058
6883689.145543
-18642450.467040
18494029.890490
-5377880.285057
-27384212.974325
-18550246.851537
-17819458.491688
-18407185.970649
-19187229.097332
50292.457575
-6649549.962494
-4652624.491916
3224504.552015
-3576795.343437
26835120.701977
-4636435.023537
12418024.678332
-15231775.094910
18107273.211694
-1917257.916229
-14658143.006422
-9141989.018271
-9578011.681126
-17821932.663675
-4094500.545128
5571602.627572
-4009483.424259
15988746.907753
-8141268.127157
-3030019.773525
-14369186.778422
-11216748.069850
10789540.548968
-4963685.042811
-6681105.889871
161990.302567
-9313536.911726
11308345.298271
2137634.410015
25613944.340518
4372026.952334
5660813.645243
-19200068.541242
-13876806.091711
-4700460.717230
9230005.752980
-13342184.939696
-3027374.061576
-4908576.826413
-5560167.332289
-16367152.421659
-2485760.549196
-4233754.417402
23424447.614710
-15650215.790794
-6579625.104429
15322821.293926
-8205981.892233
-2653723.544355
-13445209.240234
-999660.442247
8226702.553065
-14712122.167284
-4391990.109948
-2801983.737104
-5814594.933333
-2746714.966145
-10814062.452247
24428715.150711
-21554189.543310
-15553201.382398
25785482.215150
-18964196.205745
36284795.195058
-8554991.923746
-14133392.041058
-24789162.699934
-1907912.978508
-18301468.482450
-6360117.086277
-4344202.835801
8937607.621508
-9721919.983769
13291262.281992
-3277254.212490
-18500818.491472
-18307792.067234
2652741.795890
-6586778.756041
14638731.292185
-10099818.806658
-6499383.637233
-4689115.973272
-4396111.443153
-12329038.093745
8013875.684271
29105970.689708
-18591617.360243
8831783.566752
-3575182.242638
31222489.151925
25688734.980597
-2196086.837643
-733266.437492
-7745597.505863
20711807.857984
-52521142.360917
-12328723.546587
3811289.062493
-7064604.443866
-3286491.935237
-7369210.912178
-1161064.934325
-11782072.580583
-4688408.730563
-18970799.220122
20802482.185677
-12972305.802242
-16419125.250808
409826.804743
23922923.475262
13345025.819431
-5239101.153007
4086674.139715
-18826805.492579
15241506.002583
-30634193.555694
-22199846.140011
2864484.067516
-25930601.920925
29948648.852346
15345280.016819
-16580093.600359
-28388920.289311
9918094.474413
-15072251.651046
-17125449.820308
18361135.954904
-12036185.888299
-5564214.648758
-12455903.663338
-12523566.803751
-18660148.771920
-3689786.589591
8369034.381227
-7729794.696737
15840468.388353
-9182386.051450
11274476.666126
6941493.529867
-9027163.944061
-2258213.418472
-13629779.840239
-6429747.765197
-12160666.498434
-5458896.405721
-7221859.112929
7781826.052750
-8991961.517279
-17127398.363062
454131.758586
881093.919347
26744398.184905
-2548105.648931
-4184540.555751
-3521764.732612
1921142.331009
-6392569.734982
-18665946.797785
-2769526.483529
-25436031.746221
-11264734.081448
-13831234.860849
21167107.437822
24638916.267112
269155.760159
-17679772.317980
-3056812.214130
26411829.462060
-5124639.645149
-9215978.651564
9891831.988418
-18956574.337170
-16206175.584835
-19189421.275324
-18610364.934289
-16896544.926115
473825.210263
-4936460.179074
-5951875.584981
-4818281.793182
1886196.929426
-23514027.885843
-8454507.956923
-8152182.450757
-14234861.206109
8384754.692862
-18835864.938120
29077452.910517
-4331291.743511
36942472.854994
-19870122.868586
-2224260.470372
-8196567.083184
5127908.259909
-5240158.133820
-14191753.204382
-13348926.145631
-13874071.035810
-5279087.745491
27237282.073565
-10329131.196536
-4487310.881464
-690481.998997
-23580251.595106
-19168441.535475
33395982.729990
-6528184.855625
1125831.570592
27298054.806131
-19708563.219413
20017445.689547
11408914.640982
23841118.560442
170627.008319
374661.120572
-3803777.730236
-16018083.025114
23146716.963162
37017254.265036
-3914051.372074
-4963281.771786
18731656.646015
-29248247.815709
-7562851.096835
-14403751.772661
-6845883.486235
22178948.030859
-17423403.065215
-19602183.241354
-12330369.613100
-2129549.305832
-15114500.651011
-17210788.658079
-13664680.831731
24865658.446983
-15605709.250096
-18307526.537568
2053976.570849
25723077.740718
32231885.847636
-10421762.197855
-38725000.636907
-5898830.242048
27117622.924363
-13288620.536503
-19942286.786048
-13833619.671831
-4015776.514006
-8146947.289062
4098683.775176
-7314108.723909
22353038.968172
-12925000.096627
-103975.920993
-4600643.233835
-19079448.824398
-27486061.076106
-12796127.387970
4484056.464266
-10748325.503139
-4137146.708003
-18088576.955513
-5912331.512091
17161427.723016
21762309.336955
-18389121.719323
-18531674.578104
-13497552.196691
21743719.968632
-15916558.564796
-18558457.621083
-6227740.926414
1590819.437457
-18336647.866829
-18950714.656824
-5843837.087990
-18719907.219497
-14049501.932001
-13156512.402815
35116429.071696
-10175973.454829
33517832.495095
27218986.730907
-16412643.295728
-2431700.463118
1756455.143563
-13874940.866112
-14450189.370170
-2992749.643757
-1063357.401587
7688121.476576
-1845180.976387
-760096.515112
-12218841.654021
-23400497.674901
-9720947.068309
-18692273.065173
-299509.279922
-4192981.119530
-5692844.872046
-1820383.467317
26732875.208615
-4905306.732547
-1601756.327980
-18985892.344806
35295094.021345
25693614.283194
-674504.193965
-931241.177768
-19627930.970180
27199290.406239
-1673988.102137
19293114.952347
-15004826.372728
13185450.018375
-12910233.460569
8710263.496849
-20029717.227327
-20087001.916049
-12610417.760838
-7232764.112582
-16104929.747889
-6836065.044311
11354087.227837
-13355630.739914
-5259707.888125
31439725.501413
-10745419.351056
34986920.034001
24095710.924631
-19258634.845407
-5609606.682930
-27848175.215440
-918387.562741
-18336154.332037
-17015337.482004
-13061571.891412
-12044500.752924
-18840946.509488
648374.591200
23116851.412218
-4840364.194648
1712764.248982
-14136931.156511
-9910941.103245
-13410415.718603
-2169056.431958
-4562688.901562
-71797564.766473
-13530816.563883
18675327.673698
-14345846.121589
31610740.515520
32393659.422336
-7728304.357796
-5808198.529998
7054348.582903
2976819.349549
28048783.131585
-18922714.609406
24653918.658328
-18945561.933356
-18977515.383327
28836152.266028
-2623345.812110
26347347.485808
18655199.750604
-23298754.509075
14886671.184752
24180612.290459
26762305.796866
-7764448.853179
49138.238778
-11476889.827718
-18483001.803186
-11869253.790087
-2240378.947887
-22032513.200145
-13936116.828898
-3238236.923416
11009150.979600
-19356030.870993
-801305.017716
10868125.464962
-16299292.760984
-17514215.680193
12078565.043157
-19291947.257095
-13773817.337799
-19324621.961073
29698633.930403
-18022898.981724
-12756328.662634
35844432.575388
25160113.615039
27465228.125686
-18517482.246581
-7540442.351341
-13605082.403962
-19113903.078837
-13888590.888388
-18026357.778383
-3640421.117902
6090876.415823
-12623390.473508
-2713189.053646
-9173655.045638
-6362706.834392
33840623.531058
-7569275.885720
-3736059.407453
10761764.180420
12026579.003437
2767339.793577
-18802480.575324
-1318630.275055
-5437515.703420
-18983019.169902
120553.078981
-16806280.494070
6201838.873704
27030538.226571
30917556.254443
-15850463.539252
-3138479.905929
22140514.715680
-5245603.533536
-26302805.285093
-25869716.512900
-19249204.275593
29158188.381662
27347115.678709
-12792559.633028
-10587617.376395
-19557005.064253
-4409314.852188
-4051624.912897
-8658529.744337
-18352940.364735
6855188.346029
-18688945.951221
23376701.387110
-2056771.132439
-13865850.264356
-557130.876199
-45579107.211258
-13166446.800242
-18704900.557681
-12138656.244131
442656.304280
-8024732.619123
-14190209.438185
-16859588.917781
-18775760.695820
-11645930.936348
17249848.244025
-9283439.278848
23037300.003610
-20524433.936523
-19186721.373098
-10419977.487421
-17627090.285843
-18843951.860959
11408961.093279
31760536.604119
-12521600.686797
-6280643.530026
17213989.188633
-12113477.766264
-15848392.624393
-8538041.380188
13401431.799256
-3673460.009307
1796498.216400
-13209235.710663
-17946545.042993
-2284920.748511
-17645806.103249
18169325.509183
-15519599.731444
-16785871.505569
22762938.868487
27704615.699198
-4538448.665063
15066162.761527
26858931.951324
-7531374.442854
-33578563.598889
-12479954.899917
-11013545.717886
31836878.491152
-19512679.482625
-17445191.653438
-3012342.000361
1636203.481725
15633215.893223
-19704253.504614
-9310171.286873
-15742812.133103
5035369.226788
-13565929.695363
-14825939.857249
-18931738.675345
4297375.963162
-15294443.259806
-6495171.862545
32458388.234951
30888461.835626
19093784.501484
14297388.825848
6101856.692066
-5676231.819917
-5191018.210527
-8970336.339103
-30887801.447896
-17106723.100138
4910060.308504
1158892.574021
6823040.895682
-9198782.990307
24927688.473974
-21273976.480705
8176959.599090
-9404450.839349
-19001576.421207
-14301219.001410
-5141656.915565
-19461292.139727
-27652536.028474
-4323767.592963
-18050155.282985
1259297.152267
-14039467.694869
-16590935.787891
23772957.848931
20722956.689374
-29544848.318147
29614104.245958
-11698216.110639
-46911043.670108
-20290560.589841
6369478.829307
33305914.028306
-12131954.306161
-4948432.589670
-10909573.769612
-24318321.688865
-2583025.111220
-14677891.714795
-8194114.186821
-8918782.064643
-17141590.124737
-2981182.454041
-3285086.297267
18128721.374274
25119160.387874
-19065584.299599
-18656591.245799
-12404387.386317
-6982581.911617
-5546189.009428
14498684.143812
-25457782.817301
-9637007.850170
4590579.759465
-14839251.654488
-2222660.598257
22894993.294956
327815.520878
-14314571.708792
-21679967.590682
22475315.037063
-2040411.250071
34186095.916581
-1201048.797019
-15418720.964169
-2208512.693943
-22221971.982133
-16933700.421231
-15976720.384994
-18665134.569929
-18742503.562110
-18156760.400285
-189446.538118
-18608358.782970
-28120949.877434
-10999479.975147
-28121805.823939
-3626759.027612
31202573.854496
32024671.314437
2608585.160277
23075944.456591
-29387011.003224
30470963.258025
-5474700.482404
-3643573.117190
-12779596.289315
-16687898.530068
2913915.668787
-17483365.397204
33842703.336107
26624836.950677
33997710.499291
-13198492.051387
-11150896.740989
-2903000.991159
-5489608.182476
-11417380.981122
-17324530.870001
-19399296.828940
-10899833.216059
-15629308.816596
27706473.655223
32503889.046341
-17800151.979177
-17984125.887281
-2812698.200858
4717393.162077
-18416382.128662
-7850228.736252
-12467838.141846
-17303901.349106
37155540.596063
-26226289.023858
4869462.556156
26384898.764253
11820514.878767
13796777.090952
2352903.696243
21596334.318212
-11275729.892709
-18576026.975058
32451288.883873
35332372.477434
-17245422.283763
-5835057.607767
19152343.015923
-7524432.423759
-3642581.949701
31038502.805045
-4753661.079226
35217487.956222
-17088335.641348
-4031869.900636
-14974072.826570
25172479.273173
-15205585.092037
-10937560.163464
-5360961.075949
11479504.905205
10777310.284376
13029946.314695
-2919365.166426
-4880227.752123
-19076611.563949
-18697651.426961
-13418054.264126
11167553.877255
-15351284.661622
-920783.960129
13516954.507727
-16267129.919144
9420281.145921
-19604490.711359
16462548.278476
-16957247.689228
-11232843.610656
13255481.514355
27689996.825061
-3341176.985968
-17011455.120010
-5146385.209423
-12376884.735444
-11923130.092641
-11781621.470961
32064072.558293
-862121.710269
4127926.123233
-4889539.040983
-18268880.366891
-2559811.279630
-28855918.003826
16640745.224450
-7215023.803143
12508371.784990
-4884486.396133
-24816349.367316
-10831468.419770
-26776323.624852
-13602032.201026
-14796418.200179
18522475.485489
-8717326.290660
-17545418.604730
-1223035.785765
-4608923.858446
-10873152.727775
13312478.123221
12164907.053851
-5958048.598907
-17953397.872479
-18229251.067744
-9051257.354408
12807657.670773
-17819522.107492
28517849.396828
25398199.049554
-15120367.754379
25780470.333556
-4895113.584968
-7469206.600938
-16125704.532356
-12965032.004176
-755662.827635
-5072496.662912
34012058.250030
-16063994.731586
-7317111.014131
-3670286.810312
-18873559.455664
12771382.293350
-16184761.449543
35880203.573848
-19878788.235030
-15393364.011238
7635423.206500
-18122144.975027
-18360732.665867
29426973.320628
-42280878.868574
-17942066.878736
-47943153.002637
-10903253.401173
22515204.140799
-4327330.733842
-4526337.112015
-14552460.212924
-5102278.362755
-17351686.910172
-4767470.859712
-4849117.702637
-12294354.598328
2292593.479346
-7122175.468969
-16343567.466791
21933521.527694
27297715.881244
-4197969.359444
17979360.490926
-44378540.992574
12279790.098247
20257466.937124
29663496.149874
-17804236.106607
-735379.019819
-4983658.750391
-18467862.806091
-4537677.612735
12696340.457052
-17659368.791295
28819165.206096
-16805427.122916
-24716480.806609
-25810237.122869
34902631.607532
25914817.236470
-17548648.104179
-15117493.895077
-15752813.519675
35337078.487995
-4078301.601285
-12418443.524210
-10695171.841362
-15859233.416169
-12872646.365324
-32833907.362875
7202224.122840
-19008384.881806
-15617283.580328
-4707311.661040
-13223784.083652
-15161114.551313
-19956728.249903
-13809526.699569
19053049.909310
-292763.297110
18482970.521619
19736357.235573
-4803084.104882
31471022.527882
-7369196.561375
-19510606.633956
-3783340.054360
3466675.128628
-9869866.905575
-4713874.201319
-16774128.492308
-1124622.413469
-17492343.559914
-5138831.625975
31730134.321294
31834472.283806
-4086866.420888
4932828.129243
-10462187.879313
17170570.865878
22572730.553691
12357701.553697
-13825904.536050
-19640614.892067
-19159582.129924
-19023162.139768
1874658.300990
30043501.745040
23664193.365467
4689335.730226
-5026571.154469
-1575609.568233
-3626617.521279
-3386014.598034
-17438200.390606
-15854244.820989
-18439674.180305
2166686.770123
-11882791.260760
-27358459.874066
-30278693.463664
-690507.099894
22112716.375434
-43012441.587819
1424061.244194
-31457538.256767
6862530.287560
9232092.844058
29248021.257572
-14895354.930057
29897326.053661
16903025.837799
-17944442.365893
-19436735.272229
-26863805.445837
-4938241.587370
-15230426.179715
-18658750.991047
1602644.568998
-1800581.757390
-17724813.309026
-4741075.333985
32242640.404804
16711427.001911
-4459608.106233
24900200.999917
-17761088.181534
-4473624.361905
10777430.458989
9489314.464524
-12185689.628315
28993371.381165
-18223252.961308
4186318.354529
26630079.565995
25554621.430347
-51115451.681845
7810181.923209
17023165.771152
-14390593.969748
-14857116.716356
-10394918.796499
-11856831.798900
21425553.955547
5332049.460892
33164989.090409
-39601753.016465
-12447848.542933
12374315.563377
11241795.802512
2446976.304354
-5062443.506182
25785313.048755
10174729.652976
-13657953.446431
-15892116.106874
-28409799.857495
17290266.265318
-15441649.389587
-9716022.070687
-15336853.006996
-5692348.485367
33324676.140692
-7552772.735892
-16784796.600080
-13116626.293351
-18829597.600806
-1392499.970384
-18846952.744577
-17947981.493204
-19299064.132036
-8159643.778326
-28833161.379137
-4144515.115029
-16569686.264889
28011628.316087
-15437238.569531
-5492550.428018
-19427293.972879
35201813.188082
-18262514.782798
-50641864.295776
28619052.191507
-10504342.970193
30281796.975572
5146584.197305
-17760382.192219
-15258559.815331
-13223625.667881
-2684535.156751
29932284.850549
21196343.198257
-13859250.173967
-16817829.511173
-14573767.452161
-19594922.980790
-44430997.399398
1353810.152846
-2599765.847388
-652512.863799
-5459108.884765
-1833878.189913
-18954200.607180
-1668011.761431
-24490218.131930
-60494200.856440
-126497.583361
15877799.727199
-15700662.934404
27808553.467643
16356439.470121
-19369424.331800
-12896507.811437
-11936152.099716
29415216.597920
-4674225.653474
-16979896.897772
33241852.786747
29449843.142564
31136015.389910
34542424.062059
-7080926.859549
-17014205.433849
12577330.532683
1974170.773988
-16851480.195157
-43753488.905861
31633823.529514
3082942.144694
32457814.851623
-13846883.913447
-4541257.203104
18150238.472860
24416242.917266
-6382594.815134
-24477959.321766
-18359317.126598
-8949936.113340
-17206778.840588
-17427673.957719
-15992647.882947
-15646150.734347
-4079349.572118
-13448931.440302
-13457762.227737
-18340481.761043
23951358.457240
17492084.672799
-19801636.530658
19472242.512948
-9512932.692774
-19075820.831774
85650.387349
-15441059.543168
-17040313.353670
-6208438.073452
18678525.013971
-382439.591949
-14163236.378874
20356330.833849
9539540.701426
-1076849.140050
25495276.162770
4228712.429474
-13905911.519065
25623711.274109
-32652055.290174
26488564.690161
-17843283.256872
-16275702.058203
-30136899.101106
-10995648.333605
2215749.459772
-18812187.155762
27396530.132143
-17756199.060612
-18038284.207837
-3116850.084200
18923394.950304
2747966.636341
-17220829.471707
-18415437.765618
-18100551.070487
-2027471.039129
-5055117.145956
-23336599.591671
16902509.046382
37198152.353912
-8157363.152829
-15793837.498562
27196603.814136
29958431.342605
9022226.938885
-499624.812689
-19166228.287792
-13439228.422669
-16308932.419249
-4916849.318134
-17969109.271193
-20258425.264475
-8333936.932396
10852416.290113
-16622874.826007
-20376584.264451
-4933566.073110
26870187.652326
-19259303.747833
-17683006.154779
33976699.931540
36855096.395479
-19156599.642203
32920304.617001
-10990133.114693
-5140506.411142
25672111.391185
21701010.482082
-25644794.823104
-10747905.332862
-11448788.965223
14406956.859109
4552007.697460
26962447.840121
15217572.500523
-17921081.089315
-27789668.224647
26990053.974570
9744393.782225
33877543.771927
23816623.746630
-12566607.906304
-3739265.435288
-5307395.611304
-17045064.469237
-15160535.700150
-13749522.446637
30273303.764881
12500612.987689
-14983200.859817
-4932695.704663
30152.960399
-31553272.920869
-19363170.636383
30217369.878670
-1887983.383551
-18807854.412990
-13404386.035610
14312333.717385
-20308551.430150
-3908660.798778
-33616443.123708
-18632266.837188
-72432.305371
16185680.162048
34898789.096268
30074526.024027
36650789.867568
-1757739.533804
-19319882.757214
-15310553.570721
-28906707.551434
-43920034.328497
30812150.150801
36420037.209004
-12682548.738647
-17101053.167773
18042495.174613
16961804.108345
18355538.689919
-13321071.254115
36144318.068719
-19934547.756338
35042880.550654
-22458489.441456
-16489153.481954
16414137.634074
25338675.832137
520758.874166
26632073.965401
36785644.551896
31750893.409623
-16994887.331955
-16877933.970549
-19360387.442590
-12825027.648573
-19409927.363384
-11739624.043834
-11700991.595118
1642259.799948
-1603702.781249
-13973615.106714
-22452147.311849
33919478.571137
-20203152.169892
24966114.251891
29636693.301018
27176726.954120
-24901516.214160
-16945200.539966
-19030090.661278
33719376.645023
-22753679.856411
28558001.784545
-16514167.597373
25263402.087046
299223.544013
-21850502.354727
-20877707.704429
33828876.398807
-10375511.223873
34384383.280803
-21499666.476809
-14579533.348525
37015468.690795
-15982714.813639
7143479.657202
-20833303.274141
-19360170.804616
-60157533.384254
24213188.400982
-14989621.475258
-50935140.519717
-18317646.756389
30618957.887544
-18809214.991758
32071117.835247
-16564171.589544
-5180250.178539
12663938.551662
28859880.377124
8458228.220246
25645268.061193
-23797297.218628
-15793435.129599
-18587057.072172
33501565.813376
25686505.492019
-14617881.465451
26788607.141291
-4820502.065108
-18910573.266266
-11782769.664264
-31580026.321054
-12381804.881907
-16987071.904217
-26517019.375834
28085119.144211
-16732517.237366
842636.477787
-18782945.596898
21992161.210139
-19177087.486720
21511633.153556
2368423.040633
-16184705.687925
33391976.297393
-19580647.459716
-14934541.614571
-18042840.799001
-16941608.202402
-15871425.673505
-19136878.298210
-11863264.334586
22810607.794554
-5160576.806822
28467343.715252
25240867.285785
37003532.386185
-17793036.295552
31896739.209935
-5113.771389
36496054.049921
-2730213.304169
17567248.219336
-19645341.070710
-14704624.602134
-16484760.954268
-18184833.849252
23941277.234122
-12586827.008581
-10399459.576897
-19107190.703287
26224357.727890
12959668.161778
29469539.053092
-13340018.551342
7167178.553088
-29792235.012476
-4049967.932775
31764101.492672
25229496.864380
-16072265.334272
31788010.929284
-34863623.266089
10966888.235153
-14881788.381313
-15306286.630531
-11382080.321943
23704031.399716
-12024461.155127
-13272528.895954
-4510093.655471
-8922586.724695
-15306273.458228
-16867039.621249
-340314.962453
-13162798.866728
-11742930.458893
20268941.238464
-2511387.079543
6629798.278944
-2702544.491065
-14897684.907478
-830042.427305
-4503777.539495
-16970517.093246
-17974685.524867
10134379.733187
-19057439.562861
6061073.002419
20327823.230461
-14623766.311798
-13154281.873534
-16241472.950531
-5966305.493324
-19957199.191921
-12771724.241631
-8624441.804345
-17292133.401789
23975284.688828
-17531066.969293
-5943548.975965
-5397954.736593
-18632698.827848
-4913971.074258
-4748045.395264
-38832794.914793
-10519264.996312
-18844224.716314
-17685576.209185
-14645287.428190
-15317912.845615
-16078664.359312
-15806616.090269
-16813601.991853
20977968.395312
-11904554.694194
10779253.348174
-6081037.652150
25517499.393391
-15280919.584144
-18211564.944960
22303086.819270
-16556847.225789
25979920.334502
33029105.340562
-18418574.009892
-17660604.108986
-20702677.773845
-18932616.203822
30906801.313481
-16809647.582744
-14588726.162204
-4081555.706720
4851037.253707
-11697951.262368
-43215192.375283
-2875344.911330
-4958954.540077
-18392291.456238
-18370324.213789
-15971555.549026
-13508304.408331
-15393844.150583
111688.831057
-18260652.510993
-19211567.064866
37266472.984717
-27156845.165160
-3334675.974758
-19305754.549396
-16102497.393749
-17496377.897496
17321474.603867
-10009604.498529
-2826243.412360
-9867561.908845
19287540.009745
24827793.557949
-8942544.471923
-17971582.697248
-26999147.274087
-16426720.802267
-29132747.208946
35861795.403247
-14461531.962353
-42595275.540572
-12202765.908197
28294793.016057
-60304114.329561
10192404.896315
-17670165.600052
19447824.423562
-19136708.568323
-16847673.764477
-15930039.113187
18985743.168987
-19337777.647556
-21329113.345590
-41246130.016801
-49860877.404014
-19180044.950409
-8847930.252961
36523942.221803
23846387.296819
-2129872.317299
-18906845.478382
-22369006.598135
-10050332.926760
-19466787.362423
36148450.578614
-18502177.307290
-5182878.302623
-18326981.953373
20267500.346760
32594820.686950
-15141475.001528
-19944641.561106
26510212.573938
36870909.975225
6143202.921447
-13759326.224816
30952301.286963
25733471.697950
-19712973.455832
-12194745.243057
-35319161.457477
-15697764.403750
-11083464.787500
-12399812.677802
22469969.849853
26278533.748222
-13809435.906728
-12264854.297746
15447827.259972
15169547.960326
36681464.402032
24783871.018897
-10723408.122570
-164710.885178
-19067215.551692
-23787986.519129
745575.851416
27602268.018698
-17820901.132184
27810041.594726
-18904897.642933
-18565929.947275
-2237737.074141
-2036955.523902
6094272.519174
-6829489.258874
-14364162.852634
-3944677.617092
-15836725.708576
-43213086.054648
-18676217.306185
-9642266.411278
20179115.848932
-16438345.027201
-11483913.661680
-17716048.293971
-10546509.252074
-17868936.557800
-16038505.093204
-11341561.170844
-19724323.355158
-12922581.107193
20528206.553173
-12653557.028694
-16561915.841708
29918149.299957
20483152.730782
16546973.979991
35976458.334010
-13985443.212070
-10968599.356935
-9057590.074702
-10530614.777903
-6942292.304241
-12815005.483829
-13407962.744710
-11966727.398501
-6993257.531534
28256619.733827
-36986029.448680
-15604628.735207
-19547645.597870
-19262530.692014
-14099356.460447
-14286198.871393
-13926258.923949
-18095667.118397
-12200123.173187
8088733.666572
-15575198.034158
-16713868.649148
32850820.178268
-74457097.966018
-2522113.901618
9085280.014826
-16029792.642004
-19316669.805016
-19320301.304458
-3689054.795991
16557685.152926
-16142176.569367
-15252070.001076
-13441945.652615
33742527.304733
-8691710.221384
-19313918.325428
27517408.623883
-10048848.320401
15516103.975610
24068775.552954
-18273556.513094
-16903975.279380
-19320427.474210
-11636365.627561
-1403221.544765
17341786.265953
26725687.703432
-11560568.352360
-10432055.158662
-19103665.069192
-17507001.865078
23262079.871607
-12559115.864194
-13792556.376406
-17436797.885491
7202953.723696
25527598.829954
34173187.611377
22047831.952629
6357320.014009
-17818669.012314
-13698507.229004
-1209334.154008
-19852913.662679
-16596509.784437
-12608622.333943
-13794416.582193
190266.990315
-19346553.962492
-18373865.604495
34592421.753004
-16386007.952813
-13398971.944163
-16576765.015452
-12363873.814543
13659458.483941
-55268137.869621
13072658.890638
-13803726.790259
3563488.334770
-19700119.927348
-11526084.155900
-4481890.958678
24210727.327098
-11760344.000730
-17895028.489295
33240306.631895
-17867582.694782
-26172484.244909
-7079937.453445
-14332224.101405
-7133546.729529
-383552.984376
13324005.284863
13221017.157916
-17800174.987630
22358219.272470
-16099108.724784
21418591.392568
-14730515.760323
32875682.680012
24086696.692101
13401738.985554
20691886.615200
-13501031.822015
-11139485.956158
-33969207.969497
36802288.122324
-18984805.570944
-19515608.398625
36045089.933646
-17814819.236110
-12282384.301232
-10563425.000125
3098068.027718
-13583118.200885
-19650642.130501
-26289143.563547
-17737169.215902
-19298684.302485
14843272.736930
-15960079.639292
23309556.860889
-15006227.618324
-9520124.572703
-12336233.496827
22776957.096373
-48362183.223403
-15256817.212369
21770229.480931
-19196394.013370
-8918834.204406
-4422963.722274
-16575256.295415
-17220379.200264
-18815243.213993
-11999499.701196
-13816095.398202
-10309235.512313
16537172.894846
2509927.487525
23797538.085850
-24770396.119382
-2007044.575718
19898352.649044
-6585083.998288
-24247481.567040
15813495.848804
33277736.824012
34222914.712853
-26780960.523494
9978694.359492
26693366.387108
-19876196.341722
-62817906.901769
-18633115.128493
-12701312.832191
-30167386.489337
20711018.002075
-19043768.694405
3437928.988974
1829878.462746
-19266873.391042
-11113272.611982
32868101.714704
-19138453.926608
22771965.351675
-17875920.062310
-11615873.947188
-11620990.792009
-19420788.030041
-16057488.088175
-6310835.318126
-44613388.781810
11514004.348886
-18718497.679757
-16549853.527840
-39429674.026102
-12745992.897861
-19243673.986453
-12536450.350519
-11616081.324013
-16874368.976237
-32235327.718835
366559.824290
18130721.298859
-43225528.041820
-29518624.225894
-14111762.710224
3197258.960433
10131036.402544
-14567040.583231
-18803446.380685
-21050275.192302
-19154340.906084
36501299.281257
-12566018.145240
-16503352.305487
1231059.657285
-18526902.763056
-19161916.763268
-12590887.339779
-1737748.928110
30433752.843168
-5833742.896279
20291775.772539
25027345.240079
-19308775.094879
-14608752.530090
-17712317.074253
-1542418.091607
6246366.529805
-60569422.034486
-19355333.066468
-19221331.257077
30192661.469503
-3665520.604522
-16970552.063597
-1429255.267274
-3199663.745766
-18043978.268807
-14739080.101271
-19327767.550263
29856421.108704
-18641097.208468
-4381547.937273
-3441595.524985
-1744290.362696
-67170780.133153
-8854399.062221
-17532871.066656
19410733.765217
36593177.781815
-38493925.058818
-17358117.939673
35412980.736214
-14583964.575376
7195647.157404
-17594658.654163
-20542594.091264
20318099.090981
25307583.386157
3714638.956255
-11139148.397909
28909995.784333
-17563601.036798
-19634067.847705
1194567.582723
-18523046.429085
21680334.400561
-14743555.351083
-12159806.640645
-23895497.303595
-11697729.195595
-37321833.982739
4778367.217841
-15475213.773206
-16185369.383435
-14744092.458814
18796578.864939
13751901.735981
-34220363.362855
-18011811.187370
20269500.864623
-10069735.218797
-19864803.802023
18257363.792699
-15880422.475320
-14303594.113759
-18997402.549814
32406265.292250
-14909311.087992
-12940033.977655
-18032119.973570
-2427046.474153
-19296428.927266
-4500976.603655
-13917981.983272
-15382744.945974
-35052508.396707
14422906.004227
6011704.018225
30481773.824408
-19450872.711380
15681134.706844
-12921358.745665
30983841.171245
2967613.005943
-16792964.304094
32604134.385442
-12684759.651949
-32093402.847674
28950058.207443
22534723.691985
24884963.656379
36070768.737489
-14835348.198441
-37549793.916638
21866064.276452
14436924.187395
-13560629.272002
24340042.330350
-15787941.283404
-34409315.204945
-22743060.058620
17366116.322006
-17024300.210871
-17169737.769773
-4377975.609158
-15619014.614607
-2387255.812818
-9722485.292409
36997284.910402
-17300357.207882
30185749.458544
-15809277.894318
-14285094.195658
6801469.083303
-36170163.577664
-7410949.497222
24253119.668240
-20168704.243285
-16898763.552953
-12917500.516841
-12399944.429461
-15536178.973939
-25094103.014330
-18145418.882279
4689015.575657
-17829530.612041
-11526332.503288
-16912021.606619
13884887.319941
-16178237.054903
33869263.870774
-13760297.945132
-10159406.832812
-14059084.202148
894253.263614
-8721208.549895
-512531.419127
-18409103.519109
-6914010.443808
-12412890.831922
1845236.927680
-13583550.932767
-21685752.562765
-16519085.250711
-24541346.430672
-19441382.700080
23166638.537925
-19020349.593260
-17031060.497682
3075060.238783
-9414198.612322
34291492.413469
-2277172.910231
-1778226.843082
-895088.406557
-17840903.238962
-1117805.965434
-2312861.623113
-14231834.696363
-19866262.889402
30477099.311031
-17042542.414087
18451706.839839
-16620186.833433
18462814.205161
-307197.457666
32863246.603485
-15120008.038174
-19259045.498587
16978064.127471
1118827.717171
-17421820.036708
-10137964.092294
8488685.418140
36506626.770125
1476198.469179
12161972.334362
3644718.834724
-19135305.524361
26284568.650886
-12083154.663959
25722404.911939
11737717.716980
17355767.347115
-18785415.350037
-47179174.791599
-37856719.088357
22920526.160705
-1738688.544509
-16289574.203306
14006147.667099
-13686469.760082
34804436.844681
-19569899.353753
-9108457.079891
-19200323.185263
24267730.209445
32091908.887196
10719880.989868
-18508747.621329
-4091328.877951
15437827.271839
-42222669.343914
-19747633.070352
34286399.482784
-13272385.296681
-6175282.466588
20457786.604052
18833756.812446
-143534.659062
17877983.380427
21434109.587340
14089353.314253
-15943728.867744
-6062025.410166
30234785.025319
-28497236.284737
-14169880.023127
-18087136.145446
-10109228.718503
-6759748.081547
-14640955.788960
-18993152.373002
-16563857.691858
-14163275.831284
-50796114.873010
-23857707.490042
14727721.534824
29052430.013249
15917460.273041
-14550240.980195
-8118847.905327
32363846.160408
37223398.678857
16138434.644273
-8198064.406887
682277.652182
27765974.878049
-19378443.653880
10790853.139614
34888531.548510
37350834.768033
-15035744.177834
-13689331.150146
-19375417.533512
29558182.807178
2010034.718874
-10322205.938048
-10680212.439782
-19594321.265440
37488878.218414
4826493.125864
-16377468.341630
-17340263.578872
-19189026.003109
-13180729.560813
-886360.694021
22736636.876275
-31190069.403110
20811018.358488
-16458914.373245
19810649.584208
-33795002.260839
3236228.543266
30881799.117222
-9654791.368086
50593.178370
-18437121.361048
4385191.566025
-14842386.221346
-17677794.245321
-13022525.625888
11844707.960374
-18689394.883061
-2278717.224749
-23050187.022151
10872439.752275
26705183.515432
-13706063.004593
32670498.383419
4435315.323211
29562729.969016
-15573990.176879
-9850483.985335
36400333.652581
-17576076.928370
9521730.135840
-3855476.074002
-7866031.720610
28020975.821203
-13199974.627875
-6513536.467397
-19276829.981555
-14642534.687641
-14196449.498666
19409185.622305
-16551821.324029
-16342364.458631
22442833.712134
-1013339.962220
5631425.953494
-19800840.321127
-17476510.304625
-19853678.757936
-17877793.898477
21201882.876215
-19266019.434198
-4295126.615833
-17153052.909143
37400161.877663
34945048.559333
29618527.910734
9606483.320921
-30866990.228719
27260090.121211
-17178777.346065
15022889.369427
27688699.965842
-16614961.994157
-17613158.174702
26415040.046619
-16881323.597092
-19425534.499748
-47214854.250712
36965506.186257
-14319752.533384
24212931.031542
-6078843.591142
-19676235.546686
-18918188.324489
-3180631.439662
-12311028.139421
-18085324.121058
-18409831.522262
-16085513.957256
-7291415.729400
-52593702.855611
8886679.317910
-7361569.956926
-17791316.748379
-45917552.142717
-3900609.404994
-7331589.268287
17971715.890360
-27090361.393893
-17211020.234469
29399177.551048
-18317947.430346
23581143.026901
-16631768.937972
-14282960.171686
21560136.940822
14765040.174033
-10493046.622286
-19042500.954195
32415242.480654
-1412425.586090
8056967.103513
-1855606.932623
-10859350.317405
-16511612.242955
-47355210.469059
-20521686.537856
-8488519.469230
4271304.592115
-10938901.049384
-4765924.689765
28795951.649125
-1957514.618316
-13943646.581081
-2785766.235598
-10814373.246633
-15613824.561738
30697064.383988
-42168285.066111
-55412269.127125
-13736384.051291
-4160541.086373
-18298578.019654
-22149844.682763
-60490530.299878
-18399128.427033
-23623954.460482
22131611.985515
-9230133.610025
6559624.995276
-699589.987177
-18901543.835280
-17162800.985994
27690981.858812
-1954226.156196
33672577.845165
-6069552.728267
-13926120.727152
-17968416.688977
7173090.600485
31279572.208667
-16381510.558039
24729954.988565
-34890976.977342
-12607619.647796
-1122073.083375
-19489810.547349
-16370395.092014
-16977255.772996
24841963.612903
-65236500.494354
-15312767.397764
-17810613.268626
33625088.301733
-25159810.224421
-19341010.917017
-21773422.462793
-10622158.679956
-1402994.577653
-15143017.417059
-14886704.781795
-3611591.092725
23541603.908069
-19302148.743822
26449147.059538
33575134.625551
15107095.821724
-11505253.090293
-13643271.736294
-19435755.259924
-18782880.936594
-16973744.975826
-7720985.222173
-12681108.331880
-18245267.386016
20106782.529294
-15279577.997199
-21836367.519389
-18902711.122887
-16704157.973719
-27774240.247209
-15775542.505041
-21560501.414599
7880396.387620
-19036788.611744
-19421036.228163
-6474601.889324
-11574374.521295
-52778553.572069
-16367087.790948
286825.010114
-18464031.733816
-12435623.003226
-17274396.066083
25933671.415250
-13110632.954044
-12311609.063605
-8128563.476269
18521468.262093
14729479.085497
-16295237.027686
-18992553.044553
-7462005.360123
-2055500.376946
-8345218.770973
-2603600.280441
24572932.727774
-4724718.865752
-17492477.848640
23723936.332101
-37423926.014463
-16536881.803515
-14084928.507336
-10783371.144777
-15901659.891600
-13103396.801797
33705735.764210
-13437139.699768
-16751783.719422
-16368603.979079
-14112027.341840
-15660823.862406
-10784239.867347
-5364973.075252
-39214988.411227
-9760448.526171
-1592083.498301
-18539576.443382
24718972.922344
-17425248.817506
-19506468.417645
-18379926.665844
30130853.942143
-3352374.255381
34805440.060250
-18072713.587984
-18684440.529899
-19132882.038553
-16988751.322065
13828533.072667
-12931829.490808
33292076.737785
17138435.774532
-16886234.587135
28096734.058103
2964907.216834
-19545491.754501
30849207.505514
-9114562.806625
5462996.376375
19500074.057722
26364340.024312
9144709.892070
-8114726.677897
-5334443.445527
1718455.136191
-13241113.210967
-18599223.489711
-19183347.659573
32923216.358570
25776928.953675
-12833568.046031
-19166225.638647
-21213497.190947
-11901392.976772
27336529.107125
-11588231.626041
-14039671.364237
-16946558.499931
-46884294.214750
-8557987.991646
-8355859.052692
26213314.177828
-65720521.423318
-13046188.958877
30410990.829853
10752192.611306
-4549923.049605
28370236.733101
6925906.454550
33870447.178074
33291691.363432
-20517630.253337
-12000043.061428
-17640333.477627
-31767623.773838
-19032258.375881
8169960.479522
-16302339.626119
29683205.490980
-51223406.455510
28422108.699513
-16737901.246637
-3184112.585676
-11687107.613419
-15612416.941727
-16994115.823605
-17506705.637395
-17299842.852318
13180869.604952
26171424.476645
-18213387.559248
-16941257.122093
-12749008.080060
-19433555.868293
-18472031.473631
-6752970.396703
-19711792.687170
30672700.171379
18765274.636619
32429929.350012
25584394.195326
-10434219.453096
16470988.538356
10105102.956130
-44681842.741298
19545521.241580
28505038.801869
28539397.775586
-3579710.320862
16192261.384026
-16792840.705071
31086579.085736
-18466342.335297
-10832573.727955
24929429.466781
22074728.660351
26545135.909577
-6688303.406392
6919478.630750
5701884.660559
-57700313.572584
25282926.840889
-5087061.040223
-31960464.754035
11102217.498654
-25078454.864829
-16711643.124122
-16418959.422631
-12934153.593123
-17538004.574306
-17780411.656375
-1303902.928373
-7949394.805442
-9025484.995974
-5885828.096992
-14331201.566664
-4797351.965486
32702608.078179
-4854752.616835
-1450693.926845
-7509398.376495
-25837419.657575
4072168.018704
-8807608.339517
-17994361.868653
-21192926.457502
29867523.423885
29132032.665927
-16765605.446106
-22893495.237380
-15294328.205448
-13672856.731199
9205632.965245
19666490.418705
-5607593.787276
24677803.566964
-21205911.852621
1619490.563248
-7323520.689760
-15989127.023316
26757424.579309
14473944.695997
-5611144.601795
7577891.840911
34600034.614147
19948814.004018
-21059341.869635
30250683.532194
28592042.561776
-21095259.689750
4617875.430250
20667233.442366
-13023798.856329
14493885.723502
3574146.093055
-20060649.230518
-15706435.028543
-19017170.873376
-5567115.904346
-10324170.366222
34852979.994208
14464898.388906
15050551.122569
-18020398.132755
30790336.652439
31994771.250077
21643779.548190
-17432934.303982
-54803247.758052
-6983090.907925
-9965626.627359
-17206427.826213
20148522.874707
11033550.345038
-14159605.537181
-9972739.489732
-19054984.940440
34341934.926999
-5906982.775453
-8592763.395773
-1279318.110419
-16865348.066045
-18130166.469114
-10389486.973340
30667675.860149
13151503.099682
-17207408.135584
-33147649.801182
7975484.211377
13709888.421172
21196778.897457
-18387617.882276
-23165170.619618
-4556268.653284
29422592.336542
28840391.678326
-16413229.548206
-2633895.737887
-2595508.260113
35596550.922152
405429.254711
-13209122.842502
-8378784.217225
-5833800.368778
35459249.802338
32790184.020453
16494902.377168
-12808162.570708
-2114334.645236
-16731525.616330
-15033274.386709
13529360.879854
25999483.486722
28516407.483482
35080935.922997
-18390176.305089
23228233.419371
-7283297.243469
-7863196.579137
-39449400.481646
-15710438.238367
17616537.311976
30310727.438255
-9917857.841752
5128150.615817
63083.885558
13554214.876702
-8180888.847529
-37989055.914825
30861348.143214
34304855.721638
28198475.166322
18482880.915083
14606634.088316
24778584.030272
-19672037.274293
17509320.454304
-9140313.923719
12145722.107049
-3543536.436044
-16731045.660960
-10649213.035880
-11903031.761738
-10355756.173463
-10131222.464122
28682786.194752
-17585886.843747
4471136.620787
-14938057.315805
20835263.616883
33745882.762759
-17707011.584173
6456105.972827
-22801129.687430
-8610386.079010
-18355464.541068
30038493.716588
-11737167.145619
-15333313.228100
24912175.065020
-15646906.183647
6795001.610240
-14689817.593304
-19300690.803255
4563270.058130
29925513.593087
-59844397.878632
-55582937.642290
-17866761.043246
1302213.248751
-48601911.317771
-13924766.268905
20184787.627800
20053137.762017
-37824002.048952
-16614241.860124
20871674.707268
24684552.547428
9535633.126225
32165126.904528
32567335.950633
18244060.697535
-17404084.217622
32574833.166899
9583928.909412
-16242466.029824
-18738276.270975
30600496.759143
21567040.601594
25725913.299895
-11706862.673377
35724420.280026
-18707480.825255
-13022891.978835
16843455.130069
6921616.290765
-15762296.690122
-7738025.995949
24796981.632643
-31368462.101614
-13955040.000189
-20571723.905105
-20415108.516009
11669548.464325
12029977.358567
27265878.469629
-18215684.307774
-18891218.147862
-18498860.656817
-40789943.373797
24746828.105753
18327594.018792
-19673504.579811
13514998.018853
-15345829.385107
5218989.232435
29369690.990391
-17813829.928894
-19718119.008530
-16658467.240136
-8095658.349943
-18654508.870116
-25759459.104263
370086.370051
15478711.747978
-23628547.487665
-19195691.664525
-18262782.012732
-19401638.275989
33121167.526006
-11667155.320031
-20113482.874418
31414467.139662
-21622148.437775
-15907085.433524
-9041730.666748
-16426026.432717
-19439226.061256
25603256.224597
-16292787.024536
20491104.276648
28583499.324613
-39627593.808309
25063273.271736
-15879052.895773
25089417.394729
-15688760.614385
-3271458.786498
-821454.566721
-2925594.750688
-725500.148399
-1909320.692718
-15972954.781364
35662371.730970
-4551503.496182
-16604508.535514
1950776.701349
27468233.171244
32143526.022332
29007518.395417
-17188421.127479
-16732792.215308
30315015.080140
-17856208.676299
-36588394.146657
-20058723.478256
-6653286.185874
-38962382.328019
12979781.576804
-9069674.271528
10188757.873275
-14444770.876383
-13380261.287413
-12047864.675870
28625853.172594
-20258376.712793
27070841.666392
28221877.593056
26026128.527719
24156187.781367
22916235.121403
-11979319.156090
30688287.440695
28838670.660999
31261476.621290
-1259859.817056
-15622192.062728
-19491455.358390
-21558005.127905
-32950935.063659
-14510945.631282
21030914.828305
35855187.745213
-12304415.380695
-11588285.995045
32134596.572105
-18488984.063935
12922148.904777
17095820.634612
-16314511.079208
-18528578.958381
-15049824.008337
-15624216.254324
13779789.002701
-4235767.215238
-37359933.015890
-1068009.458236
-20455330.520540
33776738.550481
28041367.437116
-14881298.429411
-17850114.591923
-1792127.055882
-16345743.432516
-48445920.516192
-18173371.875831
30618900.945131
24086450.662179
-19235945.738082
-16148112.820277
-54489742.466101
29447637.128235
-21616277.377494
29939580.338873
14820505.737418
17035202.641484
-2218621.169500
-18306620.846558
-18836974.582817
-46367508.227507
-18077166.117482
-8935772.435235
-16988745.282879
24695221.060772
12701087.635017
-15959236.077503
-13473565.332535
24605468.701399
-16430516.815563
-10980863.535723
-18331159.732673
-13089924.817419
9510962.138515
-19016435.140866
-18157559.471707
-30624997.264910
26464140.403740
-14066201.451473
-241010.402710
-12868149.609687
27505624.617981
-29194683.988380
-6832064.989417
15830036.156015
-13571006.540708
-18537423.853121
-19213655.024781
30553693.623779
23281220.227015
34703591.327603
-16875991.467090
17009354.764568
37244630.567162
5835200.092864
-8614083.005396
-18318147.960495
1736102.051427
-17440529.518435
26762435.830426
-7175676.161413
-17853041.807761
-16263839.067506
26794471.396788
28235883.485810
36847946.107192
-18954760.494857
-18846812.832827
29786680.396348
-21957357.932144
36807367.909132
33986831.627624
-19023994.692843
-18860811.988437
-8230821.812031
26112835.887856
-18875537.374121
-14113243.794361
382379.567066
-13976232.678257
-15281538.533487
-15513047.277074
17039242.595900
-18406365.967438
17332821.497943
-18504090.144952
-18734691.570901
-17297879.932241
27578739.843425
-15884706.535529
17178028.532775
-20524120.368527
-14799945.334101
-8122855.754764
-17551694.927501
31759324.651303
32609830.522698
-16109545.727843
7941712.926248
23922585.977461
1683807.001335
-20775922.212536
-18203083.302874
-13056783.343531
-219400.131088
-12942131.423209
-10192026.965806
18993532.355974
1503656.751926
-7877198.682751
20668907.493389
-8762949.430333
-12435392.899817
-19313695.819406
-19403339.796959
-19307497.398715
35417084.408824
-16865440.731029
-20463049.058809
-20934241.761320
32447386.074061
4819413.755476
27822758.053849
-38385675.826225
-13525673.053234
24808078.346304
33405285.280085
23089812.222959
11209215.813899
36199331.760714
-2413685.693356
-19050312.949071
-18854617.594507
-2549254.914316
-7270271.808933
-53092980.125147
-40448936.021836
-4629651.586804
-17678315.487892
24488557.437884
34400282.229273
36012213.098220
20623090.286610
16215878.950540
-17053461.864667
-19342780.424579
-15820066.920383
11200256.642588
25957193.958667
-18000351.973627
12928498.826954
29581476.126901
-17132941.768714
22435216.593797
-12869903.468121
14038842.975550
35563881.171729
25214367.101602
16110394.246601
-16233162.366400
-20175057.199586
-19051526.623610
-15490236.976605
-21296382.592960
-18437624.785937
34217940.543308
-911396.027640
18567403.920801
-15362262.780938
-19139196.710147
34993619.524434
23054851.523800
23907111.559196
-30888698.216599
18545362.788941
12110857.788606
-15362347.211783
25458078.331790
9640700.922556
-16953190.232785
25489742.986110
-6676093.516081
1106101.562836
-19922744.980771
-40173208.402309
24202179.853264
-15374392.608692
-17832577.893932
14623996.841359
30879654.423118
28603340.760042
3769113.614173
-15905962.020473
-18731337.905033
22137412.354552
-17738268.725243
34642278.949670
-19674470.341730
-16396017.020738
-19143192.610111
25437230.639842
-2522379.873309
3404986.229657
-13223279.739631
-17729744.876447
-18950978.780666
6789121.515405
-18369718.031074
5005697.360862
26406758.174862
-35147613.586372
940905.705223
-13948019.696099
-16718486.075294
-19879001.860960
26408767.096399
24291321.965193
-32581836.080339
28204069.031886
-11193545.406948
-17923499.020848
-16589114.974551
-18790108.978353
28346265.437525
26416550.160416
-7036155.061821
-14902097.010258
-7899231.874406
26694213.980464
-19416123.524372
14307177.660443
25513728.584164
-20441118.635302
37054401.999988
-14383461.444940
-14068597.054973
-8233186.400139
-16521192.039897
31632608.666444
33504376.902200
24264634.526059
-15206763.429375
7849783.690594
-22978562.518398
-11436637.465040
-15841049.283880
-3825690.249469
24102484.271688
36943207.465880
-35851926.449763
-16606953.479813
-17354077.160834
27111913.296829
-16827731.445683
-9855384.376170
19338291.200127
-15785724.484849
-6258049.012373
-17596002.672559
2172542.556227
17188713.049880
4843336.641992
-7770453.122436
-18987676.007113
-18872790.028432
29455287.618599
-16678929.207485
-13169439.449082
-15340494.575239
-19486662.593993
26657541.446871
15295123.042736
-18524160.828054
-20665869.501754
30184851.979961
-9735287.629627
26120725.792038
-16193466.196518
21336258.647050
-15432941.035934
18735925.385924
-14109941.756414
5786159.499443
-18753924.401277
824025.476561
1464103.280268
-6658406.553437
-16812824.990508
-17007087.478031
25290061.535709
-5348405.965648
-15884693.046759
-19208903.215539
-24695998.089784
17549912.612294
14622120.980015
25476474.871535
14922157.623914
-19571220.172988
-18767358.819549
-2716214.898455
-20491614.855712
36758016.514010
-14932256.506912
32549775.997630
-18849279.389413
-22571397.119941
33865076.502405
-14998051.243130
-3236498.042395
-19182477.934740
-15670863.280572
30906943.523343
-16347998.790441
-4767600.876201
-3792732.633332
-18862277.048373
-9149565.932859
19412175.150956
-26543892.274527
21566645.812148
-19146358.250466
-15274805.046172
-7947075.486308
-1724923.170222
30470353.920260
-12023880.289140
-5245374.712827
25320449.636740
-18840865.027385
-19912715.271983
-15439049.249050
-15534449.442290
14584121.364218
551427.448086
-16656900.041838
-6338478.745544
-38039452.808014
34326578.384483
-1418196.988121
30215441.757210
-2587034.383392
-18896842.942835
-19170836.929778
-12992535.409724
-17689288.075443
-15437695.684323
-16674858.156022
35397232.160699
19943837.787622
31514847.110056
-16994997.002058
-14131659.569143
-7144210.407215
34401094.024137
-20729254.486923
37068598.971080
26763909.143699
-16864050.248550
-15734322.077754
3942330.260019
-19366762.338648
-12881980.052634
9871131.268691
-14725666.888255
27534006.126151
-13226339.297712
1408052.178354
30131300.633894
22337073.649661
36123390.407619
-48427449.930033
24209536.870256
-19085336.578143
-16266238.699571
-17111199.804797
-22189881.036586
-19676906.936785
-17429246.694653
-18294380.392975
22833729.960351
21937863.773382
16790307.464641
-36390459.928011
21794966.108694
29923445.222468
-15952047.941483
-19191523.874059
14573665.105428
29382928.630097
1242138.800282
26050643.773746
-2244415.067521
13250742.664835
-19558928.001443
-6854201.535672
29034928.379389
-18980062.589161
-18296585.720831
-14274825.614916
-18350893.753191
12266317.128725
-17185842.615367
30849271.677088
19608498.633380
-18459546.631864
15475571.653895
5403620.420348
31727568.029684
-30226210.189679
33309713.178258
-28657231.385521
-18570971.626037
-21296895.010888
-19417128.075385
-33045128.704725
-12385726.768045
25791337.126057
-14901669.581929
30976048.427701
-7943502.167429
15888265.604502
-13986867.058542
-22454054.811581
22327249.703120
-15241192.063916
34754794.195699
-20026814.377748
-18346009.463339
20682087.966200
-19286777.001040
-19753451.831314
-15888772.565412
17185601.815927
-13816271.826220
32721235.358923
-15349943.445974
-17490613.975365
-16847896.390318
-19851520.774709
-2613033.109027
-5755130.526293
-19619095.519876
-9568395.761307
-19709219.530726
26666398.765871
28228859.137100
22222220.882358
-18054004.180696
-15777455.004267
27138643.093275
19445488.332272
-19395216.020180
35923221.186131
12536642.021414
4034874.096415
35805014.372899
-17834096.712968
-16444526.742630
23203852.519378
-9298531.424141
31952000.476089
-19124900.427315
-14244909.919254
-18658908.794551
27138844.324421
-11440624.982260
-17799056.730867
-18284642.750346
29709476.811881
18195540.655372
-17850376.155525
24970715.875729
20025737.994992
23137531.385592
-17608861.769183
-5366719.761569
-16520029.992367
-22574686.218954
-9394645.907181
24875827.198873
24790326.705693
36493631.060859
23810316.546836
-6511648.078133
-19317712.398058
28697111.216515
41489.985657
-15648238.324662
-539428.733125
-19464860.925206
28850544.122275
32114191.898527
27935143.899642
-19280226.062561
-15960117.554879
-13535341.616089
-14167026.872499
-19285657.286705
-18626913.817452
19384025.611201
18870298.262775
36031934.257507
24940024.772344
12303856.514025
-17157415.187354
-7713411.855755
24553817.806474
-17333441.569183
-19698021.463374
25757583.796907
20698077.776560
-13046922.486108
-2181286.100499
-17793985.303400
13676718.389912
22891354.166284
-26454112.783982
23757384.088680
-15948064.824961
10580116.078188
10385754.646916
10471193.300855
30094812.178710
11639006.029558
5023226.064036
4551012.480823
-19838156.711091
-18524501.581922
-34065482.492991
-407415.871788
9924027.190765
-19553460.791081
-17763425.015714
-17065603.638658
26079149.977805
-7935583.993795
2542717.179606
37356751.015027
-19714089.159354
-55438384.429769
-19415924.454111
25624442.308081
-7731739.210219
-19196030.685978
-16034171.725448
24886567.804863
-17712436.706359
-22408310.280763
26733428.055202
-17923287.054614
-14636547.975632
-14019653.794927
-18926115.793385
-16868110.988114
-18915107.686502
26734449.324711
-21275896.911281
10777449.390948
37182962.043972
-19325719.126185
-15848309.226553
23274717.613611
34441051.444292
32150065.671024
29291909.282511
-17182083.872493
-15209423.161331
-14620212.266643
12057935.421345
-45335190.763386
20551179.640703
-10834699.297741
-8839434.689277
-19181539.583373
-16383976.144912
-15676067.115155
30678844.164245
24754126.238125
1218384.056117
-50530136.328113
-16743111.264960
31237619.866023
28127715.180423
24146542.105527
-12994262.153579
-19562851.287135
-553440.407563
-18946887.791350
-12143247.920247
-19539266.862049
13690152.836300
28476017.908506
35529777.274865
-19383040.128404
-218246.418793
-19157060.155190
-3370183.358335
-19280704.553397
-1680548.200635
-14787314.008073
-18311344.484021
-15679654.318101
27911199.945315
-13749682.397393
37187800.606393
22696086.449353
-17746913.761929
18759003.251274
28864770.481486
-19266055.757100
-16286543.421766
31566347.519005
-16800195.333911
-6670812.618396
35040241.365433
-13618460.033035
-14402885.748951
-5384091.354133
31365334.909220
-16039362.062113
2217721.835805
-17149102.064079
-16295513.682058
-8174757.247979
-16019612.273441
29276194.720963
18092967.388014
27712171.737210
-21904648.328924
36265728.804309
31988194.439735
-13393034.043595
-12496936.673480
24756416.579903
-19616768.404527
-14347636.458038
18257482.762957
-11925085.698385
-21638386.570262
-17281680.456817
-38802681.324467
26262351.124032
-17677480.836178
-16803832.126951
-16426702.056134
11283866.259158
-10144386.073105
-11697151.884352
-16531954.006278
-19387634.085608
-40398084.281685
25917051.452785
27936318.195736
-22328238.867797
-16582037.490791
30852583.371455
-50575758.953662
28493613.863726
-17841107.037134
25553216.200124
33047137.621126
29637440.490923
32110358.948281
-19023083.189776
-15240566.696287
-19632617.916346
-20580096.231962
26408750.838048
348597.571381
14320705.426232
11055289.379930
-7610603.439637
17637473.716828
-17952654.111696
23724677.382843
27152904.139493
1908756.966551
-6771147.143204
22939704.420766
37112061.098937
-17382454.340241
17922792.825865
-17354194.469248
29206496.530219
-18799378.154964
-6871671.567322
-16946978.734732
6994004.613986
-16779600.669454
18848463.496170
-10045765.973845
-13124264.121567
-7077759.415368
-20597701.264034
-16012149.507163
-32838493.791301
-20722240.119653
-18685977.722657
-18271557.624172
-19240919.223474
29567876.446239
-19013526.681925
-15013913.633380
-19736637.907308
29586463.991776
-18391181.016231
-14534284.383753
1324051.255970
30453932.061339
-15958843.265501
31703671.250871
-15328852.384371
12699671.025843
-16380558.401676
-22749643.233596
33128003.673418
23327554.658717
15975889.434523
-1563965.621813
-17526778.537144
-16440393.789900
-17901802.288912
22088586.250384
-19267440.867360
25362265.219165
-19365327.655318
-15556397.766369
11270028.561817
18215545.108747
-12734875.211914
-15210448.881154
23598387.073144
11107350.164200
28201034.369555
-19061126.009645
-21917870.118059
27645735.690765
-19418508.320132
-33535666.448504
25504727.850311
-16621921.159725
-18756503.050775
-16874357.281427
31535172.571020
-5668397.105202
35663567.671012
-19516396.903505
14662503.348788
-1692867.102283
-2499350.021700
-1169528.849210
-1345218.936251
-1870961.734672
-21318408.651468
-14051323.088326
21251583.960484
-15601080.792720
-37896497.012927
-20461998.599000
-19327891.780449
-17513987.733446
-1899204.893646
-37142470.889170
-16084643.244738
-18749996.877934
10897858.718741
-18830480.676517
-19136095.727549
7276016.880941
3602888.293400
-17754142.271952
-18538873.788810
-3310646.102553
-18249200.015340
-19738010.014671
-11842535.214031
26979449.764061
29007380.064528
-18961614.359818
-19808423.536575
-21407391.161580
-12654599.908664
26725539.935054
15135253.935314
-19189465.038980
21469613.154526
13277437.758228
34875250.962113
15963019.661950
-16269112.965830
16124350.365805
-15059444.030600
34398606.457507
-17452312.797014
992754.450191
-15680179.029893
20429726.835026
-6967683.145798
-18600418.169356
-19784075.530332
15752443.795803
18283090.050655
27084532.488487
-19253025.872645
6308919.374704
30853111.971671
-12770128.293954
-17271508.663951
-19629483.946305
16284342.885622
35445035.680075
6706292.026922
21331633.972122
17024745.105466
-18544795.892776
31379664.503591
2163606.318371
-18189772.382446
11215793.089172
-11189945.566594
-19219463.622629
-19704917.129923
26690727.142797
-16477417.301160
-19517962.950364
6691093.981267
33661031.164529
-12397090.637513
-18798117.106529
27150739.001570
-16506131.514927
-19394278.570578
-18015651.236449
-19400643.711875
-19068754.391369
27874145.958130
-19858373.607550
14898353.324793
-15574396.589988
-19406599.179126
1325115.405820
-41871138.719498
-19451882.549598
-18943908.067163
10919375.959438
-15651260.029474
-16163645.137793
-16570580.723921
-18923113.365749
-9119945.592476
-15409831.260183
-13870951.259153
27582769.880067
-5537151.844419
3152022.465885
-19042418.307780
-18856137.323557
-19652119.267751
-18361102.860366
-4448848.365898
18376138.877730
-18813118.043370
-18872952.470782
-19173493.175313
-22467211.256380
25882268.068285
-17245445.990842
-19355461.552093
-24902905.688122
-20684742.388373
6663822.373708
5710254.167934
14555348.717906
-18955893.339138
30095763.760425
-2870318.657644
27916170.670776
-12612926.520227
-18702526.009900
-18987484.783031
-19222470.780351
33853106.088805
-17513200.228723
4666298.197128
13384646.426181
-11876966.543444
-19549350.827240
-11283437.536939
-15915864.933250
4287395.984807
-13072978.266304
-19192187.006951
-17965167.737634
-5434534.199902
-19465513.278062
-19660917.936396
21587808.877602
-19280625.503084
-19499944.864465
-16451620.917698
-10800328.664805
31965655.994797
23713891.679547
-16498727.719314
4404335.519194
-17125617.264881
-18914577.989995
-16228701.109938
-18953359.140780
-14521427.845081
-48975631.803193
26837409.530737
-14668144.445657
3346099.701118
854746.633599
-17656329.006109
13145862.518975
-17152635.207980
-18161368.802844
-17690502.036205
-17178915.126515
-14087884.689043
6760284.302870
35880133.716870
-10595440.867718
27219430.141551
-19615922.663420
28424562.587250
-14959979.451118
-31424188.674688
26481792.084536
31411313.480960
4026520.814176
15528293.190017
-9013053.488223
-19033829.689835
-52506067.304776
-19648681.137116
29389072.295241
-44948406.347462
-41769065.610987
-4277847.332647
4698234.477873
-15792175.072183
-14150391.887240
-18241540.584676
26129374.511581
-12556003.363927
-11241133.961726
-19547572.729706
-41063672.275303
5271216.147247
-14862671.404464
15848208.879353
-11856256.659070
15766201.596866
-20321292.881338
-19348124.005688
-14716944.592867
-14520892.650961
-10738497.215020
-19321520.049370
14523716.522829
27622939.029693
-4385695.532777
-16728095.562396
-19115024.209682
-19773435.702153
13296647.085362
-14587865.954258
-19075460.506939
-18081990.314203
-19028447.755483
-18122317.036054
1841801.951638
-11057469.382271
27925945.926593
-15243684.736492
32246544.531530
-18415378.979624
-13232309.979145
-11403676.935938
-12764826.069819
-7051134.182809
-2978401.987666
-7315943.844084
-16025139.039247
10448613.191879
26216941.888520
29639341.444302
-14632859.935630
-44422013.420952
-31188586.005316
3059800.008772
26718778.639317
-18510862.218759
-36424237.991023
-18997598.678173
-18889099.706055
-23740832.064167
-14948268.146817
-19608815.826094
-13218497.728276
13181567.729052
-17370290.298594
-19366891.004651
-17712362.954483
-21751794.873265
-19111150.274274
30013668.295885
-19881632.200128
27393738.116254
-13479247.273463
15747562.758224
-13838888.414081
-21132741.571893
7698621.220339
-18975548.053705
-15547440.164481
-11025482.630122
-14700445.216218
-12979556.914512
-13942725.585032
-19040764.628806
20237683.147130
-3764743.172417
-2914913.419017
-19622130.698001
-10199526.648527
-4911083.889701
-10957570.871866
31001589.826323
-9456101.351082
-13490560.549570
-12122629.318548
-16480176.144385
10043314.166748
-13317940.974252
-14274628.631913
-11962633.222544
-16276198.384482
-4818930.496941
-3509944.078453
-10356966.698700
-9138047.804563
-15435928.862864
-12808819.104746
-2323095.270702
-2803433.750531
-15786983.441422
-15086353.470247
-17311973.222818
5663128.774922
-11685778.536345
-20866266.911454
-14295270.935248
-13099209.063235
-10295565.632309
-19033295.353075
3453765.094166
-13841634.352771
15813623.704900
-14783513.622518
-19361394.332891
-12080915.855319
23884961.837166
25670882.071446
26603279.728562
-17898910.990727
-12792443.650666
-19533335.261958
5651713.020402
-17548715.318530
-16939530.855870
14749046.814757
2813103.008040
-18652785.796245
-2602943.687205
8585434.273041
5521755.301294
-1930339.044124
7559153.934394
-13580808.494597
-39133626.429658
-9855306.539675
13288482.447072
-18893433.189523
-23431864.921635
-15044377.832563
-4519512.832813
25900825.523485
-14994171.851617
5948648.292095
-7134397.542266
-18897627.618584
-16943125.754100
-12362561.254417
-15059216.918044
-6799044.597474
-12531160.853518
-7082363.277686
7772353.043756
-9908026.694227
-18918369.838997
-7973097.558221
-10049385.049609
-11326342.010894
-8460657.530569
-14920671.783903
-18537428.563249
-19195812.521377
-11019153.225531
-33846351.037169
-18873412.704992
-15680849.456113
-11556934.025349
-19185014.894679
-13244798.177678
19689803.639618
-14326685.910663
-14167610.847457
9401158.113882
-19362854.025471
-33140886.389770
-4372641.444866
-14593678.848571
-18295289.001824
-14037250.865123
-15738753.364345
-12850439.293379
-18795520.283580
-11928400.603415
-13658520.117701
-8290280.611784
-17711349.773774
-15162395.249740
8820586.184751
-15769397.767759
-14472946.775666
-16109954.548015
-18094872.656694
-14641018.488235
-13686528.702646
-18817786.617000
7598618.177207
-16424550.052264
-15005150.017003
-4191756.183554
-15772080.068818
-12554552.443755
-15002127.843865
-8269383.581126
-20074475.437410
-18721423.317304
10788588.355786
-13608778.862962
-4173556.403321
-18507112.123944
-3987178.573128
-15299785.048761
-16196619.920676
6970753.275505
-12992988.630391
-1637557.593919
-3068241.458971
-1956063.147178
-2750595.839718
-1038080.149432
-18640166.295111
-19250294.386238
-19347514.719101
-39926616.238191
7935394.855227
-22002941.104501
11136651.972205
-16789198.181600
-13727323.144253
-2574014.256100
-19139976.302716
-14469055.551819
-19132321.438383
11477918.351648
-5500812.156126
-18461569.846006
-12733614.164056
-18921643.583650
-15939243.410373
-3979588.955068
-35383847.910955
-16641244.881721
-2310001.158747
-15196315.243009
-7694312.177700
-15227231.471709
-13173623.766221
-7539194.401062
19257923.894636
-3226390.245150
-19342971.124062
-15233698.559231
-8414040.288301
-13488192.305197
-15378332.926562
-15932451.553554
-14778463.274981
-18860506.675807
-12947337.468370
-18911963.032691
-16634345.194138
-3472946.006811
-15679980.407204
-9048348.973114
-22929332.370262
-18423706.066873
-14918329.625163
-11540380.753802
-17109330.424126
-20053929.229686
-15867062.166486
-18994362.930492
19548486.816676
-29345917.899088
-18948261.947400
-18518168.091872
-18881325.916417
-18917790.840076
-35997737.527826
-18724342.209767
-14967102.234584
-18208882.883167
-38617282.727794
-18891913.190241
-19234368.390124
7987701.587928
-18492974.074799
-18849088.048041
7350424.946811
-16436900.128239
-18426865.548674
-6670219.328476
-22916745.204873
-4337980.500293
-8299705.581560
-8114103.369090
-19059147.355382
-4882438.225559
-18459066.967150
11018922.800015
-5348261.305167
-5129191.344283
-5157321.658598
-18431716.251627
-4930909.305775
-19017784.667757
-19112581.331494
-18944207.762598
-16373684.618006
-18436683.384074
-19227967.472563
-19139408.890365
25562713.282254
-18430193.355612
7658680.935683
7875649.181904
-1047302.168483
826494.059205
4142835.951630
-18446433.815230
-18618747.293366
-18418883.573228
-18945381.110449
-18446820.420082
-10169977.552041
-11714021.856304
-17498563.862307
-20755234.233303
-18272848.315757
-19201209.838110
-18433247.805438
-18476442.922105
-18486988.996178
6318990.640230
-29418202.988531
-9048134.617382
-1944102.669645
-2218268.487589
-2540166.636718
-1622498.899477
-2680701.326420
6013177.491920
4738539.472114
6030305.078356
-42903797.938552
-40375125.889024
-40520834.098018
-16742554.065528
-16271172.294288
-40081534.507352
-18682199.303500
-18084803.577437
-37329096.269966
-28331641.376985
-5946023.333019
-3429987.274754
-1105076.816032
26408587.965640
24534215.972526
2371889.394618
6122608.836800
-804298.886457
-43764804.828522
-41755876.696162
-1126921.632330
-9760347.597183
-3043160.979668
-1949564.610385
-1533906.287004
-43625608.590270
-46531417.033618
-44075145.801910
-15427581.013452
-921833.064205
-4976467.358594
-7017530.370863
26261175.905854
2183175.867314
5222648.297641
221757.297220
-10894200.585787
-11286117.650562
-1969262.426769
-2841913.089704
-3131802.381971
-44877682.691074
-43948965.688473
-17301331.274861
-16872648.939277
-4207042.932126
-3966861.596856
-4605360.290685
25193706.011020
477940.895508
3945928.688361
-9698833.996606
-3457841.356598
-1521876.104745
-2890474.584402
-1895397.916514
-47721484.600681
-15984976.712616
-5728210.370311
-43077381.470859
-46841092.808843
25583609.674003
26893293.383844
28700707.699384
1627307.477343
3453194.854777
3857880.007889
3178081.899742
-9531152.578129
-7963036.610190
-2094587.839858
-2278070.251499
-2539391.949577
-47896746.141456
-46559164.918212
-18278479.845782
-17420393.679762
-3287895.755396
-2284204.303857
25831379.175668
27983805.201936
1373449.263302
2027282.624392
-263938.615128
-100476.243374
-9480538.598359
-7852502.983259
-2404452.040620
-1672495.623752
-52255446.083584
-53375401.035042
-16556751.300776
-17289758.675524
-5102387.487286
-6083262.797054
-3632142.804697
27676472.607076
30667729.172254
-50439907.548370
1376640.357711
1021440.803371
-45464088.052591
-48032475.706463
-9338989.766188
-7552328.515516
-49630954.125570
-46338842.068399
-2360047.488720
-55705114.774727
-52255515.943555
-53341914.026550
-18032771.643815
-47877302.631692
-50314268.111991
-2832200.840508
-2453392.725416
-52463063.681299
26459362.834942
29223905.331945
-5089260.173685
-691968.843321
206836.211181
832936.623650
-63293668.123985
-7585051.196217
-49581964.814568
-2645929.132398
-2118404.571131
-57275255.705669
-61319890.448203
-16600221.263484
-17620908.952040
-57344893.838788
-57576914.554131
-52438206.612409
-3775968.286539
-4291654.440113
-2392577.208754
-1427585.412277
28152489.227038
24354283.582075
28728112.106502
372548.140132
-262263.444223
-4498170.984805
23402942.330822
-8906376.094313
-2654664.211311
-3127243.618323
-3261984.121987
85992.721266
-1559109.868522
-2275551.283779
-2787633.417985
-58219048.639784
-57066391.658614
8317353.588486
8765995.356302
9020883.062698
-17735710.306496
-17998042.835856
-74529009.619585
-733709.027066
-1512803.743184
-1822013.603121
-1494051.464346
-253387.303122
-99832712.774355
7091382.344133
64689.153003
10796822.422002
-98344126.069140
-69710036.204679
-96510619.052939
-100949584.609643
24801778.511074
27061077.017126
-94333663.427906
10824569.714144
-1294776.694088
-6160302.726101
25070391.301025
-54490674.617733
25447391.752403
-7629426.214265
-101678687.747824
4652063.001526
47702967.475314
754669.117879
24072625.669676
-815355.793083
-1809974.192162
-62812063.578326
-5824433.367774
-66637673.470987
-68986261.416360
-16707880.841628
24467655.308684
1402283.387504
-88654624.346251
13881308.188337
2787957.601733
-921115.445478
-3202833.927963
-1518916.317409
-82646174.433900
17505622.076377
-91670597.661080
-2261489.963765
4119.865934
-707155.535378
-15433515.584721
26551770.087881
202164.840353
-3232668.624746
-1839335.180417
-5288530.359480
3705.252683
1087040.010492
-64922591.033514
-60921833.077208
-8963149.661363
-85657619.145047
-40404524.050417
31193907.700488
-77666.410904
-72189608.200080
-64052134.118171
-10775.245146
4047669.445494
-11517257.362493
43052113.184004
21131995.241678
45158400.512106
16802953.724972
-13692827.541787
-1990368.033868
-62361144.987891
-12769787.654932
-65013897.935646
-74533210.327188
-70153052.576054
7784325.269666
-18152833.036923
-8070773.751455
-7072708.213937
-3236421.076742
-79571.684207
-438568.700940
-12150086.772701
-17488.151363
37087891.524529
-29472.000065
32602221.705740
21521424.258106
-73789496.290458
-65529107.755505
-2413466.513406
-13662571.625415
-18115129.334662
-2990175.744445
-2397274.476681
-293602.673814
27584.305397
-7382155.340085
-6098061.988486
-450019.855806
8791099.993324
2171665.811329
-15684196.860390
377201.982354
48915993.274970
-8782984.699458
-9649224.540993
-13167182.448700
10798618.763170
-16919742.358096
196457.751826
-13334321.114115
-14007564.122410
603701.499011
-33597053.182782
33790092.073580
-15389460.525954
-59149131.053160
-2779203.308306
-1012259.190739
32079583.776819
-67505235.399519
-75608279.492555
-69408413.134956
-434.354892
25350997.212068
-3463356.297464
-4727751.935099
34742549.710334
4073856.729186
14252191.905076
3168187.765872
-182198.929372
28383760.348312
-60334762.174146
-7856572.602425
-14642448.953866
-70635.608249
-1291897.716690
-27640826.939222
35439884.070305
37591405.201732
-8446405.827612
-13568379.496027
-22710841.382309
-16807792.112385
36011451.067135
37600387.511830
37162465.400342
37437507.446292
28683460.180323
37688797.466576
36523099.514948
691712.924946
608710.262696
950032.331166
3061819.890435
2633689.437590
2863850.372828
2095142.930567
11140775.175289
13065282.852218
3530182.397219
660294.513596
2329438.967818
29652159.723704
791232.719412
-9685761.798699
-12194687.109113
-15188229.919702
-25018761.725273
-163116.233236
-34060.337689
-18174913.240301
-16704955.896941
-1475659.180934
8306387.349073
4588.392063
33278829.458882
-16121371.074334
19672621.077462
-6305816.211431
48873892.949515
18894940.831041
48390602.023549
47428562.488226
49974666.810857
-84308092.885035
-12793868.030593
-159342.729884
-11026363.737470
1731196.052002
-13934376.180585
1145491.090454
-13952525.095676
32618008.508502
55646192.134449
-49664566.020402
2915760.855880
50090997.122454
51740649.478878
50015143.435133
46296327.728939
-7312976.094893
48348373.870433
48072023.328383
17230248.408033
-12730930.079430
55438458.415456
41591887.110824
43920671.326231
46574975.150227
-45274767.044237
55082219.869342
29955066.223168
-69486960.860407
37392825.893453
54046327.828341
51441921.176464
25877314.490517
-2092978.206698
-18155771.751595
-33773233.118089
-23428161.657626
7762468.740681
39600400.327154
-1333855.629764
-68918267.159281
-74021521.978144
-16320332.020895
9362012.125162
34900827.104684
-13330615.480670
-12745666.910477
-10124468.064243
-75786428.859424
-13449892.960446
-246557.218453
34404846.821741
21005660.842041
-319110.907039
245528.504773
-7750094.980934
-26286009.961015
55344.828799
23859769.783759
50333406.483007
46312508.932574
33925153.071844
50726017.304209
-21944293.763988
16220319.264253
48968212.716179
22545451.981304
-15678887.973176
-16519458.457688
-118868.269091
-7285625.672161
213175.445132
22076912.530112
-14226480.798110
-18246695.840894
-166103.032337
5296.552040
-187281.148590
-12006412.827662
26887775.958532
-13551956.293341
162572.559816
79865.740176
-4557477.958100
-55872837.874265
22134632.342253
-13613810.544631
35295029.964678
-14973703.308470
-286505.640115
-3441817.424055
11361602.530236
-2566638.158319
15240981.262796
-15021090.417428
40263.905341
-6404097.370057
36170098.482530
37446622.536231
-9096266.047069
-12816925.158236
37535802.328701
-23820815.229603
37398116.190748
13600968.566369
2878454.469463
805841.853400
643107.775942
3128254.515463
962882.205641
685795.599588
3487240.553941
29115187.763205
-15985407.467002
35606288.905465
-14341221.093503
-26321833.701861
-69972.412523
3042968.902446
-17654683.461564
-172219.643489
375071.053549
15612639.211188
85960.340891
1795.907451
-1822254.967915
-881795.231763
24993601.369508
-3962720.253246
21193455.634577
24419081.752178
22549321.088735
1316989.181320
-1839821.221613
-296135.543586
-54060140.467611
-4198300.829355
430155.722651
-14509631.948602
-3927396.331874
-41146.603066
-1604015.865057
-12603206.956153
-76825859.753192
430425.464606
60065.673047
-8267282.009933
17280.581584
-11416082.354179
36460656.767774
36169167.581835
19450699.741915
-5062454.465284
1155211.014458
2679367.151156
-17959938.820016
-68191985.702009
-1641259.710885
36723372.809367
-63289.695022
571220.946658
231980.758722
19283.930345
24735764.337529
32278335.950123
-480439.052399
20288355.480080
19497785.575059
579066.649114
-7563375.677878
6371978.946576
5770750.658733
659122.544600
21969553.451006
-3995473.417672
-9068863.646812
1178529.735709
300284.383865
-37065925.257744
1202.487844
5238848.272877
-84909.526713
2878779.243511
4121.713952
696908.397851
-78616.347453
4689814.791804
30692.034606
40422889.864876
-604230.619594
239683.770690
-307257.702253
-7210961.128544
36109722.223242
369281.301153
-69069.974069
-26054522.286697
-1931591.119835
20646852.610782
27563589.655533
-71159291.797940
-15353470.778114
1574980.437655
146161.916095
30909546.713262
-4745858.420948
-16869775.041481
-22358.608374
-1262770.365404
-26023.186010
109656.324703
-2773306.064142
-58510.454157
9090460.191369
29568119.382192
7620399.126764
-2547770.642604
851809.434134
37658989.416353
17659971.839146
33871.244999
19570268.755326
-119871.556727
-13071120.333690
-13398755.674932
10485882.498809
166105.693668
62615.440401
-65947.901631
39821394.565167
-2466366.895908
-3517257.617210
-24756.475887
-2578505.407508
2370894.618139
24736215.441462
20405698.392937
36846313.117408
36404147.511343
-15125093.019193
26612.907252
22635.604108
-85195.482072
189741.441572
131998.018840
-16952.493030
-756712.763830
-24318.037530
33678874.326576
97132.800437
956.624737
15758547.388273
554639.633448
-1617282.101482
23731772.338533
17912007.369082
37502.332757
1551359.828533
15190304.057278
-32320.857473
47482.910258
3044406.051655
22640878.471352
-11545516.418462
7342402.182600
642223.091205
-85982.277484
305689.015616
580187.040004
-14309273.589188
-12225919.579196
-152661.284764
-51321.910948
-261137.129739
-77684.560378
279574.400139
-4167211.650335
887070.449574
-10641526.557762
-10930623.844285
17696634.497542
44171.455985
-51107.187946
-766411.217416
92651.136201
-1573045.970994
-45887.037349
-88024.462622
-37490.688485
24551710.431939
25121793.467224
24694263.653122
-9849652.829744
10311580.978740
45013.956385
149090.992214
-119239.742366
-15301200.077492
494668.999006
153155.718095
-18322965.493776
-18623245.915353
-225028.691493
101495.943359
13042.866486
-15318668.438977
-15544655.523976
126323.087293
18028621.459676
-175274.714798
-407323.267962
-16825551.323553
630811.803732
167052.092503
-11358304.375237
249467.604523
-149676.405629
-42074.554365
245945.866782
36510637.499420
-4373168.557855
-127336.163245
-87010.587523
4533.593328
-5763.189527
18980205.064720
16116.171021
-14741083.365722
315319.938121
10631.351539
-295941.750098
-220707.464577
2144357.334893
128728.081937
-50853.824933
-324208.213379
-53925.466158
-59004628.943853
-8301442.992664
40707364.298203
8822.239887
-69876.974260
-200028.229794
458030.348313
-2578312.613222
-2032451.994922
-18171469.371293
16475918.252832
13278465.446719
-2673050.010713
1591685.340315
9478310.120683
-45137.716179
54227.660942
21462098.688105
21004316.521727
641643.074884
24713344.382999
-126716.050546
-19755.503063
-48791.727452
28548213.041713
-464177.473635
-271633.622910
-229873.424602
470624.500370
325708.377829
3741.839558
-18131686.901469
-17423411.784757
18885971.634080
5973095.064896
-8813321.161437
-45059984.640231
36141144.891145
41138.589765
-92682.158337
-58779.708673
-399248.184891
-16131115.001417
248046.288325
252245.323646
34918886.805451
191063.581250
344026.055567
12925863.962642
382322.367821
437835.020905
302017.307069
-326577.179687
151952.489155
-156619.471583
29754743.940811
-253027.926704
30376783.807040
995043.695869
-86898.379199
-66476631.085066
21882795.999894
8486901.280990
-22446.397836
23540458.841099
-187092.367783
-12863709.404926
-218682.821653
3431804.684082
12682.669087
98057.101777
2763632.242147
515688.349043
-805141.301653
-4162.928241
10343506.965239
-8987634.179956
-7406579.859129
-118234.597935
-4455929.821340
-14007907.510873
-329843.012862
15842.934108
-193474.507446
3787702.074895
34807649.711394
-14852644.823651
-747406.181314
-235112.496549
-716786.815733
-13755191.992444
-9670.706745
22900161.162808
-530703.585049
-232763.390341
-311213.216152
-406044.927354
29960221.997813
27118043.477505
1048.814872
-278309.085616
93547.272705
-18173013.710636
5737158.012489
-15948.552561
46004.134755
-34962.487817
-18134900.509268
-688634.014971
-24770185.477048
2017343.316218
1219457.735508
3352080.538412
14454890.453565
-17266204.521406
-17694943.020486
60209.364788
-17266627.297175
-17676210.577269
-621819.680801
-11491886.937708
-12722775.663683
-411102.739974
-4208081.606075
723272.018157
-2586.909229
33978396.938518
738772.552103
-209273.611540
-324956.248105
7555.689771
-119096.308465
-486668.575586
-5835877.459080
-7503616.161185
626614.419630
-3583840.455719
-145951.548879
-6964134.064314
232386.738826
-145317.406168
26843.623721
-138761.610919
-4974167.569307
-250382.900054
-51017504.103889
-46679616.479614
-33977.187230
-17901790.798138
-4924994.286055
18778.263928
-835904.998720
-7635.614113
-21299.539122
-57344.843623
-102895.328989
-24285497.868823
-293789.874855
-697169.769840
-12986.096072
1572986.721673
2235083.947440
-370314.990175
5929664.174763
-495338.481705
-685706.451584
30059890.048434
7803314.521886
-44081.116665
40850685.281689
1574506.210904
1488374.468606
21825936.269379
455.371801
29046053.279255
17339331.069339
-10495442.060624
-462335.184254
-11422723.587300
833440.739169
385306.313980
1030558.788142
147699.745182
473865.303862
12626742.126872
-302649.679458
-266058.936460
367668.858404
-14701231.796903
-138116.249896
-2870220.315073
-3424816.063849
-15610211.347088
33521066.261775
20962071.980795
722663.897626
36642257.754383
31240699.655208
27772575.458339
788.608357
-547072.221963
-800125.523056
-101669.844192
32962641.789615
-647133.785023
-27176.503776
306342.117943
181561.815753
-45942.820717
42947325.631623
22052403.780373
-65651918.485683
391423.725434
579755.026883
573486.726361
-34949.874879
-46674675.460594
-38928.069567
-55932.189328
21997922.724772
-11190717.765365
1840158.919051
-72332.035413
25678790.784361
3734619.425451
3086661.650834
-703880.560205
-7531344.259828
-1263808.415819
-4356065.953797
19934295.575247
-16497326.083678
14489679.522381
3216567.898813
3088588.821858
-7464.953048
-3542829.408211
21164862.381788
-10385318.889651
-16684752.133533
-10771141.494024
33070676.720986
18081191.543636
37854382.288699
-7229368.662206
-5881187.224170
-496203.351438
513408.105582
1783678.442095
2609450.532589
19867132.405423
-676117.778048
447476.288019
2884466.870824
94958.473794
-2458831.614165
-3143319.135410
29534152.131445
-2273861.356973
1371892.103736
67977.844154
-173291.317127
-18145461.015491
45183687.962276
-15882857.973053
-16333303.964886
-1202099.424005
31461332.761222
-598220.254264
2131687.475490
-18341237.309156
-18434791.828940
20156473.292793
-11109788.481287
-17984748.607583
677234.777382
15991615.746334
-17095604.172521
-16885315.407415
1418377.428798
-11724835.791204
-11922869.930091
-15561693.899535
20602985.494547
-16907034.906654
-16511321.029586
-7038725.759733
-10792902.948930
7972916.828374
13317061.039927
2141632.340886
-106511.760696
14005466.664870
559289.788588
-519273.646490
-1513110.839950
-1332105.516411
-753944.533296
27637391.103456
-17777859.179895
10053.326954
35377371.212582
32924872.938376
2187349.080513
3567122.832543
-797159.600249
1814640.962795
27072697.792012
-6443263.946846
430898.818035
-55709378.646094
8365166.263845
-3330134.799036
-25487.699526
-231288.065238
-5182912.606432
14425541.676229
32602457.302386
33102546.251715
-1741856.939081
20804732.596191
-4912009.835180
31187279.240109
27609661.777476
-18629332.346870
16113899.370325
11495998.908146
24617671.319983
28775140.266927
28196802.332465
-5973557.594106
-12623.273103
142513.093559
-266013.347998
3290105.102000
-2669250.391000
36653649.415531
-873579.401810
-1344542.037292
-6353284.665513
1752524.983658
1824159.713860
32221725.946470
28684177.420055
29927204.947249
317221.830516
-402594.760456
-380307.505488
-11383156.256891
-84474072.140431
-2342721.404510
36829980.284267
10480767.980163
-78065880.527826
-267405.780014
-8476821.540207
-58841974.150396
-5448044.878047
-6517552.753296
-281901.220609
-17390183.998680
-17506663.222988
503656.151290
-9561794.765480
-17341437.040619
-17940695.996107
136128.226059
-311358.780639
-801489.849886
50288928.246959
-9450986.176685
1973379.663448
-3898330.082068
36750.881288
2157255.129711
134008.947999
-18136979.906925
3506609.908572
50137.880936
221320.559007
42269692.523339
-2203835.291723
-17158846.122832
35764888.158189
764398.789607
495968.387585
-62236.500772
-7267845.173609
1844942.909370
2093012.216009
-433342.052999
34127216.770322
3360241.155756
-3922837.853040
37521526.242768
-62553319.761895
28194576.991822
-152772.777362
24774627.128114
23702691.722998
2794909.894717
68349.392027
31888535.638534
-186063.770925
-684307.894873
34906525.424593
226.087804
-464723.410220
1140867.420583
-559825.702779
5192972.701012
-3558571.515994
-3455384.190695
30680674.712519
-831075.435111
-1077018.108134
35420356.337584
41172467.726810
-39843.359434
1014103.406390
218659.836671
9196934.259120
-9736723.683410
-47082366.084398
-9599185.686382
12406408.793761
-515974.238526
533851.633003
49590939.316220
4667557.510707
64998.347399
9712.699129
36326110.779545
17076900.383121
-767226.316928
38583.032126
-12695077.120956
-169570.016726
2483392.104278
-19070280.096835
50877.973570
-540581.643616
1043083.266983
992696.830502
-21593047.068414
-327894.428022
9838026.660689
30057716.125525
6007.578375
54899.654697
-2268973.564753
22294909.697518
-3124372.796302
-27694.463042
-621822.459929
-2057517.509856
-3307134.888003
1166324.931521
3113977.303277
24085661.458328
262647.450241
-14353292.272482
68035.523934
14171851.763961
-15331008.616533
-49031.151870
24052804.408919
4287947.285095
18291.538871
-17589676.052428
-17132958.817066
37433351.336787
-3010960.824174
-10518772.202794
163666.770802
28113446.650542
-16309647.656167
-14273.054134
32341996.608989
19333692.298852
996279.310754
9703168.238178
-14575170.474185
-840977.278587
-17186919.241597
305903.676694
-14778449.086946
79040.604165
-31801.193658
241166.092795
-65592544.691385
-2286409.012812
-5498849.111481
1444375.014321
4869537.828152
2795807.160830
-13398734.604739
285591.484870
608870.424733
1084241.157756
-14709766.930161
27080462.206283
22680782.902980
11226964.548707
21622042.426302
-47257528.954953
-51220190.683106
-6318765.784497
-10872330.195174
-17684394.139971
32378568.642144
-185440.843978
-1921257.169139
-941262.442686
-2937047.905351
-15122409.395187
-3727825.190909
-10348804.728184
-11563224.304199
2978974.023709
632251.759852
-57637.130754
-307341.475312
9839205.243762
1630821.281586
-6599203.238849
-160177.615392
-511648.888180
-5627417.588952
385880.909059
37371040.263400
35055878.234028
32390919.319889
2763655.898519
2652052.141748
4688399.286822
-3104269.082018
-10887158.734438
339755.184263
197731.235271
-479973.138701
-1185812.856218
194628.869484
-63020831.478332
-1270727.712619
-69347.135145
-18128357.780938
-5642746.904848
930006.479880
-248621.652639
-742541.715279
3409997.476644
-1175994.365887
-3122527.727445
879679.315975
-4266342.341634
34075333.303125
-8832710.187908
-10678078.816431
-10537958.010863
-3763242.561335
-1871491.442383
23869369.257575
-68441419.718957
873498.297850
28963760.481870
27495040.883334
-975129.261513
-8567920.253532
1417090.349899
-1255227.602348
-30858820.254381
212960.382349
-36121487.051429
-34457758.459507
2209349.536875
-10865162.912785
331333.364884
-215818.292947
307976.050744
-9539525.739862
-1177645.440735
295915.587659
13820367.212825
5376144.983756
35869578.993448
735805.686591
38632512.156955
40308378.256441
-78708.411786
6686386.406401
-14055507.205262
-9461647.867254
-215787.958580
-6921806.137484
319163.872589
30909.307387
-11169157.889130
29543554.017201
-18181686.651386
33269410.610802
14563.356887
-3382449.744959
-456729.561348
887290.774223
386969.126440
-7977724.586906
-251998.499864
-9881100.663029
11563039.266839
12084035.286344
-8913452.832732
-10852553.672095
-1520152.200465
-10842940.700318
22679159.990414
37499428.680885
37105120.065371
-23772713.876505
235030.628049
3247458.793133
5501400.528219
-1759397.030035
-2476429.819470
-6443372.040512
27691747.055454
7157792.178577
-1188023.893207
-18338014.780614
-16794313.764961
-17565690.859978
-639136.693959
2362261.680452
38331788.623608
-55449543.628024
37465904.272096
-583332.854924
37850935.619018
38763442.543419
-10358739.821874
-146110.954678
-6010203.026805
-3668213.595994
-16739091.004955
699853.499865
-10897219.607697
5662351.462575
-50570.441239
-5130489.848639
527479.949425
609675.844679
-3706219.815032
-1773195.529117
18378803.979362
1694686.693241
-7275996.191478
-16624226.159697
23557071.077281
-471880.934053
16220033.361779
39713094.426727
1183774.766668
-3647585.243354
45424668.671947
-17258343.036096
8158548.085912
1813431.144154
5627166.289593
-31346176.960362
-340099.445003
7789879.928493
8966336.556013
30473861.844845
5361005.989059
2498635.581146
-9221817.950705
-6773919.860347
-1645038.898523
-3455709.107539
-96333.593294
-14403550.668617
-15865886.164112
16912710.278966
1448.529400
-5906890.696212
-85.010574
12184.933556
-209615.431428
2887209.360683
21818321.252798
16972.462059
64774.888953
23224655.967445
-10448893.179008
36951376.257282
-18806062.489931
192870.817543
-18438294.346997
-48919115.058712
-10549894.044849
-594705.578344
-12217638.725592
-1535212.011236
20202602.121170
-518608.238227
-15815736.169576
35845875.683081
311847.338384
-11939699.218452
1402536.226177
10256698.365493
-11544261.629043
32706183.597869
-9988507.889263
-17780916.706057
2755485.885027
-1316202.669821
-4709601.590176
411648.225508
110479.751728
-11014188.563626
-11055171.584587
-18486765.734453
-18370996.015703
107965.651430
29036084.501740
-9533226.553656
32063573.644436
30151722.261395
-615395.030643
-12541.923972
-60040296.587918
-333300.562222
18772.718500
5308252.270728
-18200598.564469
-1347572.342377
712795.742908
-354023.880182
42519046.747331
3510385.865916
462122.127947
2759738.526585
-9938986.425882
-93905554.022603
37223568.135401
-1044661.465818
668302.660983
-4090478.846373
21882944.125613
31937054.458498
6445996.733877
1291183.757510
-93978446.880102
2263963.291296
-2768751.026065
-102578020.715131
4937045.165185
41652831.246976
-28986078.596735
-31982243.023683
2452048.248536
-28393672.175384
-243299.390782
-62218.711412
34859163.466009
33338315.328174
-12698754.912115
1166094.192179
-16590930.466561
37797109.232493
-15225068.490029
-5691966.541933
-11120300.978965
12980099.254146
15268259.625231
-17570188.093492
37492639.592617
35926013.127835
-9122960.956454
424063.829154
-4149654.761466
-16847962.052130
-16368846.422964
3123958.971031
26212407.382392
-4310.271825
21791466.123723
-18136939.808989
-1876932.051072
2861925.235887
37883339.153991
13534600.186871
-43983459.736962
-1545210.875875
-5417885.047328
-17388118.334834
3308544.604235
-9607099.181573
27388599.243525
895575.947455
-7641213.757650
-11280146.941942
-7300213.665787
43309039.754793
26033.757837
-14449853.099398
91825.985048
9286102.093018
669877.911981
-2946384.128953
2677944.918150
-11991457.590357
-1023562.994635
14782207.687239
-2817345.504170
42760737.779057
-2194312.906241
26477765.492743
277327.537066
17022656.095405
548334.434224
10650053.752454
578562.996704
-8775017.001034
37419432.950638
-8396874.627367
990405.366893
28693802.409286
-3701246.730630
-18691266.664735
3463128.199743
-10910710.473018
5561744.446773
-38904995.283361
-34963864.357740
-11019323.684251
-10740793.182369
22278152.280458
37558258.042525
-18517825.431136
-25906601.079248
36029195.026869
-14507009.486993
1629023.175273
-15060.456657
1377636.839271
-16126644.760425
12651.949349
-14761952.673092
-10944766.288892
-2339243.799278
-8558632.265873
36406.741349
-1081991.561859
1323188.331095
5639267.665524
-607057.249791
-11383168.088638
-10861144.854635
-59704943.556313
-2648064.332603
-1798805.088965
-112835.007093
-10371996.508610
-28676495.200085
14667910.935581
-138235.676898
-8956795.129720
-486335.025567
-17481786.811619
11543451.520125
2699693.224533
-984654.171276
-1431851.054942
-65707689.950324
-17836721.307222
-1076315.186652
-43279990.061061
2178.864862
3991817.706856
41218762.356374
38738648.579838
13074703.213907
-1844556.434480
-76521938.127076
-1185096.298635
-17875356.752019
-18884833.194521
-29972332.610317
-55992698.384857
37575194.561167
7039512.296788
19667406.669138
35274353.154113
35379861.034979
-1928.422353
-552.668881
2453231.893142
-10510119.788029
10889941.663802
14651861.741068
37546354.548885
22963185.744386
-1818903.825394
10068854.273612
32035312.963929
32669732.915108
-10898667.067657
13051536.883642
553843.457372
30603853.861137
-13356960.342104
-14184976.425064
-3058849.919397
34550153.019790
-4275080.516839
-2475578.115313
11738734.074499
347881.878626
97420.497752
-12682385.822652
-10481268.219293
29472198.270842
3173502.404483
11619249.763929
40599053.962219
34944641.052549
2042147.272229
-10811944.210211
-6687966.352543
-20508826.362943
-4002591.794677
-3717446.925801
-3669796.325167
-11904010.668544
-1565362.830748
-1541952.716894
-11319219.442937
-12918540.430930
25297227.504813
26024238.438892
2104604.947215
17893837.541049
-1348301.228866
-1723473.161246
33728705.116526
-780829.430837
-11787754.908681
-3314229.870286
-39218164.004040
-15363534.964512
3267601.219811
-531833.862147
31940422.150852
19493690.305950
-15478777.986154
33018577.951606
1364232.079467
36806487.875578
-7343469.665570
84232.526733
37006940.657920
-18181039.189752
-8451987.051788
-2075983.923610
18340532.830820
-75007172.586025
-14987460.726524
-14772352.174496
-12697024.109842
97062.799744
29706951.297213
900340.982781
-1032254.483624
56057.149043
-238260.729100
2208858.006414
1495906.117115
-50229585.724369
-29935.299242
-111899.297218
613359.304461
-10596735.065142
-15103685.942333
19516974.008893
732191.743926
-880868.058427
38709403.327877
-494634.642939
36657245.855454
410307.879998
74746.227933
-4390298.842810
833817.662839
-1242069.471502
-2040627.942848
-2917247.038286
892404.877265
-22615645.254450
-17672110.665344
-929632.466916
20628416.615300
424484.843131
-22741.093206
11392825.090534
1148667.761531
87417.915019
1777902.406839
-11622789.688766
-568944.538112
-7626814.209869
36959903.607692
-198310.028327
-15899518.949426
31403063.118192
473665.635136
11308059.349647
-6648345.876175
1238822.764511
30473995.072286
-2649143.332067
3120279.561245
-1050930.140999
35710332.131977
-5515508.497637
406134.152784
-12678426.700734
2321898.552896
3639178.789118
-27536498.805139
-318812.979378
-5555723.191432
-10807651.178243
-16037824.585493
13740113.711985
-1169502.488358
126321.993511
-749614.344622
25655815.188159
923411.650468
935946.674405
-8676402.663025
27658605.676699
807091.259233
-6761775.851918
879755.316566
655285.649802
-65001120.797746
-2759618.165171
24879899.845277
-3570541.754729
3689.434019
1562491.759398
1696284.793500
-1925913.217787
-16006742.122046
159768.276104
-53955020.094898
30681407.812355
21801949.170235
-14092245.606118
3563058.135465
-4681202.129169
79279.499503
-964815.091016
1754992.115658
-3323612.376207
34545346.181489
1189303.389324
-10964491.686020
3095082.056153
5900233.576546
-21362.242259
-70607029.804131
-6711206.983954
427348.428421
-199508.004034
-2274680.361412
34821856.696923
11409167.768246
1496692.095627
14138491.190341
-3267524.692339
2916605.154825
37284350.918194
-3385698.749540
-72636.033856
12464794.620255
-49236.680041
337127.919519
-67062973.466084
-18179432.340816
28091827.001218
111232.075654
739559.643513
-12901255.523371
-528624.524806
13549974.318356
216527.599957
-16268194.892916
-4895140.758606
904742.947766
-12400704.515553
-23540064.378777
561652.452078
-410844.895104
85928.210830
-222495.273130
24926524.210712
-6038826.344650
8404643.910438
9969349.929182
-51047289.124864
9166.105571
28250822.777701
-9695649.261732
1209697.978166
-708299.980591
-12830369.400303
794561.275977
-3731762.050016
4470223.681656
10483346.678890
28814597.011908
-10059733.582062
-2498687.918690
-3215657.461627
148878.079694
5978477.336579
33808679.264424
20265953.498566
-18743711.135183
3681632.068658
-1482843.760751
-3451038.396975
3171565.213542
-4213784.472355
37447460.922432
202196.734288
33447451.020785
-11868817.610809
9661419.660964
-14728707.775390
5691182.055198
-1711845.519487
307171.907807
-8113072.957263
6105934.495855
29123963.898989
-1806779.730413
39008124.295112
2442769.977611
1360254.088020
-14138417.552380
31213592.257614
-9667930.412183
-238067.461201
38184116.784348
899488.874126
5784208.678562
-7895073.745096
13233994.135010
2283983.074093
4209947.360715
-1156068.042939
29321150.778792
-18874292.065188
-25132894.865369
-127206.285577
-52281585.133993
45392554.101836
12112229.969731
-17238577.805948
1505064.890778
10803698.048249
-10911463.878921
20026.437718
-12974257.459759
1093490.917454
-22760757.129427
-18283850.458513
-2382019.050616
30893.490510
-14891621.568564
-3488848.422573
-11686454.521437
31051374.416400
-78428553.079044
-2381432.195065
563446.286150
445468.505685
-9553692.124198
422457.616354
-103702.462456
-16093659.106352
1654484.739580
726915.254023
-1577118.196878
2416111.499803
-9819149.311255
-32780116.418344
-2443445.033618
-685063.117443
4752533.284417
1085531.880415
28345880.503094
-7974308.717976
3728183.881278
12343245.356822
2175971.511217
-10866145.458556
37232755.232799
-545851.178265
936123.033491
1445208.440232
2944864.884070
18516094.615621
57569.048782
-3664725.933454
360438.061561
41027934.954184
-1037149.432749
2284547.212136
-10843834.992558
25580260.249650
33388875.959758
2104512.553387
-34644.111879
3441946.579517
-4082073.468957
27630284.291261
36735189.896371
-9159325.796120
-10103143.873045
30594853.215907
1226289.811081
1275554.509448
-130370.477632
-14594.122227
9371694.343754
33118794.986274
-3478327.200225
22531340.434413
-5082148.284988
-7594766.163474
1493348.139173
35105913.253119
567166.983387
-10946760.305371
598495.535674
-9981603.480726
1255633.393391
31178283.326443
-805721.270358
989553.311378
-10696751.352672
-7519011.147185
70545.672897
19130.174673
11225.867253
-8581985.887078
-17096326.266624
-1768217.481660
-938580.386040
-1131607.931398
-16231554.893717
-2046141.245348
474073.086156
37107112.876555
649283.405171
18341948.861829
138049.199254
9054402.141526
37407523.749350
-16277555.994988
435985.202894
785730.906033
30899435.802435
-54721603.547867
-1417224.454478
1424370.806604
-3897493.230589
-18988864.334534
-913022.774682
-16738675.228689
-1062142.237130
433263.767556
-571070.553183
-40063974.887650
982735.172364
26723327.103647
-7874275.454367
1810630.075218
238787.395415
-16959015.939626
2429390.811692
1265945.037506
-8362318.155405
-9693100.867111
36437465.052512
655445.790901
-24640654.848691
412671.965563
4026348.764103
32572449.291634
-3592167.815319
-16473485.900817
-2538598.907630
-17268287.143537
-15849653.337807
-16592799.012115
-652849.907681
-78131205.807707
-47894225.670447
106542.094481
-4185123.351406
-10588291.127848
-7351040.922098
-3533970.009058
-6318362.918219
868957.669104
4893405.059922
-526207.184811
-6670800.809309
-16376827.988926
491608.989765
1401224.002647
39149349.441872
-19526688.388046
459043.488541
3018325.382772
918176.509417
-942702.841378
31426807.976567
48779210.130806
-2738943.911395
-10002534.876103
1282633.618236
10644700.888484
2005888.231463
31863861.255983
-2330174.073939
12789290.317515
2188784.536070
-730732.401524
164508.724371
-5419644.166363
3058924.460391
39573740.962485
8368364.212924
33292682.918026
43436175.393866
-152199.639351
2428133.313586
430201.771500
7825070.450388
-3349384.670741
-18679715.116272
2213335.614789
-18916899.026781
-186789.784395
-399109.037059
-14422777.871889
-278688.055662
1036993.726298
-2766805.357362
753210.230999
-1722896.350583
-14413400.896355
681117.023752
-138124.356418
35468123.676322
1045969.855088
780506.635445
19161233.187212
-9110941.330041
-9886508.523432
-11442.456736
-12106055.525692
883783.059425
-383583.691603
18596819.572412
-12514809.289383
277896.081816
21566078.164771
-812139.053577
-30364408.183906
14974900.521479
2391110.546285
1107990.520582
-48603974.687747
8649965.389309
-1267776.784146
371187.115224
-9178596.984738
-823403.816682
-12104950.512549
413300.511551
32192813.309416
9698555.575075
-16636116.894161
-1460920.758166
1339598.870668
577407.370050
862027.449770
-3171825.925482
-11580511.871896
490055.396451
-6935682.731687
2820337.884223
3094568.970398
-7895981.549977
-11874132.694561
-7813270.112608
-3202183.524669
-3384593.451308
-1162412.225338
-10936182.996720
-17876018.219973
285889.592670
-428267.278134
896399.148918
-57763237.130754
163761.924760
33865304.874582
-9412448.210255
-43859608.004632
35218889.024428
-1176774.064559
-8146933.646240
21318928.840309
1200921.379668
3112282.253822
340650.293402
38787772.935906
2194604.943959
90353.838194
2104346.744658
719105.878578
-6381.021406
960100.125858
461210.989286
37169846.284518
-4633641.212953
33692731.223518
-24748.900279
2221000.220138
-17843062.675983
31754747.770066
37638076.169382
36432048.992282
-16479314.724903
-15894531.312945
369628.870250
41098.863719
3719015.183969
383833.693641
-564179.117848
20564892.608323
982866.268030
35868403.312349
-3640857.591363
-8166311.493399
-50437283.890567
5181920.933338
-2468695.034035
253418.917624
26875641.198624
36943280.002116
-12542213.620739
-11501463.250132
13504167.719333
20723010.453166
-16834.339677
-13977780.698165
-15770609.831517
-6892555.737125
-21346.210713
809370.403544
42420424.328040
20994.341223
-36790163.905385
235431.276620
37129118.590902
463006.272911
19950501.849662
31589212.617440
7874430.504411
1745945.934889
366353.238718
-11129644.750035
391715.609003
8756643.578129
-42400056.882688
1657162.243969
24067735.612151
-1165672.266154
18692489.406385
-22405958.800729
13034326.556280
-35553.707482
33363929.596544
41566112.061747
1400385.775599
104090.909516
480101.953057
37341682.328019
43310280.023602
784213.978600
1844450.561337
-3494890.622328
-62879192.522061
-16267563.385941
5975215.676094
4093887.152995
-28851350.585056
-18034041.744884
55605.105986
13035118.056085
2452389.138361
-15746024.136197
-15351431.671512
-8121646.723401
-21723506.998374
2615275.674194
39832487.241516
-821712.304980
362327.425167
-147947.172057
34587727.839964
761071.294244
453530.104751
20505434.659508
18278062.700273
-8544768.978233
-9698442.315383
-3085814.834350
3417086.735030
31754823.354621
-14039087.076261
16975.589195
5296655.185394
-10399486.813469
30066513.343093
-8891748.071143
10711879.727617
37218112.619738
39702787.507100
-8987909.401405
76725.900103
132.287945
4984076.433537
-976979.503321
37619240.904777
1699510.585815
31227664.206662
568430.095866
197248.396301
7565.448948
376743.286544
488916.606532
1454788.094942
-15246091.876356
-735777.348808
-603075.682983
-2362970.206009
236785.973161
22966564.357509
13086258.938232
-887296.279423
-7130995.692840
6080293.897867
503474.445046
-1937085.108224
-614748.015569
5073307.384633
-22413.786971
42377039.539511
-124517.343874
3548406.958509
-429098.047679
3885564.485526
117272.813635
-15069996.047493
-748903.913289
29238918.198796
-12033499.757439
-614000.880869
32888500.281523
820534.680798
34231331.682196
-2270247.664955
1618729.188208
-4250415.435175
-11234904.312716
-14807822.306319
-3740798.425625
-10025029.183905
-8959855.090185
-9415589.274423
-10876.462774
-18245499.002307
434243.905550
-785338.026336
-59471.152798
1470319.852374
-715193.379323
20758626.448267
1939570.500839
-349665.818101
26987176.117404
10147421.605735
-27905.245121
-4677257.399378
-2071970.886314
-60603391.668019
-17485563.784786
-2742333.715112
-8457031.890766
-59470942.664209
4919876.569041
-17497271.260385
35439176.032573
-1129304.477448
-10533146.437282
-17926389.865847
199685.809359
-1039857.512781
-1102669.361056
-2565330.518206
-3216786.916754
926475.097673
3298721.118625
36594591.675238
-416644.394156
-9087407.696750
11411068.624093
205824.406778
-14681360.327979
-92525463.806136
-2064964.911631
595495.701975
45660614.520787
36405081.888844
316994.262612
-6873737.465441
-50881.276526
-77117.258789
-19909.090305
877901.960856
1007555.888313
11098995.136406
-53494.294868
-5513263.436239
-24792114.521686
2942612.112181
-5154405.676174
-9259787.480339
-88266.111505
2961354.907409
-11181410.040388
1350415.617241
26009.015769
8558152.182965
-5869413.478373
33060416.759156
-14649828.732373
37505454.742086
41583474.110251
9128469.460211
-11223274.196664
-10666958.450223
7011591.102904
-4855326.145726
5744662.448518
-192.876909
-9511.778746
3311024.693633
-51917613.194627
706618.889804
16458590.868719
-10990776.653979
41373405.832218
-9927769.784355
-670256.971811
-7027299.021148
299982.465616
-8042598.542734
2926738.275331
979785.646783
-15542761.843436
33517752.077603
-2964137.805021
45780334.172948
9954449.201756
-49888.624208
11839547.560750
-11606478.385098
783365.744174
32356808.948532
-11498450.120101
9374561.617003
9657819.879100
-17886787.743432
42764142.634686
17598823.870836
-17462336.004849
37169876.548438
-17681379.684105
-7954296.120515
33932860.380998
-142667.732826
-12694757.832834
-2374791.018052
361775.918975
30618448.914761
144786.690921
-1496175.750737
17585998.735265
-6755510.721103
713227.757547
1052570.502074
680054.370004
-18560847.597713
-18670806.754454
29692552.422870
10716.250225
36304306.258692
-17363073.088175
14110446.981969
10319005.631319
21084718.377754
-1668799.559055
35130057.377499
-124983.391666
18293642.591936
1317562.183187
-69490502.798730
18982293.149379
2646259.333857
1009170.630908
-15313905.012002
590112.116898
-4127155.086871
36099205.899046
-4468132.122342
-8723460.704526
-9062638.293528
125503.546533
10614958.684484
-59055137.722764
-13381304.533104
8108186.528793
-68392289.630964
1478828.182556
-5827054.557793
-17290838.779570
37327495.472550
-8160765.127992
1833992.060773
-10241986.230297
1949728.272349
-9169044.414296
1134159.330511
-66388.239838
-14805367.534311
-27686.559538
-258725.361185
-740159.594872
-2601239.594344
8619882.699173
34141896.931634
31099318.040292
-7647243.079142
-11635388.179923
45140115.732254
-40341506.969853
-3184965.243248
32671599.198816
-594338.525429
9636781.806517
-15745271.983455
-29193325.735239
21476597.518463
-3172547.894165
17647404.559373
13722762.415887
468074.925448
923272.508202
16512387.303398
-16667094.103557
1659992.516783
909782.994843
-2391597.868358
-10966903.320413
31238588.564503
-2225741.223737
17491120.819218
-51497706.171930
38060336.939303
-29721.374680
35615844.874851
693933.234718
-8796427.619669
20627683.684166
-11757382.746478
-657270.646367
-11178893.926399
-4401222.254068
33216354.596218
35438330.516240
-1380466.192385
-13235626.770685
38146826.057438
-16749096.197494
-3802117.167776
12085709.203097
-685383.381956
-7468592.429938
-11251459.705928
-10386712.407573
34432484.802618
34834648.486768
-18555598.928980
-3428186.692089
-17956229.419115
34732434.079126
-15245183.721278
-9554573.151717
-13008517.504374
384721.481634
-9356048.886959
-9218793.396884
27910211.484597
-18466072.054872
41582133.867528
-21641839.385707
-71536139.842649
19233264.213348
30820216.402467
-11053026.808045
325819.262059
35195737.445574
-1836699.520461
47237.903117
-9107987.275031
-12583263.839329
-12708952.764839
2480119.199930
-3078626.717694
-8606700.473156
30357915.309099
-13605614.279700
-2627177.435534
-303.700191
-677096.210782
-1020922.859925
35286204.085023
-4915.749631
19092577.340775
-20689953.663742
-14251205.851595
-13016.817353
27388437.633915
-546957.126200
-2670433.191350
-51012342.425047
37021506.434723
3065772.045429
-5558990.869918
103150.891802
7828887.089897
-6225130.263923
1403843.853173
-10330022.872823
33623001.079952
2383382.612856
31868413.479112
-196314.493380
-16512335.194682
-9897286.985211
6059275.674403
-5080790.125027
-1147844.611736
-6052902.350877
2245865.930076
-18168894.577700
3257961.121979
-11194013.185206
-11011885.235376
-11505009.789632
-11558380.141048
10899626.316351
-70208.591259
25664657.132885
213507.147500
35192775.503291
-4360909.081212
-18006635.748854
492457.155063
10675192.064288
4031547.830634
1250230.922310
1001263.370885
-678192.582028
37269608.826359
3002939.664402
25437557.655271
19986.189974
-15267033.042709
-1429612.903601
34443848.290224
905176.749299
1093565.475466
4657746.317355
33776529.995123
5420483.282947
-3378287.788162
-6635838.335875
35569191.663705
-861804.180385
-5703337.756024
3896651.391662
1839819.702049
-11027663.349414
-13666227.419074
44395233.152689
22761182.963298
7319586.808058
-12151280.938768
50320.617545
-3696488.855578
-7409103.760889
768214.937038
-13942091.101085
-14137078.618769
195052.775986
24928672.801440
-13491960.950383
-4863709.016617
463258.064804
8518375.231549
-18134533.009659
24690507.528848
-4670625.133159
19521938.835827
920849.765062
20346493.826127
1425979.144752
-3102074.504895
125534.493883
35164422.987597
17685530.998943
1240930.523177
1361728.991378
155350.613667
5088498.922881
-7675322.025357
438485.809468
-3288081.417711
-145430.866515
2776652.704192
-5684560.385231
39999655.436700
-6769633.768822
-5779692.284130
-10089813.103048
-30423866.532412
17007829.086927
-5691750.276272
-7088172.571537
2046930.791257
-11031994.717753
26702318.808173
-13383874.339520
-8794476.731584
19203439.233748
-7427108.350269
-9447353.761190
-10153437.078773
4047337.327190
-15401695.037021
7766541.468328
-1762195.858523
1698452.856354
33828500.766432
-8213699.676307
-7880721.130623
-15891083.037035
-12687135.326429
4189254.210087
33190558.482722
-139464.372619
-1179559.815439
-9019820.625486
-3468964.592813
252604.806844
1424241.690230
1400640.423739
20485439.077308
7855831.499805
-16969502.367980
-17110204.874608
11808.943669
295584.668216
-10465796.730443
1845803.824219
-1299184.067887
-17737533.770126
-5733074.508311
898260.418690
-566697.440309
-3340042.824041
-15457468.543071
-2962552.729930
398360.891660
-9512675.648960
-11727360.325240
-13258063.870221
-9179437.587370
-16977430.310213
-13123547.703205
-6783863.528171
-17209386.254921
-9096608.807519
3037728.290627
-9814773.321029
38672070.640175
830358.285472
-8488872.679907
-4623982.133242
-14898849.005731
-2593394.466373
16875605.574986
1924697.084802
3865612.880364
3037136.479684
239040.210015
11855453.828996
-91154.264005
-18425631.692356
18838809.234495
1030535.395438
8028679.578038
-15200425.776826
5029910.841005
37779254.385962
-16189343.444900
-2008635.803365
1086923.945951
-12231445.294276
-12351110.744729
-917954.333289
237116.498313
37393327.506515
3234382.631826
-11400527.259308
-15726870.094810
344315.476314
-17545637.222450
-16657325.761521
-12890163.919571
-17064322.207383
-16842736.687482
393824.574963
17887977.898128
34652852.496000
32366218.604583
-533503.996391
-15464658.947634
27477919.309283
207882.630120
8114167.456356
-17524149.398839
-15860092.449852
-870628.373947
-8088505.891741
32868754.561123
10955228.761932
-18454995.054900
15679488.646011
-18355826.476954
6954114.518226
-3898653.753665
-15123195.933105
1828315.963787
-3135995.685846
-17258656.863773
-12478318.781935
37172852.560012
5926183.872758
7073974.338563
6186572.397495
7920985.451600
7043256.321393
997802.819819
-18436269.588189
-10525446.107287
2212661.342654
-38509.052698
-1139975.366998
-13040813.837343
-10642566.536229
-1191799.799797
-11956794.161462
17831017.756603
-10591650.492790
-10926750.798887
1321020.267190
-14546519.259515
-12850634.008283
19396594.627398
-18383722.718684
-8013936.995783
-8313081.885623
1383284.673935
1827357.290902
-14295733.935234
32070850.645632
-11642224.294837
10355804.015979
-18339497.174793
-17856181.011886
20992511.836760
-17400348.435675
20486336.074266
-13899825.483075
-3520707.650201
-14333190.453130
627682.678562
19214679.772934
19012383.049241
-15091440.151335
-17409511.956135
27137738.457146
-4005490.772705
-844577.235134
-18275744.513901
2036643.822761
-15849083.237105
-4856966.442220
-7683722.461945
-2783594.373453
-17583502.768848
94359.725615
-16254615.940405
-17399607.368469
-17832615.090707
-12107681.036953
-4016721.059436
-3921788.445462
-8249752.121213
28280655.538546
23721940.498841
-3389703.082113
-495972.307414
26432183.718055
-14284019.513337
31323854.522463
-2954424.105239
-1009571.213893
5233511.600960
-3996588.605826
-16593872.024785
-16888543.939203
-3464405.073448
-16383967.337594
-8206051.253734
-14796096.487714
-17162976.537573
-8101559.312502
-1077841.985875
12569679.570761
-14695676.705647
-3973700.386049
-14045830.969609
18429244.136600
450640.324497
851120.898861
-17156697.858658
-13997206.832155
-11495368.224570
1203007.178870
-4219637.290737
91304.694519
-1134416.635877
-12938141.775735
-10212211.857784
-13487762.442714
-12445569.237785
-18241746.621411
-2825933.394226
4072039.194598
-1854833.692358
-1076790.923907
-2811393.685017
-3404708.829911
-2683305.125652
-3309100.839647
-7947589.922757
-9194439.188825
-8618066.542431
-11421246.942563
-11413362.610962
-11052956.806558
-8377218.617604
-1085165.815630
-1298849.361138
-3704238.021308
-3785626.819919
8848731.488568
13292604.312176
9684385.650346
-18038321.372932
-17863145.290813
-15262875.750976
22058144.460665
-12666412.450172
-11852696.035623
-10069385.630885
21071578.049505
19886181.706726
-11860643.495035
29185967.996851
30006428.613017
-10326957.289620
-10310317.664864
-13997210.040061
-8615342.056627
-9886051.389175
-14278807.731323
6657870.953617
-10460565.455094
-3278407.078658
-1196288.904939
-15456537.609190
-4992633.151885
-10593425.117010
SCALARS stress_s22 float 1
LOOKUP_TABLE default
84698878.681279
24332177.882632
99247987.638820
112265347.976251
57618985.346629
147163717.881571
111589910.912574
132708590.002570
-2817106.689346
134413580.873086
100906376.833515
100006345.843956
100003540.798864
96881398.280507
111513762.288398
76135551.309241
106029288.568958
90667742.325616
133637591.306270
102100057.868300
100004201.874634
99760769.139292
101431743.158190
100030914.042746
56206971.760690
188927961.754579
106625960.395043
107387371.161671
111826689.862312
111825458.124032
110875429.799407
100867947.310858
148532628.385504
85234012.338956
86609943.854019
21150423.638065
124000979.136017
131705081.032358
106115965.073902
150364900.187086
104326312.114456
19627091.145786
101017238.408143
108585849.531251
-2918937.621693
103459131.452121
80184700.306436
185209408.893944
2960209.975175
100592245.285568
106696225.795424
100737867.249272
127855932.310740
100237280.324611
26699661.038822
104031860.310663
139708559.594389
106746761.513193
91636201.373080
4000386.964799
120387039.394805
50322672.429799
118872664.962505
110450731.612841
100130605.959493
-3874263.595965
104557626.332477
-4273299.427971
100004555.656866
9142444.966916
128316712.786778
46067887.394275
-266744.575964
90449993.193531
-1783308.616858
-655481.329569
84797524.046285
132097650.012339
127538954.375509
100797970.802275
9706067.742388
100095706.832864
92257391.513747
79020575.073778
114891838.870849
143784.835760
107705104.579395
-3375863.015242
29635646.296061
112135639.174020
121392128.045648
121014076.724653
101023439.164989
115297133.081856
42995115.204682
27177259.604153
96723236.319788
101045736.491717
-1318931.482028
16257339.558937
102015780.147067
2306553.455351
126559542.787177
151589344.756866
99993784.729741
26728924.795623
114052470.455534
96309405.494216
136543151.197706
115496192.569684
100072866.234359
16032313.531472
104740934.700701
123540829.589460
124905266.313306
89611543.270568
100331849.577355
47520272.663489
101431718.539014
101398412.051656
112794105.286304
115550746.340072
79430306.369201
101161279.561367
100075011.270063
99834701.536289
123648310.643419
22726610.611297
157749611.226878
105204039.363749
113715132.607908
9414732.353270
104945666.591435
100026517.087840
55752495.775350
99440452.552122
103277059.496260
-2590330.214876
130678228.396566
104147243.186676
97578163.036845
-4294538.444971
99868662.707580
102775056.736803
98735586.842309
8736726.897131
26869445.109661
-2068939.994037
91110426.657493
86165311.312326
4491057.596335
100849695.377421
99793795.643185
77778587.020164
126195922.729605
92219715.930225
100022935.914929
102124649.257002
1151201.893880
116612155.334918
123794292.079771
156680344.787005
97995483.090706
99317037.573391
126923744.281828
658082.022407
143393540.538409
107868345.269618
103983712.709049
80253861.633166
103260581.015770
184819129.355200
-1519122.902040
158956308.411891
1999861.263790
27583269.935947
180582687.867510
105004309.965947
99768331.494868
206742376.215389
106136011.666272
92004196.356941
58184155.023376
56068005.045671
94535624.534940
100871599.678648
112116134.152804
177283679.632025
131661197.413275
121110177.859692
159397749.024580
4426302.846908
114439411.071489
181077315.998797
101810511.389735
101202149.366574
101106263.859033
142280269.817461
141327158.847072
99971638.761911
-2133121.479955
99831330.728431
37003796.212652
87960430.211853
99254690.771475
58418297.590833
255252996.430201
37563529.213760
63245554.066538
101511389.823529
213162455.954103
99986548.308585
100941310.419719
117400588.367855
137418274.115336
79061515.000029
100014202.799346
112325134.566352
100239268.591839
102451823.107260
128078254.319265
142622240.977805
154057152.241296
155555066.910150
11381183.809944
103202841.602673
101278560.216251
149994697.270223
118241151.919627
121410947.999970
116525851.452144
147321694.702501
115330736.990957
100000831.963649
129772135.680889
107795234.390893
88514911.584522
244399276.803174
100899902.956303
141201022.393041
34781010.621136
102970393.795008
106649867.921933
26456124.843244
103781855.854887
100279916.725362
100821326.906559
139885811.448858
169960580.487329
99898584.720387
28481126.504582
167021405.756316
44678312.398977
136178031.692381
99130735.299300
91270468.436366
124258664.065585
99655946.819351
100003115.525219
43827889.450538
90431882.707927
101109122.341800
71607233.566985
101200778.810831
97938644.514061
26459614.652910
99835905.731101
96723014.423682
41339297.871763
100881297.190064
76363782.211590
119055125.547618
40210916.621898
104001805.102563
101356472.824795
105427510.555636
98703703.211142
-1983016.011678
120954769.250584
105057797.414158
93254606.415719
111016821.224682
67545113.249032
137264493.583645
23085026.288766
115355839.939963
115452598.126566
113038282.842751
98815085.091367
102411025.787517
146451938.785376
147386845.431552
21411037.139141
101145651.347175
99808024.245011
73404439.333724
123739372.105460
92334373.338866
89948527.792873
58540797.814351
123743809.283910
105496190.500743
155394804.749474
96915737.330396
101232933.133521
100026460.100616
279321688.371031
122313473.351376
102121235.459100
29178185.029924
101579497.113502
99830791.336393
62401643.801215
-413157.819208
125333690.268817
22348963.365347
23685110.091857
145665711.145740
129957523.246452
108353700.615224
56561368.349186
123275444.098912
99906928.875298
99967434.673523
42958350.437020
244220283.310482
100238695.091803
73354071.974482
94861524.075475
105828362.530524
123225952.153195
140941663.081175
-1019214.639162
99673562.336340
127633904.847996
88432659.824889
177038146.665743
1860836.215195
100173225.635979
249850188.740236
71720836.036832
105269693.007869
84141455.520578
118521372.630456
108975888.836661
86280106.691380
112255043.621144
100035522.148305
25108536.487311
65065200.660388
99939032.505808
174023824.672261
150351363.113909
102642719.259958
96365228.947692
123706920.354065
99528147.375748
-468736.854154
-2197829.962661
250001720.734873
101267349.566770
129287898.525478
123116298.198318
83413035.104234
158548507.736697
101863342.512732
114322248.547730
101732798.940229
136647077.906408
121591756.671040
115468002.443561
100112032.561556
71606513.106163
100745647.817760
130537257.519286
282737913.623544
122837069.990700
131304965.837390
136467365.516456
157014882.585719
106948892.298962
118270479.033874
99501414.077756
120909723.719246
121710471.331599
115675063.554849
-3901619.779837
89896284.510541
104356020.535523
270276782.056596
100985133.949191
98072301.665236
-1009454.330236
152377483.718251
100119824.041753
100655529.413412
98598319.251099
99884974.359026
105192690.167612
102801924.769411
133851507.790458
125989051.329275
101211547.257768
90498720.771589
99956199.645800
54889782.205331
2773984.138896
100005754.881582
85655656.767571
100028617.995728
97217810.808156
113679277.711294
99399025.309748
34539608.110770
126588543.667317
98329923.506594
113849981.725918
155033689.410249
99960295.984874
139184021.038461
117907402.025663
116195445.498953
101696282.203155
99991429.585112
47681978.641163
102216736.624640
152553169.932115
96622929.837942
115143393.371683
117143148.176201
150948758.576497
78410411.801985
122513164.504767
36972708.563511
127191001.999491
101296620.858019
154706661.957439
90635591.590658
28388403.719846
99402076.174319
5468068.634317
126574124.563086
123980259.016128
116077167.054698
93601195.594877
107376770.174767
101387124.727165
126941444.419547
17320784.963620
100300155.953361
99946631.778410
100963903.893508
58013817.501193
76256002.038933
49676043.245870
77285514.682233
29774542.899760
148199357.850672
48233101.490669
103897133.734513
87310971.293848
107044351.906496
-166154.983544
95291757.969698
245352747.490943
104871149.141939
116123156.737741
145648683.460607
149830230.725023
126450139.731251
136469286.705790
99948019.578233
106828187.205367
98849407.266962
128399207.561471
109148498.577735
103585601.951676
2713516.216620
107300346.775454
99640438.810929
6282059.639652
48014931.146205
97532080.704942
150470401.536986
99178045.408337
106783534.251288
106591896.944275
102028888.650897
144806684.045872
68547192.203273
-5026792.051616
29345872.931140
238657516.776217
113944108.977788
106789916.748748
100031111.834151
94172992.832706
139154880.374258
121947682.594738
105102736.435361
32937276.479626
114566747.651121
91814647.707821
101018804.276690
99999734.358411
117268184.035300
89329008.185552
98642988.259902
100328691.806528
117264815.247783
57180403.511075
100750079.901010
104247493.199921
120819521.224818
121691769.835678
107369968.850662
100813202.253925
100577420.310575
118318120.784566
166382005.733096
142332884.440005
75484746.582470
100040929.628075
103246427.428987
106329805.778532
108686005.002761
126011080.774264
148759762.822195
108496848.372401
106881497.249302
97246977.368883
100000910.466137
101803608.592143
96172042.251112
40529894.790444
94806600.148276
69231722.429096
143326963.490541
114631894.301550
-2823048.691440
117074663.100667
122836320.730039
38565903.797962
157163829.810942
164144472.187409
99993618.362514
99991628.130886
43515829.126254
113590885.628475
98273402.480798
99395579.789524
263751250.061445
87792980.106186
105574416.639422
92272029.750823
116198970.278322
100041227.208440
111389137.064985
19848763.767391
-2511157.233552
134577352.724109
66504368.991025
105630920.524045
280339846.062657
137775391.082500
22634161.862582
120562942.344458
141107104.649677
114084955.507704
115017180.911168
136868967.875674
151889686.493758
101768869.197944
20698196.379984
100014128.326498
127363875.168099
70678054.629090
116594451.201621
96619308.499480
86826169.325464
97981944.355124
32538571.513202
142437155.057095
120697576.058647
19535358.289623
132375309.566678
100044718.656975
137979768.392304
29705773.813641
116487883.636875
136971744.757005
25467345.675199
120237133.317109
101835930.218602
100368905.081810
111778236.389613
273687244.083454
97388823.144893
101014331.034587
239312040.850540
104928696.784287
100029463.611211
40884238.932796
100099931.580516
82158545.954243
155044573.119580
70910112.564925
99103738.771852
101697096.982374
119877869.045611
100052935.677618
122862407.326020
99836548.494161
232617124.117581
80302619.486010
156567599.587765
100637046.369370
106105213.898902
106174156.882400
12653505.767283
101675491.551375
101545986.246878
127332988.888717
102004627.531335
78051112.548148
131335658.601569
91897711.442464
273293981.212323
140489178.583807
104282874.715462
138503252.165197
48731700.875669
95886407.674813
131111516.451766
104903384.941211
26994292.346082
38073645.185733
100546644.421653
100000879.398626
99451221.253977
99992964.443202
105477437.013588
100612541.953655
99928182.403868
20697685.559314
100422455.811564
100305348.840600
142606028.062020
100651865.568978
113708305.644168
2006387.529544
91923699.356151
105674005.630548
114269755.585429
103102966.053391
265792892.699733
53548119.742442
120070471.412985
104872645.803994
103763480.695918
100805106.949432
154382597.317027
153253860.798478
3402119.372450
100511036.027344
50735266.435593
17033654.075660
108890432.345371
146632543.031879
10465753.055743
73870914.863755
98330252.058354
87322319.259151
103269272.272130
100020215.988488
140388689.940769
46984021.863304
111776249.662327
36512682.403125
84212062.291484
75899759.614026
100864995.971339
100539246.166354
138151883.542072
100301906.557904
126570843.805851
121947079.828815
94432912.764465
101658751.047559
122039872.365171
155326177.574386
90348852.529340
107397390.654963
100354633.193846
104136145.028275
19245110.589753
98145540.253306
108127178.189099
122017272.237345
148313366.038284
37251169.122526
100027155.737099
82914143.317186
99752155.472215
121409657.780454
44978213.346478
119063658.360247
152474718.302060
99513275.131071
103468088.862804
104165160.349522
99784840.079388
145835862.336068
71287271.036839
177397059.075359
104165205.194103
108913790.502143
98351082.574346
149495468.484259
101522042.006879
185641207.942145
111422839.421393
131362667.323165
150916976.746938
-2236587.452065
143836765.335576
12623704.069526
100512292.284755
120119549.411607
125230471.173871
36582645.964875
103701431.446044
102092509.239165
167089270.266249
106646869.924250
107416710.397633
101474852.815119
113321664.187883
107724596.795707
89189382.679064
119401697.504813
103625844.088898
23832768.892068
25507960.142174
71273210.209910
254183939.756872
100783200.786065
100081010.202027
105672339.715273
31196537.922918
34487192.855932
151388356.621532
105784297.758244
115823039.137492
147935147.194052
111978229.606405
127974696.651001
164619110.496883
98374359.010043
101812491.403673
100111431.248611
55891962.731331
100398562.422846
257122199.466928
100073981.867530
100053568.439973
100759172.715373
127772779.940429
129076656.840904
152401990.222591
100687367.150194
100010994.870259
121945905.997073
101379160.525996
87701691.449351
100311978.723250
54663682.919916
139665625.649769
147229528.832254
100547063.527352
54543814.248893
99497946.167820
52166975.837808
120063279.775007
100636825.576435
240838445.221710
110484640.051468
102665228.542265
129368130.791962
85982630.935088
86347828.072177
101716939.295347
36145751.641468
88716987.323266
83344602.882039
148101153.497971
100689171.266994
14022613.045043
141056225.332759
106893008.088975
100620836.663936
130771857.609184
152426548.800709
100064941.374980
138167759.682403
132098985.669643
132588512.461265
98800958.148373
149583209.255147
113729534.399219
100747327.065976
99547977.593478
136985637.536125
23940425.852433
31101348.278059
104335867.955423
151579935.633196
100022081.634172
100513638.182789
127094882.458856
101719465.186847
100095011.914137
33913428.342172
105711036.614965
100697350.437822
115905043.278595
106532042.509265
99904925.048572
-1430523.786105
101156655.800011
101416733.606993
101228218.212483
115713990.061204
110088764.841759
100062608.765569
69514963.575759
119628288.592031
97133142.079183
101516467.070969
23242899.675111
99952450.926026
101070887.850169
134812647.412450
-4020429.829745
101865042.587599
89222899.351835
-3962866.645170
15724099.127257
137340225.169359
119236753.604954
276488120.614110
121179344.070346
124873870.763320
99850805.635711
88823579.176647
135792147.652596
101734092.381758
97163588.032454
106771273.288917
97344011.440139
99846332.691307
224409260.026618
33777123.987025
262830662.479482
111067394.984480
97793745.705554
101825211.822984
55949377.641099
121087898.325914
119452303.846635
28697217.407734
100547241.635318
71325751.256508
99895973.395364
85243220.935035
269959033.070976
28142342.974837
27463590.081756
119929860.458508
110867751.486444
138789488.135554
-4069210.998080
142146505.252542
-4235193.494220
36826093.654182
99973921.176253
88047342.687791
139433463.552941
130089783.478470
103738216.635838
147074182.517963
100655049.466848
101061317.197385
101112040.962410
136631088.174669
172798758.669366
99676151.560870
97251896.887773
115177722.813188
120734277.715484
119960382.722159
86795294.272884
100178291.237179
115606989.856315
100000872.480649
103692853.294088
102246872.768819
76490476.887684
260350711.993382
101148140.345009
93499576.726152
104612961.284841
101044057.025829
151515067.686160
121654939.569252
100057443.110729
99777340.352650
100337398.528292
116144869.234967
93315779.618369
103849272.263962
113901687.756918
102715294.775254
100489547.958262
68936166.577694
143506207.601586
89278139.493686
118564227.523048
77008638.858376
104443803.966904
120785328.175775
60595186.728210
105982656.412510
132740826.131348
100478854.235262
169909177.123382
16759623.874348
124385506.528091
131478431.824648
75556050.474774
262127616.203592
145334005.150755
75556034.130929
123582287.218711
21880907.128918
94935790.188894
62885929.894667
99755591.996773
104859653.124592
100010942.223185
118106199.790097
100040374.627594
125632377.312215
230257641.153068
284683691.140204
100639765.539024
90151752.484065
100152065.908612
-1297597.376033
101127315.566832
101435529.459150
100241979.598335
8002184.844909
66518980.940964
140134775.411485
116129247.806116
54536158.734105
-3652973.217265
101432191.761632
-1849828.887629
19995942.205163
131670825.620523
93473535.682558
100704527.497483
120369085.852628
96527428.630017
-1760423.882261
144260259.738846
134385499.946121
109379178.817467
116923404.639324
127614606.866098
107863684.926546
107045862.284233
19767037.419230
86565225.396364
68267118.455483
-4334921.020594
28671361.141476
101052876.906376
126685331.489020
103222670.346433
-3933921.349285
148646353.270953
108839006.527035
99903907.518693
257741841.350633
98180392.315526
61197377.748191
100374682.147370
617496.794990
-1446783.217937
93025862.540532
103593608.707640
99824782.758618
124330620.696254
100709875.330540
15711691.165140
122533533.749904
26399451.567798
105795675.125013
105466225.779322
75883756.892331
256088322.191121
246989107.426278
31135779.157426
83690277.823735
93425442.553949
100574650.627133
99725240.551847
113827469.192788
289648456.202454
113945085.805970
101662103.909954
100216582.932538
100778805.368108
32373626.095918
80865360.093983
-2220438.730776
100642784.989283
153409478.543865
134970319.151799
27948170.781735
119129185.981386
80850329.656703
255122342.378422
89023420.882711
106529019.953184
107389634.651337
67346504.474715
105319615.160369
127971633.887060
142768880.039849
125853336.817553
133678505.224554
99886909.415329
106216476.147055
110571445.077657
145925856.927150
106290522.140325
100416108.669680
101390066.755842
111929138.232310
116696377.688934
100792855.789211
138894202.159047
112434402.683149
116249908.252713
100233755.645246
129104621.134498
101497498.968740
149333736.422627
124552217.667265
84161248.252643
131645107.188475
135946735.146581
98779411.987910
101279219.721037
27586732.135523
21784170.837928
46440605.063538
63805993.480363
101739568.121491
101578116.611876
-3981744.104232
146768963.492237
98201469.222255
107135705.928124
153197442.771997
98134300.663208
89623506.947798
104411695.251445
106638813.860142
130853570.006537
100262712.044907
-2243483.756761
39213486.693833
40080301.863968
102154956.943952
-4155415.631759
103265488.605925
100738216.317182
62028321.758426
121886624.819089
32445323.164726
103255280.210496
130507479.647025
103139881.485923
100519113.957892
100256914.144808
119357428.715236
120192566.297349
103735437.170023
111937898.520138
100838896.065812
62839108.343476
101686848.325091
2202919.456858
96747142.257668
120800572.309497
123282109.653661
128775056.970889
101839368.775584
102656010.566120
74547124.327718
87905635.792079
95955044.920667
130759075.406824
86928497.068140
100189767.907434
100769917.962629
129846431.361503
100181933.812517
89536065.766687
100863985.985648
119179309.572837
101536622.467728
121688346.360611
76608696.582000
117403020.847289
99998499.137086
104942289.896280
101784800.049350
766352.999105
24754238.525257
21736359.950037
62120185.472785
63409175.289506
221668638.804466
75924733.945576
153298280.318782
152651499.380425
58418461.118658
133936205.398140
131778088.141149
99650434.391698
100684648.422178
100123563.498447
147808546.135664
151551033.343930
100717853.423145
100825467.736989
97588942.225917
100538065.761279
23887091.160656
39429849.452819
133391603.333440
135275732.930312
101893057.040368
-3370787.138463
-3558125.283023
99731653.900110
102883327.021479
61211476.866829
139537622.333467
102928199.568732
122387727.210501
129309612.804332
130770284.507452
100342113.503674
122640833.961586
100242099.789879
101619904.880770
99666705.795305
271080382.080464
101062316.076564
101675412.812186
122110489.227954
-2864907.745156
87930258.148799
-1802499.735271
109577768.713921
45113609.426495
262557715.934369
135347662.489153
2637469.872991
138767088.062151
101719977.853576
136425123.491404
100135062.889495
55605661.993147
90973136.961952
100347096.025090
-2101317.314755
18021727.086954
100117209.269919
154647885.527935
100093039.827071
100377531.337254
-3785928.841314
253393031.168784
129604008.828889
38249091.771592
73048901.996812
127469452.897551
100561584.467289
100676822.883607
83360191.237210
105334571.272184
101839115.588290
118600488.860874
126373149.730744
115883161.220401
127947719.724068
100130629.652301
122134335.536637
100641953.895665
100057832.089016
101625851.631140
-4117590.580438
128233271.118092
127163262.712108
102209069.556947
115056620.567157
99923395.245916
95963603.561537
79691715.922867
125714404.002424
126079484.323712
99998258.353316
99991680.307148
100523095.058701
100322644.568136
128038930.165836
117582163.270134
89773057.622693
100959408.551303
130530021.352305
101047765.277491
100002785.912539
140177322.875507
111084581.793658
129458055.123183
100299089.796322
100214087.929371
7655679.339536
116805887.486111
101047509.801350
100806795.726927
-374773.978399
36624257.372529
99426259.377186
100142737.781694
100009547.002485
100302374.808953
100089012.840134
-3228485.648355
220603639.380736
73412607.720058
25091971.826486
134167840.487976
-2826683.579569
10458514.680510
14705014.237002
117787342.692932
151142976.952154
145281303.479928
110668641.619934
100244678.180571
148430635.958255
100218718.462186
99994221.088077
130093877.962328
101425525.326510
100015916.734790
75789158.651385
116641803.945344
-4159415.789423
101316900.058156
147224405.150125
276781556.486929
100503051.987149
111041481.932241
38974393.483813
136963245.762394
366503.214481
104910432.523285
115543547.259908
99286197.997243
75403194.915777
100965365.937842
78626833.363130
100029542.500077
107346902.936788
96529495.848974
100251039.288902
131883878.811078
100192269.560248
130036122.090579
99430266.774911
268108324.225601
73936527.848377
133420589.920961
100266724.651311
100050143.027500
47626865.763354
94344242.911316
93929668.016847
100648864.031873
100277364.482951
101929017.319930
76177334.726676
105183735.241160
41794869.126392
100154775.402671
122404599.801587
126618227.141148
100205540.379181
7572841.127452
121388332.704299
99960945.526530
68813878.902225
101311898.662192
100189996.693615
90851656.329641
23123544.217940
96145955.287737
17642884.292448
123326404.818103
97506438.173242
96413700.565293
100000396.555974
100015060.836067
119928754.030634
250100763.755427
158119632.587368
126446904.231762
79440308.713511
100241824.771366
100597743.441376
70255295.264820
100193712.088466
100877724.025266
100032978.129169
101510875.726888
100006344.060434
142911143.983414
-3465041.972881
232874304.444957
100191434.789098
37300115.241060
-2063471.870181
-3388642.395357
244099761.448700
102374679.067659
45780914.004660
100555011.921094
100081170.531658
70372338.616014
102398783.049506
58910537.450273
100678761.783310
100176176.517468
128245509.581964
129111164.007622
78475184.455666
125822914.559684
103187501.112850
100692362.315160
58500491.311429
-349312.983353
100026005.560836
62364547.929968
131938440.948533
118885090.975750
28589105.145700
111161915.657504
18539531.661082
121614145.143934
100177876.566058
121137920.142867
103735331.470644
101000988.837870
100109288.361004
62004877.891299
131571076.687569
129860706.512976
100257728.472677
98586024.680740
104707359.373424
100261742.226262
106989160.759825
99992847.578251
103853854.549186
255367926.206290
101689190.344265
100005878.139067
100001671.138478
116107212.914834
89755595.921509
100527772.809542
125863235.803998
30683133.416661
127694648.180489
83127618.984675
122896869.382589
100018280.263117
123605362.897863
33052920.863263
95221642.751724
118593209.626736
125495305.198794
100008887.100303
101498231.667485
123522846.323634
90337749.572827
93136530.784586
121563497.345005
100205884.440719
79784882.717034
134115646.331744
29803766.301474
92327.833059
264078.791692
112412950.807671
-210919.110709
246631619.132036
80801983.570189
-518499.037498
551700.807506
5518745.904325
173367182.510122
99805351.123278
100368403.514696
-787865.412856
289070122.843847
-1195431.341659
-4671407.376623
100130379.221151
100640835.848010
100020828.824883
58530371.306725
279172346.682769
99490173.862872
100004871.061077
100390679.481218
99725874.428989
100326490.335021
100006473.587988
-5317408.873228
99590308.313419
148923068.331345
100177149.356680
69314149.184401
270616611.753825
3649244.117511
288877.145999
154197113.172894
43386005.499814
100190380.431125
26037855.076448
27233564.681719
121490980.087096
99996022.710395
100012138.918585
100086507.174933
53684650.373806
128880318.984154
104249450.201791
145495309.509202
28316648.669475
-4303785.163532
81512076.514607
9431036.425847
16285212.904289
128459512.759466
129728229.218653
127647022.520371
137722628.508159
99951827.639827
99981728.468306
124767230.002592
100011397.661625
100016017.389166
104121274.548314
145979824.388473
79825125.109844
-3846704.256056
90946712.938489
100037161.061378
-6069689.888901
237160083.358973
119946362.274730
133043892.958874
100023878.820742
100783270.762732
107373364.718663
98436914.103046
99646879.317832
257344172.974650
-3713069.702788
95349471.430726
-4301809.774085
100009150.898729
100464275.404747
99958891.173299
100081761.004919
120259608.304495
297364647.521423
99486757.613306
99415809.453075
37524359.909422
100000109.504050
128816689.955977
104464539.105567
117145574.469825
99458313.468342
98430532.641599
102770084.529686
90644792.395540
154349627.706310
100175188.336720
99580451.587296
100033962.712254
-2942342.588172
140351510.140991
100000796.984949
84779339.332463
100005879.782357
100035751.000720
83952162.820985
84065600.778378
99996388.615211
99573796.557666
110329715.792842
99978607.864129
107315527.968857
99946131.017096
100616549.429512
100060633.273853
104085538.440231
100096334.774222
123430179.202113
99984752.226921
37190849.595948
100743361.022349
99985861.110875
100010221.778502
53696081.241032
99406742.192367
144263694.678942
99876661.942060
100450362.793823
99889972.116669
98494139.366274
96097146.735575
-1301055.299696
-1166576.475600
95092857.575723
-2131925.122368
100031245.887807
141766653.800045
34168817.155296
118946910.541386
120048239.265889
99787293.302656
109339676.127780
55209607.770556
109991355.768117
174500388.891828
55370521.712552
158414699.858740
2844301.360317
-187005.734475
1040182.180740
-3093570.180996
190509443.834264
6867284.261702
183564694.323653
-1093963.329300
48352021.684436
61140324.564486
4595676.318136
21567248.299176
150090548.583055
165769869.596422
-2839553.046751
99544061.525155
120410674.859019
100002723.329998
128806980.953140
100333336.202216
68304677.538223
99625838.943459
104855065.113962
100686451.317313
276101229.722762
-1312166.718739
92074388.156524
100003060.480159
139158545.950799
100433307.798364
93169666.634041
100290690.294029
129780866.040949
99914786.076023
86525804.643061
100007666.649279
70861155.807502
99987553.956617
37277116.539813
100248194.774278
6958371.851715
112702445.319721
99325731.129788
83238963.926673
99463155.132840
78134541.941881
1871690.864261
95711539.326521
99970713.644953
124880841.634034
125670577.525601
87935171.235995
100059122.944955
92428418.339558
-3102697.242565
99205957.725445
100013142.605916
146033195.403376
-3282363.563562
60722497.601516
99403208.532361
99770081.920196
99720068.508155
100063992.033141
99848288.973961
101392985.160803
67256628.826566
141069622.996198
100006055.910250
99587699.635693
100025506.659262
100012168.725025
101958843.407537
81409321.051285
133086332.439255
99876066.726979
99991683.071228
99185573.591698
86308226.373437
81519730.738065
100528767.396398
99990185.994600
100142182.343081
-3507688.972590
87180535.765890
99998997.105007
84114072.902098
99246573.996608
101878291.919304
125858109.329809
103524120.086299
40931846.748698
125863704.742480
-3959768.387796
132081041.743845
126325261.549197
128520326.164292
138639872.084678
103803375.292314
127829583.525471
82201995.059541
101124148.219357
1326295.165003
100141053.156302
82794067.934381
123849543.276957
100862764.251084
127179886.180198
138124627.345457
101607932.909611
136984966.974695
100094387.620794
103803805.637890
129163560.988033
100003849.754537
99999400.737561
127712027.011884
126858524.503644
127970679.775405
136786488.354697
129804747.229308
129917534.636239
128523188.757121
104239927.307879
99907969.285099
128018063.028361
132259048.016073
134342470.318424
130678101.080356
84434562.081508
123879223.761397
99995944.676056
118943750.889213
131358034.808542
132832158.303855
146134669.094101
-3002562.855369
131576771.930689
138367754.959750
87161688.514546
78194017.148810
123989870.955439
108036520.965780
128615322.637721
127159237.145312
133902220.786097
135625582.708263
134045407.569082
132517384.015202
-3493480.258124
100014354.966486
88472492.604054
80390757.768232
259529320.696776
-3722347.595357
132589669.221377
87557494.108351
100053311.566726
131013910.518424
104120581.059263
-3069095.143841
108549672.611655
109140468.519723
131554826.518559
89646524.771930
91600911.295249
89135280.215749
127622880.872644
101158386.457365
101203302.061022
131415244.591523
100242992.367793
128589333.325633
83024309.204712
-2324107.660951
-617540.045839
100002712.258879
99992640.469824
147198589.333381
122885129.729543
126758039.205073
-1573093.193644
127928499.650701
129126262.110480
-795402.867987
128212440.901053
-2262653.816470
98870337.922561
131864305.502035
90285107.046225
131244185.422246
-1930917.233190
126872257.716861
127318175.903154
129901344.679866
82172.409379
130294288.019860
94170524.122713
-1111816.166914
-2723055.106960
91224897.158827
123599012.163845
41705460.278880
-1191810.148724
-2460201.889018
101382362.465869
-1675900.625254
100000315.383988
41118833.539851
101728455.274674
131927083.755928
130343023.411666
-1946360.640621
101382100.386262
130998119.866938
101926643.828410
101613424.733656
101200668.233417
100889784.573071
-1761921.408612
42603251.626139
101307104.241864
101497619.447686
103462255.938761
102205320.571041
86690025.109088
101680044.626763
122451219.308050
102472045.463028
130174394.126405
131823240.462224
102215842.695952
101980925.939927
128094442.123428
103394405.605803
133329027.521418
132837523.560396
133029507.176952
131041733.542027
103518593.531735
102899964.177706
-607419.777315
-1318918.975541
42610253.994941
128824359.635402
102527028.118233
102592369.025053
134510800.404309
45537698.793214
102284996.054327
122836899.632381
123183332.360727
91521638.772434
103326768.395866
101890050.351774
90567987.347123
45135001.736472
92703496.378446
91600352.759416
92329685.537037
130211549.524817
96987584.564117
94023259.335848
46961908.177913
93540749.367646
132896309.867532
98573826.657016
94935681.410567
95449018.984754
49406527.153524
94902969.683480
97236530.692813
93051504.835897
95634308.992008
-1224213.933125
121552803.107973
43716036.442694
101713768.206368
123768918.919698
124224915.239326
96393570.977625
96570780.756442
124206704.492273
49204011.215055
95829098.042119
51341447.733648
124896259.741574
94893730.509020
101963198.698121
129602285.299264
125312997.485185
101935442.163310
40682791.892328
44227792.688586
102159818.822180
124486523.264341
47249202.141599
102514186.044164
125637869.882445
125119282.819385
-684367.057277
102130079.914735
103047275.672962
92968134.601005
121721562.742220
102314208.097691
102379629.767299
126099347.640228
49213335.936285
124094388.850518
102155951.264897
102489970.286361
102245864.895950
102466688.724470
100447390.604324
102504529.094450
133895.112754
128897907.773190
102150184.228646
102051282.072051
103468191.741981
101568878.646183
102083265.727557
102627641.207049
99363533.463718
102889179.106145
126709609.989691
1910911.814456
103038653.823389
100068440.603706
120754298.194322
100879461.119011
96004237.212449
100972265.721232
97791743.979423
98772543.850832
3121923.316770
102695871.456632
98958580.821605
1528761.434156
1996510.797322
98481632.094809
102948821.886019
4657287.672588
102001840.587372
22114553.513055
19562569.541682
53323596.427309
17349108.919732
96351304.008834
9357902.143694
9175676.486897
11142386.636027
10966501.779100
13066279.485406
12902484.648661
91344680.130624
64983808.270074
15128111.554873
55177800.350615
53489155.741209
63848264.326178
83565254.189988
83558366.171435
85136552.090321
99355181.154567
91649304.785164
102463124.575754
130931526.272539
101412256.911686
83614261.447071
120685108.030441
19645928.215339
6024550.281487
27376265.457729
98640936.958605
27421485.558683
6206311.750076
30173915.948133
7529289.448753
30279614.876977
33069521.463481
113155260.388133
33242698.201629
119031791.911752
116875686.084348
120956782.359649
22109042.167578
36053469.449622
59542656.707356
24677527.994131
111759677.585210
69305407.852134
122620485.053939
126545143.987034
126399591.737287
58213274.543339
120796665.547948
115520916.493996
141470138.110040
139617536.283255
96110007.301441
19731714.723903
7712948.120475
125230976.216999
112067282.322365
118955435.097805
130180305.387875
124382071.622623
132531922.220779
55611773.898875
134541679.098705
144498275.038478
102035330.955450
42242813.948117
42650718.530109
146431601.928040
132076580.631178
118910118.492299
133972220.837024
136551995.990002
39440100.310795
7892132.101001
39115027.224114
36300002.283746
51904934.316842
135863863.627721
56177178.171554
45918723.848505
74534780.165698
45425207.126801
48649895.860815
49231275.982450
138558419.940836
128795277.668928
85166728.795969
137746997.596506
52575114.774228
86819020.769434
62661626.112658
113530948.991574
113486462.496781
78920389.670970
99474148.674198
66228981.671871
72567588.130511
117129809.233235
95914671.366647
94660289.770733
75775865.262709
80626958.494900
102451519.006693
102664481.701597
83737706.195011
85357186.203590
32113541.595358
89918246.878166
115321429.675818
34690101.979653
81992052.804725
77614171.506049
24685385.386705
22055677.980811
37167716.307956
100604342.639332
102112293.387127
37470410.658414
88402934.732425
142537437.066650
53303622.188654
102430398.116156
103021971.275257
39940561.390184
100423439.577746
93066234.340885
122652244.161607
147798519.745463
28962108.969499
97544902.252452
149760786.588522
110008114.972757
124520596.598484
148330147.574182
105486042.641528
147174792.672834
55500533.140407
160434503.403135
146121500.339098
148502961.299950
128530213.587597
157807631.309893
42600996.559324
101844326.130956
144806739.983100
104727863.375551
147019776.957241
143518374.668180
167256162.741415
24617185.266556
115276156.186188
117084274.269421
130526830.273736
140555298.210420
22093818.019063
146129510.499372
120752312.298640
141861640.927508
145762072.925557
130616087.467910
147466477.418414
49163601.388607
144745968.453764
111716276.544550
4836336.602481
150869900.522115
146970473.217652
31555045.155284
142153362.478292
53695469.902277
140751401.325640
146371432.825902
164511913.739145
143299811.268822
145644126.453788
141806581.576410
143295067.258558
139315908.897385
124480647.110005
140285126.121518
137850858.626494
148234619.484908
145691103.107714
148829617.687068
146390119.923275
126363107.783763
29153449.955139
107814741.454263
145105280.935986
142570351.110775
145019030.004713
107200262.034172
148632763.097820
144454897.348162
144520596.366080
31211678.254810
171369673.839667
31081614.037852
27725676.409231
126601817.252948
141072440.497996
134845220.181186
146284767.909461
140061760.193727
8117656.939334
111330349.022569
133671987.556489
9720975.653150
132962788.157474
36479025.022677
56946167.345642
154501225.951901
148453612.772716
34459160.297387
125819286.838916
117650216.093809
52367483.449289
48556617.432631
116378932.425640
46354063.478687
55215909.740544
142915715.430107
102478719.286633
152516966.768288
152606225.242944
32290500.374620
127088486.521493
29587855.125804
38229005.661627
137944700.068230
57421313.755014
177193228.511240
154380991.272988
128844484.118369
111706434.531863
150007491.479047
128581045.417981
61733.825662
127605812.934729
40317331.364630
3021550.342450
146646421.976545
147517749.553298
173160042.519221
71396914.921133
167406333.331697
58258268.539032
121390144.329660
118474468.872546
144324920.329827
43221631.201066
143310464.906523
45644410.870207
19454228.187978
113011387.174140
134563211.630863
131258914.779814
34634484.816916
34896945.645488
31823223.548159
29363803.688255
60387288.126926
61297850.358853
41953323.458885
146155102.709928
109529560.361248
123390722.030096
164162892.139048
95937596.265222
64325260.004726
120491998.546561
125074980.366917
119948404.633919
122128818.019762
110364640.792282
102350882.927042
147953402.578997
147351922.747575
109213232.340298
41771964.260143
145539853.783726
160275736.632844
42172064.570839
63343253.056734
46903702.118317
22017449.153048
157192154.143579
143664403.852899
167746730.393021
44965871.379633
70305834.234784
138734647.788545
123786434.234174
45750657.074353
72065318.329165
145100762.658771
49180973.820851
109224723.591615
77678523.731037
17470594.346556
59625622.797855
24613749.505554
80403028.283675
27222972.961186
133947739.155991
147065148.763106
78963545.707368
33552454.657530
135562347.696579
163935915.829495
184105620.860227
76130047.434373
128956056.574844
129462171.331092
38160129.796655
144668736.127740
51496619.749427
110579635.757950
73241597.823581
99527190.280535
146069534.271536
52598249.265393
27695426.213545
137159109.312883
125872336.167211
110563052.453464
128285632.143719
74897027.253923
116707169.912393
179930491.964722
31125595.805690
117475683.873212
95225293.004991
67499219.257848
103377525.958288
101708609.484948
45451644.560911
167816558.750100
102618557.985655
191546578.993909
115888907.920321
82965879.625148
128404814.786163
115003832.048369
153546602.544164
2897391.516115
107743994.562956
117376471.519739
176732669.811723
117344877.663831
101986458.707839
31312804.619485
170491899.443654
124639200.200989
85658126.305629
107668982.941903
188685586.073452
158859442.718787
183519786.955013
54454720.831213
134234751.133685
133491836.213538
34785618.776717
118975136.235054
184241776.348346
49977005.976045
106257910.020890
53075988.850858
49601338.461231
114026570.855262
5248446.570738
111824839.115746
122484994.652635
118831086.970771
115436399.414457
50370703.745470
104916583.147797
109256653.509330
112875328.492029
119571583.482981
149213065.983580
118769625.940690
87069751.921791
135527029.120787
137118025.658157
115921092.124044
147494584.819521
59502811.818423
88178046.404729
69190751.210705
125482157.959789
146016407.912597
114480138.355496
191513436.771040
55801720.231127
107856094.361935
94859260.775231
52040148.194288
115205106.710526
114225470.251378
112942389.474161
119767622.722016
116642659.657237
31046148.950525
120473434.622370
102533969.474300
121088928.345278
62857584.685250
186340421.247427
102500882.458486
170843238.406011
142833275.684191
138791440.348368
96246707.047185
144684603.516411
132293039.168968
117433804.714718
124574597.159185
128287112.309440
89621608.928165
66280634.712149
180652176.301363
174796940.894425
133917504.162262
193490293.610649
142223677.549267
134227436.206963
173556379.415527
126348677.574304
111417025.609494
119850163.116442
4262789.670199
95689246.394791
141728134.005189
145970411.517844
152860618.371646
114466450.839958
142135810.651147
483336.462809
103586502.639195
154448688.534494
68581623.057028
106116995.691518
152403528.712753
99372824.818343
120283032.608153
135618903.881719
133042445.215706
195204464.722549
146940209.955892
3252820.503257
104741193.545095
159617956.044516
157904508.625310
112844889.382985
188217177.106580
132430767.564112
94283568.864736
81735498.421385
124178562.077775
58847022.415891
100627990.425540
118811029.371796
131173906.473076
101356471.644535
69327615.791987
90620559.747726
146061252.751272
31694848.641112
72744026.468684
147448315.396090
97669775.327926
680506.722872
130062757.798616
46173729.374117
98043080.659371
129552608.175180
161776230.413559
121969056.459710
155783138.103647
127555183.195539
66429787.099845
56297436.485436
100966359.178080
130706240.152558
189863312.801691
92090441.336490
63654619.076061
59692053.043468
9061176.527633
81625811.237491
9458035.355098
102783070.214016
111653543.594381
119855147.156932
84193886.588480
145652911.658558
43866578.061687
158076453.577839
109139329.300515
121730810.834326
102575147.087689
114022474.929993
94472885.666628
130454775.723186
137531381.564087
124465060.092780
90152665.527952
159281441.239545
95885737.348740
146904630.106878
123460133.443347
51155827.974063
55699836.179578
171232804.666072
100313125.515209
150943368.880382
3792775.395726
54819065.805649
102780083.974578
133311133.927796
96342884.086110
123172384.337284
134914769.293149
159178294.916592
84439346.633649
104015371.152370
142573527.350903
186179699.563898
100967520.752214
167694876.579814
138281214.297888
112941341.183250
65513415.040966
163638692.019281
92981812.211979
10905295.718083
157933805.061793
76031589.458959
145326555.520611
4949720.510271
154343981.314056
138678186.833201
128809162.674698
135398971.407804
83992732.169632
127500012.018680
105348353.466606
134609549.666748
65512456.119551
99901209.654213
128577977.657590
92235491.639955
196645602.668219
10548399.632897
121386322.690338
78014160.319919
110494249.487110
137783253.473263
105437327.809353
17169754.081272
26701094.791643
147479115.510323
24427866.507159
140833267.346216
99086855.444729
201993107.028651
34598303.386460
125963166.887961
127179289.443250
136359426.037452
186536707.823738
4658050.731445
130698015.212789
51962265.561457
124944884.789448
120993348.339598
189283187.724328
130719323.814480
125038570.994140
12478611.245461
76761389.357672
115977562.246137
97233671.122746
157883741.842408
195124877.190070
99549635.412064
199299292.321499
120512575.472650
102315160.391797
110496249.574373
13878279.607835
115730444.439915
183412407.614477
22073501.375638
19565419.660707
86122248.060544
59713352.795998
17751314.536826
156971352.751116
85244704.043165
187584745.485369
119459871.505839
144842328.191631
57185012.920149
12162388.835860
97656047.941984
90769527.051941
150932204.961659
3537020.505569
140713706.338500
121869782.628694
101250115.823726
191271048.881774
106864078.129154
99679062.698166
114679284.523245
152697989.082563
130570338.896429
94578446.800610
161794798.117404
156097959.330878
98641498.293774
125249162.429786
119576314.764006
157977661.612811
17033014.413141
72712607.410138
144766075.614603
121270896.716989
160852525.055200
102727631.005240
161563580.339711
138920718.208920
143618846.064063
1959971.243449
131760382.630223
142741043.478057
33848582.221912
160361061.916007
11836626.919137
197929484.862480
75219549.001876
96546463.774257
191064594.483415
14495546.723097
157099618.223155
53867277.123435
93294790.696817
78363438.902787
126036818.495654
141406046.612817
74966206.225302
129116976.702670
71620203.272525
91462480.716230
170875416.027834
22155777.775245
88168945.160781
7701539.373408
70364557.072981
113201379.979578
124615870.227458
149211893.960751
87399908.191444
122858968.976592
144639971.710919
160265416.097307
156545154.859776
128288024.219495
195277704.470076
86748755.833006
182121284.692672
112200755.790102
96798746.374963
73735298.592315
111964698.095163
92899760.178141
99938242.427512
15104875.303275
199319108.635940
154516665.285684
98127457.572370
127259771.691574
80505278.319994
94587776.407627
86903549.458056
122543637.441819
111815708.521018
106758304.780635
108077831.860996
133017170.410557
139540160.560468
16599249.871198
129050776.014622
17935444.295991
135144296.844143
29080465.404589
119078056.737860
100472486.566008
159721630.069753
210542386.913481
102755670.768211
158170956.501619
116429449.358160
118799721.900442
106569579.995032
131745033.905557
126213336.807950
124606164.047985
141645900.796751
123228835.727908
83402420.155167
127063774.512368
124051491.960869
179423531.029655
149710874.715804
159469149.692438
88328847.235287
143768283.740351
13993822.442569
156445968.087282
151194972.828742
155040775.599435
129995297.787389
156750285.643261
124307962.801245
139884494.760711
11814074.783112
100691839.149721
109796556.155528
105568848.743736
185825598.859320
157829888.216024
125649572.551344
90872138.880883
111347986.667567
190882854.676528
167976882.359875
189788258.087094
30411069.077605
7645118.584642
94062899.771812
194023537.591171
16120142.075168
178043458.988316
41443579.533672
126030037.746850
114479939.283558
142509382.049414
100191620.886715
115415272.400919
34109079.277272
20107511.086090
89565961.311041
119357196.564031
127887983.842369
15765835.561787
202750309.433294
132566952.613008
203671003.005873
166255132.235962
168464476.274253
67331002.412861
155979264.092931
2815974.698586
82019016.538712
124811966.147463
122618160.764420
3943884.529582
156577145.612825
125286031.810138
128866726.782396
12501629.810178
127150295.334530
144925236.105028
55695121.291734
71405655.175543
124153076.811296
111455739.692783
30853695.278170
52942067.853787
103867284.001886
127251230.416222
115976913.460948
149789206.369825
121807417.002044
106314584.624840
143971628.408700
30494008.631076
11536316.585758
138758261.980360
71670200.804980
86395736.851014
37751053.197122
138074507.938424
14674601.587184
157489706.043530
158490110.781898
90200558.207199
37598969.644890
138334015.054959
114277914.432208
121172245.118795
39512671.051480
57230509.737568
118227668.040416
91530107.253327
50660560.677368
98966524.892716
114085489.049689
109000308.339242
52180971.228517
114392539.429861
75797238.255279
149203885.554636
79510651.806071
154215309.132014
26692377.434551
156039592.007149
34937384.081582
90209859.430856
13620840.635223
95258599.279236
9987092.576405
125686426.088140
93646713.697912
249197493.306218
81751478.411268
192166049.059635
19855211.194143
112734621.317305
19989989.261806
13644392.167126
186901540.888590
111383811.485349
110567779.976563
100105127.519691
56271290.723937
133597902.306490
100528169.866389
27642812.351344
95096321.776395
11850100.228673
72283533.772340
159775117.438285
80352808.339400
13078309.983803
140176951.180600
6187544.618742
74855112.566481
38556723.226005
95935860.936724
121141274.198090
165652873.553911
115951804.605841
111748468.696342
107579922.535892
77184261.847903
28736384.051332
60355613.001696
72333410.228396
112578845.415798
149058431.231528
110472042.046643
117846905.071392
92749987.556707
70428068.700168
83033359.173490
133959555.738334
109152080.977617
112892084.405148
75324211.844761
20356043.691173
112853992.396205
36199731.542663
95692664.957069
121282292.619489
127140367.649625
113735367.520631
50530661.763436
98332004.612784
116413657.756392
226127915.724373
106485691.113679
88999333.806967
118037177.066495
95400019.195815
57823676.469265
56371402.240924
120813931.748211
85385413.826218
14176393.879189
119900008.776536
42832735.215257
83814343.023715
114542808.885102
11966812.681392
2763056.141268
39760134.655966
96693929.919935
141210570.617035
191143392.782301
162955710.612041
79363205.982189
114878590.548662
18049341.056684
125691155.217633
123685995.491191
90757502.062131
50050237.789681
120007952.345659
70136258.428510
86872017.621329
95899477.502816
173784042.283331
138627641.054623
124322869.589921
182480053.377806
19940452.218871
16252907.507464
127432534.400171
165743944.610992
66831059.185002
161598441.014871
186375002.539375
99473528.573683
24240826.653838
172125633.472925
123000061.749277
103215679.981093
40878337.322458
78765994.972699
71570862.021701
139276105.884995
196996177.873258
153198184.425174
91518644.382203
116788001.973566
127504430.794657
119887891.464717
239658386.120644
74231245.137120
142433065.860847
122439018.389418
167468123.185747
41794227.375296
21437745.606900
117463757.862769
126421595.280148
148379449.538814
76294378.619323
115509126.938709
129342318.761275
112729081.997538
39880437.507514
138911836.540832
127442288.388936
21822589.458336
30666956.100164
110404825.230592
126013545.472696
112981490.339921
110335244.328126
63517592.917234
96765743.501316
115395270.044279
127206773.258600
79643464.412218
129340410.070164
5303506.653552
248691525.595330
137708174.883811
104276463.217658
130222666.462446
83170824.946707
204076469.002254
131356629.393983
89379789.418449
144039573.656671
110242443.527110
95083988.043642
45382696.655684
116177488.716593
125919712.575322
123217184.022035
239801583.916884
74783392.037078
122704585.084793
72956036.048159
133069003.632899
124585678.357029
34114399.333323
43710577.735351
14083507.034043
112670800.614077
123095876.677931
92300778.843252
35679180.758036
115288834.078748
28479293.201286
158736105.000182
66791505.865169
31100066.288289
12600334.896683
113080343.352063
172060604.097020
55328890.443913
105113338.637292
178841144.816107
101673522.851816
87134592.070562
37874237.595715
125148266.063484
102155744.933132
110300913.482024
72694003.690850
53839398.087114
85569660.509876
213583068.379650
221184101.259267
118460194.975412
273046304.362350
127970627.360485
137939356.550309
14224304.345079
97428480.668741
4144038.099379
152281179.504337
91675649.638954
116112377.219977
145186778.775929
18743845.619722
119961721.979562
41841663.055580
120751903.913711
163086976.280198
85532712.556439
128609130.136794
15487631.619841
128685106.235753
118947924.520514
159962978.412046
164755400.534170
9314504.671492
109298098.391459
157413305.040147
199638659.534313
117995407.775224
150775746.401150
165093474.098948
142596076.932864
130370148.983371
42906272.761053
107808923.714511
37891954.410921
164272964.250020
115339267.215278
178049197.825209
48379269.456641
193352110.731023
70780037.246998
109334890.552578
116418583.212145
95201935.209688
109367256.141606
84823711.216161
203598315.271269
15981714.295964
6769459.024467
100000300.808412
72543404.433041
82642045.552371
108768252.929480
115069914.913719
9923389.837128
-2116861.438674
126552598.269230
118095559.623655
69037097.763061
123120311.527360
156163848.832798
112299261.600100
127490691.532462
106644446.293633
134865806.215815
141672720.975314
128376319.138182
127764922.553357
157610304.532801
85184352.267723
184826352.779486
135136187.920067
64275244.676180
115700684.218571
20461059.238415
69162014.439539
163488370.913372
119120408.340049
8915732.441339
158237876.950711
101707819.012585
128043694.061768
121511861.787491
131286437.119825
134032449.766096
117056686.968797
181692339.198006
107623552.692413
24401476.398645
100953960.733216
197808531.996590
11038593.772041
166084341.183187
73453301.698981
99873317.515321
83844361.800665
111542435.616137
122289511.496945
129938776.544332
139543445.728562
122596072.528999
85172769.569438
125209107.271172
201037547.074685
132163462.203734
138783632.282706
183551807.618630
192451794.620849
-3158214.698945
6908913.726352
135631122.657580
114296680.861102
70788235.769522
111706856.503189
171235677.417692
52423873.607618
121845539.988496
161533835.825324
113880813.977351
187030724.432965
82729384.715586
109297542.863836
116061959.518588
159393377.261599
14196144.118712
124724935.162513
21502977.985590
62854885.268750
47359748.389755
110930876.748781
23037837.018096
13103413.744276
129117587.302767
53925039.851961
124649058.689619
127018871.156883
36394093.555849
38452726.524118
161587116.579963
143424069.635718
50301725.535200
204685489.683330
38814400.637583
19653836.428142
114010877.615553
183767924.700418
113688805.087991
127034719.583054
150500312.444106
181066783.668388
11393823.041339
169456582.331580
78740969.291406
45922273.840620
63808662.417722
111709420.700041
140639387.382661
67763383.026319
137212198.918068
103448324.708163
76831001.497591
194453082.099759
137854349.045919
129029319.968354
168893493.373798
111314467.559971
129636221.019700
12687966.918680
39425605.676822
65790232.781266
145734632.689496
211963978.979260
113872893.651291
78621724.213394
159846549.913709
153699263.553561
220302734.688844
72028712.923055
13790510.977904
46604671.943642
185641557.942329
69918765.262927
86586643.573661
217845690.858639
101073607.548489
137903844.918590
93518747.528893
74762775.137733
37016027.985034
44793024.667683
115765497.726414
82060405.871303
113599558.192519
16227706.115282
186354709.937647
152499623.936295
7017944.621687
82886365.869917
127339081.270894
124990313.759749
96688805.960619
120212231.173408
12183186.640419
131074163.953020
87638003.496227
116826977.949741
114957339.330016
121100791.671835
112666999.388588
36906665.257798
86859399.739738
123186348.459747
10048763.591069
160314667.268537
83678040.896723
65102791.752960
116610128.990232
161840622.287325
160215904.186414
118852308.206163
173156659.066809
185967038.165690
112857866.641892
73646945.184463
96894022.551228
53725128.513478
113862930.020216
13201994.738199
190275745.598111
53258935.777152
161375755.851900
108097658.131685
129667094.696585
138998642.227311
49639520.026584
-1733211.793230
113117038.749627
128400995.814491
184734405.927176
153479071.793192
117147882.326787
121865727.506065
144253899.234438
113598945.060983
14403938.063826
67714339.897703
199142627.644184
72319023.343683
137044228.425069
66314034.885610
130899664.091557
9242207.798664
152599254.772792
16304153.172336
145466073.232331
10457000.676527
127597635.523142
11329735.551874
114501865.544111
115175553.663047
88977454.914445
6220783.726623
210837065.527209
35970229.900556
17133363.225045
24817068.382810
121140830.510125
39942981.151074
52500796.076787
16055585.545629
122363179.780002
122118383.170989
62226154.729969
61111928.939969
104739321.850916
255176718.841888
263210584.481133
133516148.837094
170173983.177086
181917362.115257
43375077.965875
120702310.955332
135693855.123401
124820920.502465
93060321.590732
73830151.100996
128074163.601969
109591053.372392
81501286.286392
134509837.527540
112096636.411662
124788220.428171
106876782.228080
111563309.704232
145310289.473611
194233472.759722
64338137.072691
124017421.487355
125815086.949193
213926767.627679
136353328.861254
89197630.383849
67834495.326673
57492373.351832
114004837.358154
148526889.135217
213831422.144254
178077214.424060
74217971.818909
117285893.207103
214079455.602435
214599734.218694
60636006.345344
122370595.167483
120601463.067166
172519556.839692
206212666.230277
201101884.971157
157586484.055261
12073678.809237
172760084.371220
136342467.240319
53410130.431469
174546023.980959
18331583.069650
181378826.887775
73892438.122500
137506944.830238
57287896.366414
43107063.579379
62409836.885882
127478986.878363
110309562.136565
101899250.849281
108688540.120224
133812333.636915
90799246.804450
76165713.413269
65273082.531323
27908708.110789
162907588.214456
92831663.023056
210402978.754657
154252399.152439
34661945.943633
8209765.096890
126903529.426204
6705485.429564
164786188.351479
92569157.016520
51284939.877296
3445226.114302
47526731.229895
108167463.962847
21397191.099639
151995866.198865
20307673.675319
159439618.356217
101267514.623540
94070687.845465
90212551.105297
157766832.879260
15335795.493412
90544128.373431
128584142.892920
98781180.365077
71510412.426121
110415493.986327
87039125.314551
140641281.993522
85567331.048593
173065910.749149
69986983.977933
127985082.705362
100583415.139535
24796119.218419
60213829.595479
63174988.073960
86422069.125278
91529314.174286
115662369.034040
104099068.484485
99112362.069685
112666219.412262
214028209.056942
63453025.933494
183169301.488486
165892439.386325
3423056.863892
46143717.991539
143130758.801509
86365904.242882
132205268.618498
109750135.719459
18313067.486904
113151179.718492
9467324.713041
183265461.994840
142897396.804303
85887137.835675
127428556.285363
148454366.731849
185125080.810080
35165176.725871
152099134.268122
104392835.100930
119064921.478639
208991641.135988
51629325.459753
57910476.158775
207298872.903615
20859705.702492
79510680.806026
119067021.991815
182225254.082761
144232619.721799
8736750.811245
71614049.246901
131440064.249600
78026631.256479
90831186.684709
195886326.315260
168118944.740859
128255254.087614
114900263.382678
27595747.749679
174376307.261757
96748812.740302
28829338.564684
30450339.434419
107957660.390738
92175389.956854
163125145.093194
107082734.363256
87612634.417075
90123881.705107
127309484.802327
99337412.796026
170362425.109757
16485973.800073
102663410.325761
161575484.112680
164090189.415727
84936367.923261
151176800.580068
-2361572.884951
94733826.936031
126091467.404955
127755522.222930
150866237.987432
180512590.569768
152382933.729867
176988419.130493
152898643.031985
76044098.030803
54275765.261783
16521661.880915
130726427.989261
49445888.902145
50046772.614484
11821174.364393
111618873.292673
124177440.103675
152211651.615375
127620933.740703
186765044.829956
144984031.551122
99753884.476196
110174683.914322
13154348.178049
230134286.897367
173445802.127933
112168970.853437
147459745.181777
15813458.251322
37807296.268414
124314805.425408
81374460.812357
30625462.328624
104203036.706063
36401697.499297
110453407.429575
164526441.217809
87604518.348411
52179159.619339
34647480.723447
154867384.120863
105534443.550660
168978331.911103
136351212.647484
50377104.413267
80949241.993029
220572770.409723
148286403.652128
126336074.730157
20821470.654519
28546757.727196
77224653.624914
186405952.269864
44964641.865406
162230050.369008
84758392.307164
132057338.771921
182806361.223943
139000713.265522
137992474.308508
106566904.682815
18763650.506128
185579869.533861
219316112.208328
219975619.552830
114635558.655038
73391521.444184
50430739.342671
118499749.082177
82682124.163721
8939200.686797
12497248.036515
127309612.336731
7296826.920030
127026567.114422
66298678.168121
19313163.311074
183440167.781151
169792342.020182
178661103.677510
131595748.999437
51998766.050854
107204082.265731
155957476.858133
196469822.627397
172770759.086310
199718372.318734
88770162.164847
10613593.282653
64405540.316900
45126141.493506
126263785.596603
144596852.731324
68003216.028073
146807375.091264
42769265.105051
125417364.907376
150200826.979445
16832685.996259
162158470.114379
63909352.965015
194614078.632249
121937206.851684
111322677.026865
142340740.108504
93661469.544298
65918933.091867
114088361.102258
108236874.278192
134014881.393809
129558274.002009
7577069.111854
152390327.625720
151895328.460546
116661007.669475
125443120.016198
103085536.006555
26519700.208228
56261642.122408
8954174.550729
161987927.674339
112919026.289008
190414434.774522
170265449.991732
14945208.026506
79447225.742041
159592611.266037
39432754.983706
98437026.501528
5889398.246367
10121569.324246
15771984.586569
25033850.584849
15220219.833815
157492879.520582
186955936.715069
43593573.702588
101444329.982625
77106899.871461
49464773.884780
53543466.483336
142676780.417084
123237746.083280
113083050.895845
48112256.862436
123941314.211645
120934665.769726
176359001.330789
59200443.048872
86291945.779296
77455644.369156
19397952.725817
108545712.804998
128035389.878045
88910854.198409
97700963.280509
152486931.048324
134806410.534457
147546136.677601
184158049.635073
246170274.472355
155464680.425107
15328668.147228
125263817.451086
87084993.052781
110275196.026856
154443922.009261
193381254.493493
122638531.750753
54954838.549966
110459453.325446
12865161.278074
137976913.620581
57887968.663200
113893747.366386
61559756.751217
57404085.364067
106424064.543049
106567768.995931
136889415.155729
45724562.641292
108484958.337370
52205664.719953
163625175.332716
101560436.931966
110123702.143048
141310640.218230
112783005.747462
107261977.255284
113065302.211281
89322107.089895
140431416.254078
103480042.961805
194144016.537183
93406081.886987
143225890.442035
103718193.214383
75426868.810406
9766788.480545
175052423.389651
120907236.721324
4907268.742909
189692588.100724
8252244.488722
106066070.584392
115188751.710382
17703754.859028
46657851.537851
104693394.527620
152287648.003021
124666889.343439
114741370.420521
134952211.629032
173902214.633030
137125003.278552
110011867.036757
23445684.834636
7849823.439810
139500920.917203
72532389.433736
80568627.794076
139875632.965848
208243869.459460
3826757.601827
141501816.329694
121490696.965326
110097858.138040
135264004.931191
120522674.582518
7218177.327917
63647601.314182
132582156.427842
112857771.910781
97448608.929919
-1964550.031753
8180821.238876
128840615.365683
142325500.664123
118580848.289888
132889327.677665
95142985.530812
66933891.950527
70504405.546408
140857698.761255
157727885.936034
228236430.324677
62010470.660993
91685394.195075
56428369.904803
124431279.036178
69674506.341575
83965627.112095
159933178.101448
173540853.486920
194363078.399438
114598648.058199
39153207.687945
36217446.338066
240485787.075893
78703970.343501
170948983.718418
66156123.090834
49690829.211775
151644764.236538
183988179.559912
199189117.211463
76921722.120817
161764801.486112
121625378.157967
112092293.546692
112766208.586450
110529012.224419
215495838.312985
98063606.032695
21004954.211036
227273047.892435
198897859.971584
65413577.351406
26800654.395344
92964610.952056
134920143.483348
156818421.312076
27915120.432740
148082855.356228
140373816.071424
74831558.101825
85606179.973800
144829220.413488
11363687.953728
119624567.492163
18949475.388728
36573541.852609
107503126.954579
206340505.819131
105973777.015832
129998774.302781
93970396.111780
45207932.315511
106326762.466714
140250450.674598
17613557.647206
172995342.390172
148040294.962178
164090379.925379
24535330.133745
71265626.945570
85462951.345558
86612605.434383
146878938.915922
115557488.728945
133988849.505243
80805945.737737
216930530.853248
138687355.794897
110969117.296908
139881765.250719
108972037.832002
95158429.576312
113619859.896814
219055725.660091
40679641.951755
204233871.335049
169598697.846576
32506903.563619
141246031.974394
175888327.370846
111774158.161279
68216162.949829
74346850.022968
104396412.975534
51589256.771323
97932819.940921
130678301.538913
142831387.050451
134587110.575423
135590288.104835
93486381.576635
115305194.911777
43886899.965489
119877698.651735
14179184.070079
76092795.529578
27659525.259434
134875707.906915
78618729.793381
149579726.487619
144477588.349955
99423713.824552
53787967.992823
120178365.880687
52194162.380573
123581151.646390
53728493.320244
59239412.819708
106163117.709819
155279442.064733
114315400.304257
102475430.145436
116278514.061330
150970538.983457
135644626.949851
72227078.307167
157528570.387448
142653816.342734
90828340.482467
155940323.291008
220830931.880932
118711686.426246
144049221.648091
108260998.806790
146744599.853349
220716204.585014
120518046.257350
81444459.449699
23872497.658646
103079822.335516
105788134.952456
144432708.763518
90560956.853789
19124702.986843
7160159.981775
93508907.653879
122320801.916030
222871111.597757
5964251.438335
164846942.925733
73976276.223208
132618625.505786
99374652.619754
168742065.882028
161906344.444650
198224136.563793
7310682.053971
137875488.106534
17015011.036792
121528252.761272
145681164.267954
95581657.769602
51135402.358060
88889773.658006
136548714.563328
167228559.415755
125385041.791523
132318565.460291
119455803.758585
54330892.419235
157375975.961121
159298274.727127
6017042.191540
85949236.776526
156158943.138240
103079349.720138
217096398.098368
123882652.985433
122074990.933100
53200420.957598
62818429.079155
105186633.974952
13733212.646448
15803425.681714
136407578.325132
92436365.156589
145587698.227627
20173927.080399
41069899.395533
67522980.273414
18799933.027854
127239499.636968
138056064.899472
109383002.213394
183734140.837626
224493387.216075
103463896.123860
77426190.047041
22363240.348368
139195577.759120
126716321.050425
121822311.409679
66469397.706829
125995292.369813
16323337.790536
148770876.943048
70607149.302274
108560164.601829
154871540.998022
35634114.865877
223576686.527930
76967550.696128
132155802.668301
188281552.026183
154193566.345581
139374171.114779
160199921.111883
140375904.187476
135536525.351725
129892498.194899
26540507.327460
103101111.860703
126563176.486019
142509921.390694
150257646.480755
137553142.877248
162859227.259712
8497635.237371
5775036.651132
130962012.461068
166327213.070742
82130047.915810
55426500.947560
120132935.430121
132623760.439847
124055623.196738
159821148.934263
113896760.859480
126943681.833167
120341861.732190
118889217.391841
146754569.679776
121790281.413430
199549036.025993
44792687.358178
7021517.288218
134712655.243468
70833785.283231
46174939.257224
5349326.344599
20167790.028973
124481264.491570
140974322.132976
210819666.356114
57244260.723170
13512279.979866
102402861.106663
4250356.739322
7285757.664497
17574595.328857
7193935.896857
46377292.811781
180650833.813541
250782027.060586
34473933.065476
95687950.805927
24301679.243933
100000664.312059
44154051.576468
12991801.059738
66669028.010302
134186954.876615
167210526.434365
72474836.409098
5284241.931906
208460495.438176
135686201.818922
97459587.339462
109966100.233548
130949004.612852
67956596.579322
4235497.774195
200450703.070612
73565435.274473
202709991.918023
129475871.847465
17626171.653137
53675160.177715
104482800.529592
132789178.713176
106002269.258476
208484005.653962
66573636.010622
109827306.136132
158044572.565359
-3327377.773480
110472982.984883
12504783.495374
124720406.552433
165605868.342560
90904071.048066
61685005.749539
107012780.315005
34318288.079294
69166081.918104
65257221.887074
109385542.166106
41882389.070405
42108401.865159
57555574.714586
55583975.102294
130591072.177360
85168181.683199
55936640.090533
100273553.312648
11657540.191468
198691629.575971
46848741.735386
177100344.062786
143828515.789400
188614868.374288
115224482.515581
107068902.830916
25365795.470736
160038117.918523
12172884.390507
100104938.767838
57057223.746257
125039779.531556
113210243.527985
166049110.757427
70494472.246788
109376165.309387
129366736.325468
8995037.204827
105594163.340132
175706176.173033
45470677.762301
158072267.425297
81152783.637973
138039179.274246
136357558.949852
117728920.163802
22383178.401831
40470938.428157
112622088.340615
76305680.238277
111395767.175670
253286628.884753
84734406.485734
87129744.933207
98809656.895409
190673027.518465
106749033.426842
135332958.963767
168214592.574028
183246254.194122
1371298.282634
128759426.368301
179665314.453681
107240765.927008
171925818.106812
113069113.627109
182678490.853902
130196117.512782
42435979.918919
138742288.087793
147435237.961418
142867446.547860
106381789.845898
39682269.413781
6906319.167126
89495676.675015
139304263.088636
67115049.470866
173233422.565382
113070609.441676
154296373.046090
76185727.162498
134194743.506918
146204479.693682
142701419.313235
74201112.934703
205156917.868492
54607217.432252
15435903.490772
74814000.638913
210163446.520973
247140439.128117
133683613.459540
117727970.308954
144701410.104100
93436880.965329
12393428.348311
176583703.387644
42007500.582221
44734050.564867
139640769.893288
99943627.886979
116303264.612290
3489061.201984
100647257.531046
112761850.635511
1802940.590540
150792425.401487
47158795.998851
159652751.207308
119024065.493041
610784.511501
130165573.647305
22720980.162754
101974995.707345
151224847.577125
84109302.733053
107005729.290436
56189626.621900
105845804.746045
16561449.853516
49880287.068502
155466230.580153
27773780.572546
121305856.242124
124034796.864394
190342338.346097
106952149.191689
143686967.387816
112824352.906708
107332811.763177
127242628.128221
124640998.970209
93979259.096278
131998306.783154
111138847.446717
131294487.844707
97566533.069762
-742626.637831
111838929.967271
149272990.348752
58442864.830034
162222062.625447
76986553.435326
49593091.829807
158707357.993861
15240674.458350
31233191.790344
46117615.084782
116302642.445017
81915393.445466
129784069.533709
119794091.072770
8830794.775240
14203790.379084
137266524.953130
181684059.378563
24470815.117412
135517691.415133
63848147.884214
112862966.262816
77530796.360050
186019131.295304
70582992.278359
112202231.808464
92351289.865803
58322687.423156
109823536.707098
109816540.242515
9505910.308492
108147819.726838
119496145.847744
154889385.303991
116756758.440368
116795175.492152
222936537.093320
18123642.921205
62161581.056616
117887001.947597
130029121.156748
104256726.354452
98032880.791395
47798434.341047
103050113.910869
161218610.890520
30784721.873178
116174898.607430
108842151.124256
119152459.226714
41237661.480067
41074593.043008
24605107.504101
117492588.987902
170026956.074300
133589072.327378
36735152.243977
164184114.609844
8706210.303774
110878506.867294
19455824.096662
5313497.254875
147367.398572
171212374.004123
73434912.171392
166312386.608916
128601421.417854
162225847.820969
104073469.609171
133446025.060642
24232893.329191
11675013.478124
101088699.118683
150306728.898293
224611056.364676
-331472.576975
14178783.337835
61795838.505477
200447411.667776
121155647.408277
14850547.061455
125128376.024503
101132563.401912
19761331.833732
-3618624.629311
102213895.644339
9967031.610880
109011762.929134
8846616.866574
137217351.154905
115908144.218385
38519106.209223
74729461.502984
107024196.699005
122055552.713482
127835183.919656
123674385.032251
179167613.841261
96141635.942679
134566760.313079
145901341.223480
135736274.970264
127230270.729163
13735366.493119
179741214.850397
8048716.374370
125102083.992120
144698503.300553
155637578.762960
163123655.690620
35888750.781660
108968860.227021
133585748.527425
146211057.511412
101453862.832481
114230614.243110
7782027.473593
120116837.310004
109112814.567936
16992824.017379
56879545.329641
122274181.086182
130800971.505087
100525821.784949
163747859.146914
140815290.928843
224470057.563791
96556859.436172
53749010.655435
218051347.875403
100172707.571499
8643112.197366
204388884.666416
46620677.711577
83520391.299291
132158880.714254
93227075.887429
67178899.256382
202199512.322486
135386682.503194
52601401.007775
112202489.912483
194704641.533638
22088932.419828
133431852.231991
24716761.138813
127914222.087694
5639351.751012
15285545.889511
103564379.785481
170660287.539378
81699315.265287
124387439.054398
208621984.656023
108119185.559140
65999567.076131
166342176.840516
114067554.673828
151350382.225156
214666326.312716
71920838.789455
113407637.408850
103371813.845405
66618385.130328
13854909.684302
73059273.700838
96220344.626338
66070165.228694
210582350.941291
123553661.081915
76907194.183588
120538851.234679
139584175.979956
116058457.560358
105039917.555347
136905003.812227
113309302.013240
188858529.623189
18337466.075687
165437823.657513
108160714.651381
147137168.773892
34418106.420944
112558942.992166
129920616.957686
1291470.738701
183020357.535110
95580773.802944
138445049.738135
40850678.103682
117184565.428624
66118998.440431
117275565.298357
125472387.263371
129228897.744686
121724494.063704
4327593.890702
120906217.221745
125656344.684104
164233424.201309
112541986.483510
159532093.891597
111465871.229975
107355459.532901
68026274.672894
219585256.838902
35078823.424947
269745245.408099
176957826.147583
-545144.158638
116942966.084221
-2578041.377335
185093475.002853
112802777.314497
161784198.697101
42180639.085744
54215873.542052
40700308.453581
193118253.413810
156382010.835972
10312260.404197
163876861.372326
148883381.232957
65089741.947345
104723847.275317
28565848.041222
13309041.053644
120492747.149043
47741142.131243
97568237.792076
179958185.515758
2979102.031187
94366503.719140
233296343.497146
73102338.369335
8138294.633003
127150453.556121
177393560.009333
111740562.075340
116715376.423528
78463077.798108
72274245.268539
149901186.351569
127776293.825758
1010915.269927
142305914.409952
158150630.822727
108926881.114108
62292194.110727
78861062.041740
117601072.029005
62897354.034939
142494658.949059
151444162.455023
149876712.605790
123337188.106002
187957375.190624
227239309.838337
136452058.285613
19392253.981439
157397221.878334
232644411.094578
204421588.842764
75004709.684231
54710946.302286
159837278.607870
67608187.730924
138414638.592620
105630886.512790
164049295.054292
141483161.629427
147665558.938913
-1502953.828881
115578065.351785
77180487.438730
157139312.360033
119552448.294396
83829952.959229
28683135.009311
38251304.268504
508830.947790
116699725.657053
128458969.147923
127007725.915547
28654955.459520
164515481.935249
169905314.984031
11947030.909838
144559643.370468
111758296.024361
261329404.524971
179143272.988892
47260832.887916
10184592.233125
107099364.651624
141139120.108406
154915553.150818
33643347.214501
14407213.008150
147491816.478561
178332124.154579
107124939.762865
-3836503.694210
89663923.622256
198848868.075224
155612939.021848
145935247.637628
137275898.643913
189462912.373305
153217145.914463
80309700.462841
5065565.695793
138701515.970171
105161219.284643
99800212.301292
115478927.298447
108319729.397172
135299533.357452
2217757.016856
173583668.687946
126413170.780616
77517825.548424
22000041.344667
132998114.643655
154005860.640923
107998821.206427
27198782.371976
51160454.927791
138152510.885636
117601749.223579
54371654.645323
172261270.021893
110826841.152253
86622122.949783
232587281.937368
138544901.803609
141643987.565147
95225465.760259
156822041.268753
104623659.827340
129318817.815698
26905353.143718
74196389.491687
88510864.275816
63407953.939832
163907681.176612
177432126.863467
71782102.955719
129535521.368232
3086075.764514
128468064.876787
96337205.070866
124426815.006107
15996364.888560
139774273.222995
75885445.775553
124865290.458245
43777305.255245
145093921.367557
163805361.600799
121559674.818488
205318074.072085
145372133.265289
230500257.583596
155106085.939808
64108767.276035
131551784.898189
115461774.228055
133271150.135360
78460541.285889
105801479.041473
108925302.914402
149353240.879903
134507750.140454
17115008.384543
124664266.784393
63551383.528129
134929917.705889
32260850.030528
211630952.585875
16170538.571621
204285826.291429
90490678.033470
147467315.624220
51827192.428101
98065841.743543
149640270.256385
118026904.962440
9712971.017950
174894409.836905
789714.293823
114281916.900860
170619106.356039
144846762.633926
40702487.543982
-3007067.446945
35189501.882982
103779184.201668
160543331.644804
126211119.163819
106219997.351708
127890948.880573
154290749.172413
99716460.262633
111738476.405094
43283184.189324
117351914.598326
127458070.950259
122093061.614434
14911566.536694
136433294.895735
68973440.992080
143943531.221878
146939253.876268
182612527.976989
55493355.962144
162999436.122136
115822966.097861
97077316.269644
148968806.793441
151764997.555899
151698508.563989
97125343.836839
155844259.672632
6924117.300843
56403183.170386
153612105.274461
-1122778.888262
109089406.163747
113185346.564441
189093260.282258
39267306.466528
14328074.283285
113158405.669433
47075002.407628
116797413.498831
91305647.401146
6648891.487385
99509302.077487
74861863.752103
114942426.229542
109703038.078573
34327079.019080
24411997.630738
120328709.151174
136791970.380736
61149579.984271
164098562.024651
162165153.084637
114455332.659597
143799374.175990
75667884.186989
102053196.609757
189079025.549931
36708861.209898
112565528.069201
155390050.021737
134124625.452592
141620761.423000
159743097.840886
122427759.981197
103333050.779011
175591125.010023
99581637.048158
134120703.822042
85915050.427161
144559639.317693
81034147.337823
9314324.710197
80248136.580305
120125013.079496
174831256.271590
160570746.988281
110359587.723499
100987568.012556
155746368.612628
10407316.120445
96734270.366922
92716722.304361
48399077.655245
151201088.027188
32512420.160120
69275400.316970
86542186.904571
48096786.623035
149565852.933705
14499040.553922
165309231.356746
9093132.284614
126105953.304862
169826443.826442
132840603.932175
56245450.119463
143968680.881242
213019572.125448
130223084.702606
125194434.960040
78194944.125924
73765231.384340
147000333.576708
49978648.179048
120944557.551270
116423810.152042
114530005.849321
114521334.395938
165723080.366987
-2619597.870057
36331131.971085
61536376.696647
69936541.933850
119760976.722842
171122290.155401
238058282.984332
113081993.856310
162379097.654785
60488644.760230
63447078.110863
25987786.322964
87944707.703718
8597777.121621
12934957.095700
108445283.859568
236567872.419294
30639834.684541
17607310.604936
180738772.416794
104332491.025067
101296011.036609
80075233.967045
5738519.363304
195901569.676867
113826639.715255
110542405.082134
147000460.430917
167877868.781136
109101953.207928
10113813.387757
157542033.730910
27524275.765980
198513639.336122
19308389.215486
158988883.305828
155094170.619468
123643576.540748
124707117.305893
113382554.989096
33786091.860803
160593643.668580
186206183.601925
208837533.508573
11890968.066280
146504246.096744
167998725.806981
195841840.410850
101022464.940516
151814445.193177
120670849.065591
225552968.576175
122440792.876308
11362142.884832
116705909.269426
260311301.099389
184588212.877082
188755428.971541
122716656.056562
138129755.980451
174617013.668028
106946622.552377
124380362.949530
151226639.240653
224757344.713565
80012644.536976
249197506.370132
135001428.286210
31013097.986960
49805244.989290
79296026.063011
108272897.074794
107308759.790121
46942684.829858
111738704.430047
13696851.539710
83568503.372506
162212876.479989
132256216.571987
188146180.152008
2156664.929837
122685026.402744
66763714.074858
20445925.062864
152841057.057640
174282695.171631
77061317.284338
161904761.505739
182503470.719138
92035528.525252
141703855.763711
142297833.283821
105114851.533920
148303749.527514
120917093.148274
109055511.960269
78357716.545045
17999289.498847
138684750.511344
140499132.416998
99990125.557511
160561050.531979
108887790.211251
117104145.508563
152781007.792680
9934870.864094
62536530.247722
73928579.257329
141327887.662474
65395264.428842
123237195.234038
97648397.029445
76154735.031813
117785528.341453
72436088.479329
52258114.270318
59334969.324037
122567128.327962
135697169.276038
149162751.353954
118379934.843237
71307996.591402
100767907.672513
141821572.187867
148901725.309143
150180729.324187
118586018.637303
101368014.407834
115441965.750848
239362136.672483
13845227.668012
1320119.778461
67750238.153709
102778902.209499
118659571.986005
101993572.587276
2720786.473111
68118396.913653
142900812.468211
98456397.951573
124165578.793205
111285373.539500
115071811.768834
202781066.249694
125840683.544050
17780335.655328
132431040.371403
92058892.905336
3018285.717547
144698631.236180
215072450.023954
91882777.037206
114791175.260309
5738877.733559
186862075.806678
133960962.050744
18913035.062764
75611725.764970
25333422.171617
141403387.130995
55528702.405263
8260076.731481
58371119.968319
113222187.365479
127274927.789064
41244489.883107
108737522.591143
4865568.385144
102010902.820073
109829065.713780
82383222.632390
40558875.213894
120667354.902233
159258113.362633
24690829.992817
168273183.032902
82173480.274752
6337718.322435
97780476.665083
193599358.017360
107502478.994142
17903372.205307
166410798.789436
126659970.742400
118284311.286918
56437923.564183
32664791.278377
120112707.581352
130902700.994269
12090882.022512
206618913.583116
163401477.314134
164117651.155995
114392412.191580
119238767.622276
159837321.904540
100833954.043573
125957886.490259
144908487.210911
150991288.496772
93068088.492514
190812743.343494
74100892.895228
21047558.482478
111836568.135400
62024113.619853
132155379.872397
64829927.560667
122084071.969575
124287411.534638
94044018.662034
176664196.633544
139712792.520204
76442240.898880
106551197.980175
165851032.308965
114305102.364358
169427661.673713
16197552.147045
172202917.129593
155200077.529950
49861068.693027
178732216.018759
30723464.612178
147271612.498481
-3764395.354159
145744045.048225
85641885.209676
82004561.118870
114584473.514538
121201443.855134
189018128.736088
124014529.691813
71533955.227641
108161386.349402
8620311.155645
65011027.061240
127955364.035978
108293040.148511
130070810.537072
199444810.369458
183052321.181097
65665261.841172
79886625.544881
164120272.882936
53134020.377439
91192433.876866
55533407.328454
189419046.085908
30399698.838653
138699319.949953
67595758.915734
12860576.953232
16397134.532094
107765219.942061
115463122.171017
120636550.834385
125572869.974776
97690867.947714
12904159.964166
93745855.691702
116284674.051164
112628322.024985
31491806.191946
144420568.283954
47646127.799475
144586855.553587
115148953.011108
8067587.446775
140630668.437506
127931261.852207
195305458.244510
159679850.625497
115784918.941856
118927066.173016
129240093.940266
70247538.745600
121568448.486196
95967821.378901
15414585.026228
113209047.474269
66150052.637663
61759038.490392
136989187.644907
244789154.622556
78885834.842896
204788971.537686
213638027.088546
105001556.815650
123934015.462480
208085758.567529
145730420.565694
96144688.205182
212862261.811167
117095900.161356
115470422.286541
94718390.108681
140812012.643168
226828845.319833
126369830.378739
155020652.429980
13803212.571140
96705718.663908
121150938.781884
19035294.006895
92935491.054704
140803188.842929
12984754.690703
116900508.401435
143493855.149090
194024859.585888
143452066.565747
50486947.432520
111200272.713740
166712704.290954
126422794.597935
122892255.866826
64311610.376949
148746424.521263
203769039.940245
92573615.342891
121589583.394858
8249882.699153
219725437.085931
58040839.130529
174647336.865324
122226470.781004
1332867.623710
141149033.165487
152448348.296597
-2280859.805931
142283867.036525
177252280.213889
42363077.492861
147170381.195681
36085922.222354
37110476.619719
5865407.290779
54209158.240717
128959827.263006
147761601.072840
118371722.973900
91109123.873247
27871522.504980
104332984.788074
20521150.085416
104497374.122642
115837475.729140
7572302.040229
51730274.320339
112940791.502104
135481039.200239
265273420.981061
170577222.859106
160743990.560474
110483217.388445
113986036.060843
146851520.449425
18054844.473496
108650026.145493
175086807.147668
35158671.464718
101915302.811724
38059499.981305
53908307.244235
105456838.808486
25515355.312676
18875845.241552
163688501.576778
77716885.159764
150644807.877762
44392027.247527
129664167.049172
12707955.135386
110018545.217005
19110526.389092
24339117.973255
57238476.649264
31058165.034201
116543562.463621
27749410.352886
155964380.351335
39534031.221816
13902092.884098
47480524.241366
10605850.970768
93908773.898956
9943197.609413
165007681.452127
123481710.726259
32856007.789393
143654144.970002
89519642.879877
142616777.930280
167678402.993214
85123596.968122
168048500.079963
11082324.861022
89474405.853496
98447061.361199
135804455.741141
77945487.546330
175719681.800271
132036422.648535
96781643.856518
133056652.136301
138026349.362499
67091577.338348
64976196.672871
158254535.346422
69614716.579941
4311550.666128
108652500.680373
105939078.803139
105214266.776582
135434994.747634
102335702.138201
129365869.530790
52774258.869919
106937238.074761
188046375.652971
92300203.206126
65739232.392158
142448105.303616
13437310.289513
118085300.246407
64158504.607620
111762333.259931
69930737.160165
71296960.107128
217999050.015311
122988840.011659
-113312.591066
13908403.767876
112851478.208445
44962323.414904
170239942.571523
108106683.004789
155476279.509930
207714195.948181
114987513.431933
114591239.710785
209518548.442614
146303655.137566
155340656.417592
176634983.330773
117107104.740802
127520863.143262
102061895.916262
98795888.042410
127049178.643585
24390424.478624
39996945.343237
58854364.866623
51961104.182653
135781670.576291
98580839.285509
173143741.764075
116939376.935274
139527606.762755
102253072.878980
100654875.948528
85300120.179259
138238484.044711
72634155.822983
70057193.822324
162379702.691136
-3678704.050063
148210398.859450
101990831.189625
115913963.695244
115410707.013601
14723505.593155
139261576.175039
182252885.126873
22656798.864951
55605067.603190
187224296.586068
109294074.841564
44954461.197185
19058544.666510
-2399539.049540
126968216.971359
82005736.179043
40964834.259859
44561100.823889
38085841.541158
73453346.428887
133590648.917588
140527589.517566
148913361.023471
85772840.082723
109240019.206774
22954178.652692
114261066.358544
18782898.988551
132345899.280184
101713831.653173
131618707.008006
231596290.751728
130596472.359215
134621522.095515
136273192.496322
32741647.554070
8857048.553468
18962119.457543
139972221.622862
115384749.040191
114434318.034798
136396453.518018
120365942.682559
188346917.200302
163259622.790540
83090080.681470
115017561.518370
106688716.049422
107903887.345174
124745313.624156
9317817.871009
109356029.030886
85244477.848909
233577784.719175
116443632.183557
176836996.750657
89995897.338055
-2404422.817830
139555535.288632
141877303.465515
157191737.900101
110849171.654469
43830333.117007
37331937.732996
124009076.814620
122758439.736153
150892697.962669
65556991.142219
51589196.871255
112394504.918826
24675255.895148
126087343.312896
90262716.636857
113145959.343822
6565768.742986
113663125.205380
150868261.121920
49995664.209971
102357648.397040
161107289.868480
195107145.555597
150063681.536446
26673684.452793
9141375.678238
114651201.852886
59010751.363533
54117726.089849
120192776.432510
115736490.311527
139636903.128903
154994709.831456
112222775.082705
37944056.713853
121797250.716128
97781955.795131
131698485.207890
117359239.296714
46198790.913311
67728182.925091
170856296.938591
59049447.980022
164438632.295788
48362769.003097
48708657.814912
7989848.974464
111803086.800071
166934335.976894
10657581.566300
192933648.072550
160413746.157675
41229011.921663
134359246.510243
68001182.281773
201858520.109678
92722675.666902
63904330.924316
122239197.667770
22058951.847522
185280682.971851
129595952.260998
116311831.566258
111037106.418295
20249744.349281
24175595.167755
122249001.358826
181005572.631600
6412062.395233
194500861.813067
66779401.972969
107613944.442854
54597451.595110
130582387.189996
64916284.794722
37625432.940994
103623316.900086
125093660.483020
247585418.231647
404378.325519
163303199.139712
120409907.500697
106073115.423093
127072499.988597
179879356.627377
26403474.271468
74608532.303299
92677488.993693
92890112.842228
41971710.741102
117214316.435699
207084980.401643
159189164.652798
-609308.900785
67608936.655899
70207009.760649
138050758.914978
164940227.677242
54529836.747133
97518880.473058
176543314.134538
124651916.554156
6710797.075388
193419037.024102
19892267.581924
30576018.196681
154097791.467507
208011415.089048
125507104.434621
107396569.301664
120362300.807856
154947061.866281
19510981.675949
194902893.199554
106170803.632876
108158117.459825
180051299.307897
113894023.236685
7611920.811873
142263340.516180
14645396.149634
125536899.731350
73044374.846435
109855784.930643
109976174.728530
63955441.543817
111540278.345882
96347700.002714
44320685.574972
157361951.459849
105682852.819237
113030829.203928
114459069.771070
17132381.649691
160602258.065285
84859723.159831
147276544.937790
134689311.327740
163504075.560683
135950565.233846
120212893.018862
208082456.953936
48975466.556010
116764596.627013
109284219.464104
18173405.305594
116930496.297304
178140805.239018
13331047.395701
86037158.684738
133838253.003324
127252674.796173
170532904.237577
86054397.168588
61136928.144076
177189585.906165
119952656.352812
24422120.336262
150850380.705168
153501642.943313
46453783.820032
106010096.334157
116886210.285715
113059921.811506
60271157.257523
175430128.312755
127904574.832554
232660510.844803
201691188.466762
120208278.787230
40004668.579142
133396869.334690
104995082.329256
128822515.565214
101645074.105869
50879980.337833
-4522720.233272
111293680.390993
21202147.753757
79802709.562695
30567231.549657
100950019.768825
69097090.794961
116207057.756258
145862841.310777
102144415.794942
9508056.153059
52670070.412320
72990958.277256
157908180.116399
127630670.067966
95815177.476501
97421228.842033
59460756.412231
96766050.744502
87434744.985076
151832163.221502
127818484.126308
23203176.715770
168523831.780689
32325974.822771
8216576.110887
10373361.170274
153459615.436675
15925092.030633
109441016.933265
109899508.927634
19646335.159915
6814600.773158
17482387.723577
194647200.255647
10485812.839591
110057701.044997
189608206.718040
21131152.250798
163315780.090577
113453253.178071
110343736.705613
99540565.491897
22854409.057394
104204888.513124
11098934.819318
155802342.460566
38933110.881802
124635774.690191
102693547.422382
149768039.112138
91868623.918515
151641467.044313
131712374.739048
264938609.027747
171448018.534393
60172287.643528
48185810.660091
94448968.606631
86222914.309617
60257677.283256
71781149.957855
151880094.207482
180154189.223851
5685452.088517
92261150.406823
1892068.520621
112785333.737535
121502802.015970
80837194.599480
74886311.643935
99412385.436988
125016594.753559
61433811.586608
153583020.007935
136709462.380412
110413181.787201
142108461.654358
147376804.549766
136266767.980277
57109048.340960
123641258.927389
102269356.385598
115953924.688795
88309419.462635
225706593.673350
224901239.663546
23945186.711694
96086267.006142
68602917.064215
100547464.414408
102095402.337002
152897058.716151
127119722.009065
101854608.101886
115147725.889445
113229474.073919
148392039.175812
141949465.731213
147398682.555588
105269995.235868
88778395.252908
111841584.525274
163012403.177294
47834881.458323
106777287.110389
15544346.911996
124218915.820409
78930244.516288
124987232.965653
47562261.286704
170827788.122258
97448302.839553
26928808.566487
211641114.665374
93601098.314050
269059714.474332
129401070.295521
108489433.896488
133576595.337036
110618374.091205
85483136.449718
71489819.155328
202015680.292693
132789574.892624
123636903.753090
161161272.705539
151076923.852773
117410085.842053
75180930.356276
66440757.632605
118464266.191296
118584805.063509
108094644.328608
47474532.428443
57976370.544732
103355905.618392
5509884.823583
130154224.784125
104541868.571560
29268006.717397
113263663.786278
133934066.028624
87777838.866059
112167533.436541
12154935.891422
30597530.859467
65100139.849592
113766693.485916
73745496.856423
94353142.860078
140733767.636779
74601583.016483
143968226.730690
117278989.947117
106584674.839936
140509826.242358
4661592.808959
115093214.339931
130453252.427038
132852148.489400
139788953.891315
134570572.599679
18142783.651602
164756065.283185
34830262.198751
170782883.055339
127301750.282833
126124309.872093
179674098.032161
147735007.036923
97351473.110935
168690606.389736
15270868.003687
35051519.743796
162629793.167587
149861315.279103
122877491.948496
137841932.891243
64708656.556286
108109025.668899
117891398.474308
49731497.137863
107607133.532931
122499709.928180
50817854.153886
53476432.675521
132522977.302401
168256010.281867
65612253.388580
216820042.912020
11781743.568785
85870723.952213
110582170.704446
109533108.535025
126606938.529595
50963027.067203
127369526.952623
11377440.059844
109778497.070985
116544781.425737
169000430.437049
47022451.233190
112496951.899311
71199606.954454
154329404.698207
139609800.952512
183725469.935184
106680666.925300
131895404.708562
106164471.526402
70094959.056223
42531717.104300
81293424.902601
108748406.192362
31436261.627371
94277207.590941
120958127.775629
38432930.068250
104597541.811567
125987391.675729
174555121.697349
51224249.376546
184403112.997143
44417648.852762
7306492.183625
83161022.451056
63863875.717457
137142303.147650
20095568.235083
115544436.411618
95153202.869808
92167540.429879
107563811.226779
117824094.161476
170704531.248023
170149001.262103
-272229.805619
111134933.125039
155269876.104736
44584962.879742
139418470.329015
78091575.610368
141121639.913839
123116291.494045
108247498.529360
193714275.443604
155429272.247823
39324407.959389
163212473.360628
131591317.529617
114538838.713397
116263128.827289
76656488.588581
116967683.364525
68172681.219679
58268389.320637
112991610.983022
40077206.562288
126681103.125664
60307359.921597
90128697.631931
140491134.288512
110542565.723987
82332499.965694
62271789.688983
165229933.422731
174180993.256206
137237343.418183
29476278.844437
103244513.116786
163538915.032106
123665621.298295
41044630.468460
129921644.137633
75373840.318593
174977350.083872
26978841.459374
109805613.984181
88231321.564373
107024119.736079
119125292.245026
129067496.394093
27280341.164154
153333638.321500
125947088.078446
155954591.059770
110758069.985415
4333577.893372
79726608.484823
103687875.935889
106791791.723635
202826066.743945
74891328.064170
173344122.023034
110391027.294443
140722764.630460
149172609.209535
105400480.029884
102524973.115050
102501288.730955
105856003.566201
161271917.550654
101163863.336722
129118150.299363
112445525.662187
157963540.075515
117646391.303156
8682379.632363
119006820.512603
23652421.202146
162888318.816233
138507692.587890
108021099.656278
136306825.168860
209859820.871936
17768043.968185
106004586.695004
113068408.885135
117369758.332669
101539755.965179
105950116.270608
132294138.096458
190546262.999431
108746109.238071
117212184.853350
72489902.352964
68838957.320622
109415705.142019
77317859.353205
119388228.775600
113786308.360256
126554854.416947
123410064.826035
-1377358.979624
155705425.729272
126235437.474037
112356687.708157
136235391.636068
72134966.922943
143785725.503893
112025895.261392
110036514.049465
115957251.901712
116405589.978119
214954809.943012
200473742.824478
167424787.937670
56385813.697850
99253814.116966
82028117.733583
119092036.754331
147279378.738709
35225807.110503
172031843.732674
97215761.505642
105172118.536322
127446298.575980
78265748.084633
63943374.118177
95392219.253354
132392801.425449
59968959.789619
181187632.485231
133924547.216900
179099189.596487
108046089.088305
106268061.546202
113993767.777696
109289903.538666
5312795.923863
113475719.223967
186684334.374013
112939982.311908
96760408.885146
115467256.964640
60623306.009901
153091812.597308
124052703.265281
140332563.541719
87063511.536299
114183027.095072
194982330.391894
97646252.257661
163117751.442448
122666578.504836
127381232.096959
142686503.540742
102571298.736875
108957340.132789
76187503.286513
15318101.113830
124820051.207548
41637880.791958
143567932.149723
114013345.433001
-1909758.371598
76001202.925425
163747810.496882
109364997.801904
74907390.280019
92070567.376679
88875720.985813
76269098.959352
111014659.680491
21726214.304223
60391415.146798
87494345.397309
63576075.171552
110100065.769147
118239416.411855
132837943.113194
7314128.031974
53649316.307919
105202051.691188
102386404.758731
126641680.722969
142971795.119710
77834269.834351
81308189.968781
44532865.514283
60630814.933207
117197301.757700
9840818.538270
114363061.640890
78384444.654896
146220155.930363
92776743.797233
91473569.940137
111499435.259280
63121027.426745
101717679.744021
115628293.450075
34377209.865857
114912989.358081
264910175.405848
150196064.926758
8538580.136355
2502794.829263
91355672.620244
83419828.247032
116057284.360972
116375795.057175
130493520.638492
27130234.465991
22200228.592894
132278218.885738
112760508.471179
108401721.432051
110870521.405435
117216622.482816
46695694.921152
133170191.813820
32421203.653204
34125238.882176
110148323.494764
93712810.506696
114277717.555136
148475040.560756
145574195.586306
110233913.829071
89077352.248174
108504994.136237
117266060.206836
125098406.198063
61983788.924082
148789692.146803
18498189.887028
113248004.412572
109572401.488912
136973990.677983
244273877.539943
151890579.541362
98041571.176424
102027253.132881
115844403.144607
120424681.227227
105694513.413194
112474220.175046
71124098.454272
24545338.119855
108783215.365912
32570717.191601
136991370.437563
113652080.248069
77380262.127494
134483947.033004
106431135.533035
85535216.063089
107647589.658378
106979408.508831
104404746.887650
132157469.494403
138689578.954868
117908681.051263
64769636.574561
107487106.314337
154957359.879659
3082047.335680
115877402.072311
32925089.429457
48450353.080837
105914354.481598
30827339.849264
86113879.341837
144790057.685328
106384306.724279
13512939.636316
166310130.720737
44048843.100555
93889848.120351
119070956.748305
79654888.956207
83216244.060975
90052032.635417
115777055.048443
41087679.296051
97296918.233808
148592531.331946
104103923.795512
111835435.532746
72496231.335405
46879866.330341
58783084.334599
43360202.346482
114269599.548187
108657459.523267
149651144.025603
117244492.139346
108661938.139460
26401180.273089
109466461.938040
35132948.716312
104664286.423037
114840018.124012
68572365.090285
32502194.065445
103081961.579029
106970678.760855
110265636.461663
48171157.372572
112924381.833789
112401549.976114
199240168.400480
111605989.478862
124060618.132551
117159037.683022
112576945.890387
104639603.034118
107153393.157947
41049374.181272
48908161.601278
64842477.833747
25757576.914831
126181473.342204
108088196.301370
123242291.701584
108203994.799553
167534865.113278
234818512.786547
88899799.927474
80061513.266803
115995112.792908
81011773.637585
117428262.540978
56921088.681506
212649491.618805
119980513.978257
104936818.531356
105030191.198525
45201995.679830
102112262.325303
120271491.026249
126176505.064128
168060019.964142
130365008.080359
100387974.873553
127957004.444685
178659235.231416
73623647.771702
61478652.124507
105123101.452605
121003900.848071
131490036.471439
85506646.836319
166414469.938292
111545612.548343
114967333.016553
727117.969289
108630934.984967
96862092.476367
140700337.008890
115836299.643591
68523027.842810
61275983.265444
108446859.630229
52491894.288585
135218647.223062
101140652.728069
159113252.885697
91247205.745088
56905453.790131
111317842.461650
22119158.636106
121139860.909938
91335221.210532
101999025.899724
74197076.881858
104948271.368174
37047627.652862
110580639.627783
22571052.441559
105183048.199532
99528998.811307
127889571.989349
135200105.205155
74944734.513873
45227206.733764
28586433.694403
54843112.996304
104617518.122616
117451460.888760
115043062.244153
108196563.299429
115495876.873227
159370239.418067
118083999.418366
122454450.241845
123591045.736590
105350362.550182
27444093.117397
112324289.433487
163145695.046162
105951282.694518
91616586.514584
154101438.346592
114130589.249056
94384479.005134
52083846.249415
105101770.766569
110668527.733548
113350137.232643
41873482.211022
22411163.559513
115158242.127389
156362849.619451
177622329.554958
106171925.824437
126089477.969383
107402055.784031
101389410.939162
109250171.336571
76302054.534800
105813660.107791
176011572.625767
108914587.129116
107989398.976028
110019247.978631
40482926.669096
110081016.397845
115291293.928062
130782078.057971
113389075.140530
42663559.132177
87294273.890712
22072037.593893
20054553.482615
67554913.901942
87178732.994870
106362806.810476
109508790.288489
76781250.628543
138046322.494848
105170183.520789
104215917.812184
113761762.170995
149237641.298764
108254826.274837
109627784.853327
105584053.658843
106479302.640243
119009613.731595
45749387.948009
110460803.544194
110143777.982655
103907878.115710
105810794.766182
116100050.639926
41588647.436349
81895599.349642
97335929.942437
102103524.820660
112125104.244422
109371921.583593
98232803.818257
107195631.729310
112659474.412309
113071030.495589
142232849.284913
104580457.647983
107207634.925942
105993506.324977
112936469.591140
131128838.863847
129790741.187658
125213238.531823
42896910.156052
109507650.108205
12857145.544036
95174102.565595
118026995.914974
107703322.191195
180077470.261462
109031390.176110
119442222.463813
109450600.193780
114479151.033960
127427098.443267
4433700.252482
10094591.700233
110662584.114565
92985688.609366
106928490.807268
72612445.982967
107048587.021773
144935028.985038
103244919.355886
100559157.932864
16572369.753590
106681807.992734
6020768.089543
74923485.673075
105514380.875576
106397363.552799
85919324.947677
119703511.794312
129491100.792190
114657609.659275
96083050.937135
79581233.676112
154364770.462892
97849935.150966
131122741.696414
133029209.654806
108191044.340294
83335718.009482
100160180.864413
112317797.619972
122318478.252484
105171388.977982
138918937.689357
122924074.602136
127931410.281198
149974942.327372
132093651.948654
97899309.819056
88693175.439970
124240744.876668
101397946.892792
108721516.640140
116902767.456780
143594683.392333
96801719.147824
141165891.568918
104104650.276000
106509427.676497
84723105.623671
121289863.217270
102384373.231272
225695925.466806
183246707.984072
84964608.233544
4814805.529001
182253948.030089
167148870.307828
66663724.346740
109044955.399245
110006196.510838
97255611.045179
122998783.633433
107808861.943043
108395916.403715
107665473.178731
107345604.715940
102509635.894489
110519754.268428
110007429.664584
124677087.328735
32605769.354061
98768707.782315
107839380.255376
88478678.449307
14670615.665618
109033313.572953
79800615.542088
102858272.479886
108837471.483364
61896318.926076
127381486.634902
105489262.711174
3160993.193279
105818474.055897
24478107.839351
124571183.799861
94040062.852252
100662709.780785
99290542.186857
105709719.313872
115668409.617567
112930760.480847
97889678.578232
80258311.545231
77447739.020027
180451129.398464
16448501.126280
98379280.871792
96980906.031967
95041795.954921
109438172.757894
83189897.676429
95436584.045982
106586426.959142
83661638.762830
85734430.569619
172212473.090033
114414950.243294
113348586.933269
108373328.004205
109041278.096777
99010293.887486
103800877.995693
141929605.011365
108158143.374712
84065492.843728
124403464.808069
126616584.490595
104803789.271932
125578277.644224
80161434.645506
107492904.679488
106867688.837279
108354469.711853
108314001.197861
105421732.920124
113017913.708683
107111684.316353
105162303.027496
91608862.737290
110665620.156542
98162449.182920
83363036.736318
107507884.222013
97678888.310359
105330597.729602
100060090.426263
117269703.821004
105219489.380717
112091879.627754
98320769.522516
104121022.061354
125302982.424217
107926969.620386
112809340.778960
114120350.602332
17958471.299755
107692142.148882
109801469.418393
118582649.958330
97957878.786372
115425756.452842
132002333.880608
179235021.046253
116133986.568654
88110904.127150
78425105.821651
50170869.544364
110749954.474103
96272070.125540
110877097.211054
116099171.895700
107420329.442117
95675141.207007
111367165.371519
148336585.662681
106682554.260076
105455803.822991
108740957.856665
108595781.369420
106470501.000261
112043466.379681
103933560.931941
164556514.948430
106992851.735791
124580016.819033
13752261.280719
109263062.064819
98327755.036464
100227976.696076
120069617.836004
107978422.504995
119274461.294052
105075077.116747
106740279.476921
120781885.810269
105658341.035630
112310925.081367
110085585.112304
83540670.127350
108491434.887898
105906243.945211
103461198.013521
104894766.652005
142855943.487232
134678298.101091
98722380.602968
103404093.814939
105881709.526394
114686534.864938
110120780.730661
103787191.255848
116228677.332961
103018291.880912
53339752.977352
110304212.077104
41939439.093512
105089911.097956
134164326.812072
111458743.353565
102917772.611945
101329389.350536
84469415.786722
105074793.996073
125101248.050210
102789756.012383
126482652.646172
107501549.600376
103370758.337836
26248590.129963
104769167.146081
104891899.805692
105496092.233330
103533972.012324
106943501.496606
109156571.564486
119330512.191948
175042652.909730
95728148.784719
78277534.831159
97110620.631345
104464379.830170
108597900.152957
100115881.154161
106983385.539931
110215326.651938
111353062.734759
102699716.763639
3526590.049522
220995360.495643
102257845.909865
100304853.048382
106580282.924566
106301846.044033
115578428.182179
89022509.517421
-1401820.174705
97396200.355195
96347478.927137
103158616.895741
103853367.228818
102058121.114168
109322446.951990
102131136.159949
124222413.747404
106583757.453069
98471240.631535
102160087.293955
107366584.017560
105292436.210022
95592904.966279
104755833.423575
97681381.615237
95804932.451395
102115363.143399
105338752.849569
101869012.701775
100575283.463015
102306823.308271
107418740.844418
112776546.112663
98570589.503450
98331365.412508
97711862.928469
100888936.917632
112942033.555296
84079752.411986
101857876.231690
100608277.152431
115005619.804190
96203588.441248
109390287.021036
101992456.902390
113997491.559128
110901219.660041
96916538.057431
87436389.658279
105041285.156448
105044916.056296
99040416.197051
102861344.416955
70543193.851072
102161296.963894
97973228.670586
95652142.379152
99301717.031899
103024292.600638
98952545.286779
100039316.578501
100320077.672676
115457241.538702
110822046.369504
108048477.737712
103744675.941936
107363175.631394
104647288.223043
98349005.111819
114413665.600106
109933711.817716
109078914.563503
104173454.043449
126667434.266036
97587044.497159
97626214.369016
102122010.923294
101570049.995037
101536138.612720
101244942.189183
101273699.698018
101136386.641231
99878736.642828
96281649.833701
101904965.434519
100811479.799437
101049528.170213
101681904.733732
101427401.362899
95966085.737565
94441546.704242
101601551.351292
106230270.041713
105878220.094849
106139798.230551
100422967.766534
102108489.369512
101971525.445249
102030218.946674
91153054.076955
206695342.172545
52798750.544762
98574678.545266
98554217.028053
97212031.969026
107290816.749256
106957272.683246
105733907.807725
104730147.767097
98749580.410063
95931290.314183
102972761.858066
111574081.802006
108578979.810605
108693556.228712
104167166.562266
101287847.869548
98203815.975664
110979052.086045
113574510.274683
108685323.349436
110272491.195080
99454128.195523
103051928.977560
106349248.833518
104481177.403045
101131714.591019
100507178.128019
95277007.924160
94083317.098253
94872132.956758
95224436.625954
102619877.107490
102412359.616089
102408149.207667
100404183.546203
112243400.788006
112243286.130381
110249383.815775
106946659.552389
106213171.486848
105773126.872630
123074055.752618
158391635.015319
98163725.598345
97377136.789313
101280880.129040
65697343.647873
98827466.025203
98736906.146719
102127631.100479
103041350.249575
96828574.818072
107534717.063634
103858799.429859
69871239.004136
99237201.806239
102699085.001249
101199057.248383
109982716.946508
109001888.146624
88697732.889554
61162450.427350
99139706.082423
119503771.197298
104656017.463206
101719895.913634
101370212.207718
101544748.251438
101382081.848993
101392992.331634
101174391.491872
99569156.088582
99073528.085260
101231717.550142
100471679.108902
24542149.375648
94925266.195611
93175533.113424
102267322.742481
98867929.706743
99585164.785839
95685416.094428
102466173.884814
103905597.916729
101437652.448854
86530223.883575
108373752.265834
103581533.510067
99263140.747726
94148097.926065
101019597.516937
97232335.848013
97620876.800617
94842109.683942
102542722.550243
102237813.271265
99571865.914603
111430578.981913
109025254.032756
106143389.585255
102901757.549389
108817864.328953
88127571.988923
86579496.697122
96523898.473826
108866904.980508
101772591.215224
98703450.678406
98122165.244483
93457309.355510
102841084.652197
106143170.353519
116903624.488580
118013423.373345
106544099.280806
101892393.685745
110651466.899907
103514615.018316
99104115.840588
105797287.442461
111572364.119614
107555577.613985
103709931.867929
125251459.466753
64939739.809334
102279941.496495
118283300.305986
100878635.195069
102711735.148604
107368651.561896
106661925.122444
66682516.946314
102484554.497372
108161988.441545
103829794.719917
111117147.662335
101259265.539576
102282179.719054
114404388.893741
86836956.132782
123533564.595584
99742610.963854
101988170.686932
108202287.116201
83537716.844677
102247164.605393
99876543.989143
114888684.660268
106554854.294461
104305838.806437
103202076.013440
62608818.476080
101978016.398088
110969042.984917
102656582.794319
84195130.276845
106324764.833953
113244096.436213
103373232.246326
109286986.824247
107195383.998052
89809998.111676
106234103.338606
107736167.345289
101943849.424276
97964960.362985
97873461.341968
109987979.083520
108726677.582870
96788177.083944
96275405.992766
106538769.417182
99651116.598390
106437539.690120
102565146.237996
106597144.826602
110658419.231811
104532027.352770
99600496.221788
84342187.268145
101212755.520295
124841563.142872
89944921.931839
110196351.104204
88314890.175161
107435232.591671
106924047.038560
105618181.382223
113533195.983855
98948160.822435
100000158.431881
107878235.816989
111402898.227047
102209192.098884
104956860.615896
111512180.222139
13598914.045491
101886748.112682
125166367.460551
114672620.423921
112035293.561438
108977473.882842
103674808.297393
105291136.708201
183571848.753591
101915738.857409
105062019.630773
57307418.779496
105986802.445525
106485420.896418
113555217.569626
105848140.536832
89396028.102160
107508511.550067
118206585.424219
99188077.316649
100874313.574818
112151120.124689
60662930.836117
107181480.377561
79696319.551254
105503000.485271
103295937.200556
133582445.179282
133487142.433025
113717829.530458
94949847.495571
102686976.381607
99482352.411704
105962217.216378
102288601.820049
112384873.403496
147455213.264751
48907901.864171
85769238.223245
129727846.514296
81528942.276869
111131213.130869
108250955.791268
144363518.314393
109917374.353343
107125422.509681
106004964.593248
121939149.734296
108724084.127041
101787101.033968
131112135.766581
77793231.010384
132931647.594737
112745583.385462
105464206.381043
67165757.590397
106684017.977460
146085168.712201
117764200.320171
105973956.755857
111759695.692511
96506548.851009
109699409.758997
108738282.033676
111858067.918055
14757530.266603
97919026.473825
99669813.243995
81874080.167621
81541687.358138
84845005.304042
98332507.979949
99604938.600135
175819978.869484
103920266.711847
121991955.563877
159644059.305121
136817753.097166
96809789.727910
176829563.748582
102568858.674744
110871693.049962
90789238.349745
109743432.313424
112321036.384526
100344648.251019
107161449.638585
85823905.834314
45217839.956914
109730033.404728
5364786.370166
17260804.968635
122105652.947887
116392203.485246
166034681.772063
91542511.240362
108767954.863080
108141003.832248
100782785.164728
113129920.885797
105506660.482707
79190622.939475
107529219.919970
56400783.136147
103348193.723734
84412219.287533
104942532.108224
104120384.802538
217831081.160075
96408610.289176
111620838.119420
219054149.013812
84745521.498978
143182040.090090
102224339.571890
63986811.399282
107957260.805437
89390179.344112
5135990.892969
109260517.103711
80542740.145139
117228777.792532
179640589.008002
99345050.811804
110891520.374948
95721230.202860
212940147.806135
102914362.482834
109805473.987512
84835771.395038
127578183.823533
-794812.888693
107775559.564776
107407233.936245
97000285.940860
96298315.344858
111394167.475146
106684829.031791
5769050.949763
102510809.711781
97681101.244831
85562155.675852
68387148.391602
104044055.820741
121028795.486062
117967270.355739
105357161.248724
24289647.755579
103013401.539260
102334854.378124
95163069.003871
102450358.551408
28472958.088909
101746582.311212
77723598.753852
162309844.502998
225916.313011
101774713.610481
106370934.284078
102327629.192862
145644619.342570
110178134.737263
160769840.959110
100173788.024159
15375337.842707
92752587.599991
108055738.278405
14152424.002193
84350266.024893
95633506.522038
109825412.543675
112662270.173361
111240410.899172
105184886.479837
208057840.802523
102237474.773108
149019797.963580
108014153.036657
158945511.362418
108662242.971054
55850982.610521
65708056.841990
124151965.023361
115273201.515796
108242451.428496
143970749.021599
103530468.920609
157042219.941893
73765888.699709
109017099.705547
111228942.286201
112657463.607547
148773628.723457
134220510.844245
102494094.077221
96713959.775138
60938026.938475
129477273.811848
140590045.824090
200955707.276212
141195670.682143
142796446.023716
66739425.195293
39307740.576481
129780829.227994
106103987.259849
67997948.710672
106740342.709076
97577588.551397
101549736.633684
79546448.670487
106719903.747025
104283166.864085
123763246.647740
71875608.469512
96831766.743050
147530573.298705
123791115.080007
108398418.121293
115375426.338648
44871473.871640
145891851.649106
120588936.436223
104663628.390359
42714222.238089
129405980.867851
113522519.438248
128001445.451503
149836499.810210
11725284.922456
63009871.073777
173128709.047838
73799137.402978
172470747.251079
108915834.823206
116535008.332679
4278412.726694
89098250.426894
58016329.590066
106622651.774542
99249977.950515
107743002.182420
126458581.193417
128917986.113889
93803352.633342
63295336.147348
111700318.411039
108329392.506060
103236768.096083
155106058.279906
103929547.733571
103831356.861974
103626913.908948
102508350.913531
80682307.608985
126396274.215502
173434848.966183
77440484.986680
113703639.289414
111872048.178466
118246357.288361
167241492.114271
100917579.047184
99626298.082224
130263703.637210
71829076.956327
532528.414603
97729109.681051
100340297.650797
126163368.491279
106557721.229137
110377242.784538
99485749.230376
118890244.794949
104300720.891179
107072415.463952
162094377.124313
116355252.987030
110756808.362845
96453158.236629
152826422.904860
128798008.278195
50017113.643322
109389946.852685
103496828.456425
143201681.741022
6048033.747248
35480004.294042
109036555.754916
19716059.949948
127048379.204816
137313434.269446
117581741.959306
18845595.945833
140684227.837601
107474591.610759
83312244.424645
140044254.224717
127128819.072419
108157983.506877
116334197.865047
80775755.951672
77681253.085556
103885293.813682
105697007.672238
107522177.323129
138151165.162715
103082128.344875
133039809.781484
69689526.212225
118068022.363016
112360513.985321
113825159.253393
103790361.530373
109663690.385520
101112749.422724
106805616.658468
106028712.457108
124043502.926910
116172600.774029
88224428.587440
87113981.585650
124402897.860202
111736077.046391
108959270.507330
105577114.237227
124397973.821979
100564301.615253
87495105.637554
134102645.183195
8241178.758583
19428649.286831
112197417.315120
135058441.675974
124469227.754554
96915665.487028
96928153.678708
110927334.193515
218966874.669930
84574014.665153
117946054.227628
108454617.559754
87157885.941619
109027322.306697
103636186.538070
90169090.080083
115110438.288317
137940248.770345
80092596.766872
110494367.760169
102005946.604339
82896469.658714
16536543.241988
107331836.182554
110934043.874838
114457794.526140
125236853.350656
78981760.360556
127018205.522469
104198572.560373
170363657.353687
93500740.573465
88356339.636241
102734021.509648
139092387.671899
60431579.365814
91992995.331868
104347211.529595
109568971.397803
100442859.015423
123839229.059156
120781262.680551
100119319.058176
107606458.619862
29700434.648111
104839307.917237
185558430.296140
99558614.300273
43609616.565317
127664742.668436
57195914.303576
138447443.262738
126349261.323589
155932428.474954
108268580.356889
96755033.263966
103809717.865133
75981906.346778
166018277.094163
159688327.606662
103016413.329041
101938516.975006
161402000.943866
11090679.913174
94668969.938131
103462040.116671
125948419.077027
164817711.141235
105793504.121742
85290444.974799
111870597.934568
114708081.673476
118716251.826861
112390373.105450
114757468.426297
156083292.371505
108679488.365567
113388497.547280
35237989.597358
171160640.712808
166240877.474603
120703588.136705
5777265.796274
127970620.250714
218097155.538237
122993095.086117
54000926.753123
123520150.794596
111814087.374812
107779591.121861
140096953.807414
98808037.177796
146755198.788669
110979086.285360
114155994.309691
101892914.690936
105985393.990310
21994081.919082
109848313.432794
108967451.287923
115090050.818099
134528523.225971
99957481.772891
58897910.947657
130996548.395229
153993159.747587
108254471.929453
62413063.671789
77057738.168264
165076901.320668
39166232.324354
81209144.473245
104189186.986496
83352754.902898
113528477.614053
79090813.483548
99560453.702033
84735540.558865
55161912.705487
106557162.986533
171805727.072169
59505544.403613
193823357.260132
174694037.530914
112148660.003993
105961167.417425
83093686.547658
97005856.153669
32468544.198949
106858055.067639
136032198.444611
105947634.306679
100396658.501710
102455145.249909
94216857.498764
9964619.164301
117285924.642807
109336764.273907
102881632.699161
102675609.637043
93092662.071174
102191040.778286
232824999.312111
98462615.115880
102257441.328632
72961429.185315
158157507.622344
169194898.761382
102818960.393718
102361965.352951
59307441.007147
230440272.582292
102134054.397392
156071144.152528
106134866.920985
133905181.185327
94454659.310846
140419477.969756
49348057.334753
51684218.710483
119223144.560371
102716460.829314
104171900.039801
130468704.493040
131237621.508989
80503951.342855
107919604.517619
190462720.609758
83844362.647488
133413446.090754
167100393.246412
86578582.150106
107547489.161377
6469395.228595
122572951.611915
111753975.139296
60145831.760186
115675442.250506
109458682.613492
108165830.588539
87484698.842254
156567038.500441
105180465.781779
81872305.376536
110377600.688399
64594872.962336
104362349.176080
106997900.731517
111299851.728443
-4606740.856307
104101385.818751
151228430.751990
93840465.297133
201035425.125871
180292957.180606
129798107.028569
132330500.714945
146152959.183616
110275227.934065
125492303.976162
70047477.935695
174950121.580551
92150956.460846
106632815.990952
187589888.249410
109586143.371743
233910669.984476
134774647.359948
29819578.655188
150303513.180996
125650588.876288
166058471.821493
103556211.924752
68839905.531054
115345671.203893
95241443.003333
69153381.711897
135602908.796931
34832735.532013
88731730.958361
108079338.443146
132582385.516861
99963550.998282
108233362.755345
148529723.900114
118491195.128444
103737968.991095
150828398.361758
98584106.519573
34331355.870841
100061274.239457
100658881.968691
102131648.994769
113774762.663474
138713466.596617
125071331.756962
175078744.886311
83549133.123895
131388008.814754
103963364.674108
104969862.301258
111704836.617353
59691843.502391
118190214.399119
110108279.640624
37835096.265019
106401818.540405
130556780.651760
133268632.333986
133011474.970993
101879639.262876
108469109.141514
148813110.558248
151282536.161864
140177478.715320
68757947.466421
60201555.121381
105326430.002975
110451393.785554
137959833.434635
115908749.337406
143700828.823800
231658190.397138
132576436.553081
102053122.433110
134890694.581959
88788445.418227
112228550.625949
5964011.898289
22070343.682675
78534999.788243
201223052.689775
96304348.111727
125577843.015332
35165349.999150
55402501.845697
107803801.027834
63198238.020330
56822071.059555
87083158.829289
145971181.000485
74758167.138298
149802514.881828
106415289.226223
105714472.677976
42451565.172675
3910934.331423
36156437.397772
105335885.823446
117368256.384849
109236937.837712
122589593.264419
123562706.521093
116904297.941655
84800083.606156
125756451.552206
157469259.883244
122566724.584388
153877776.989083
47657897.051308
59501558.735214
101038933.952542
51389293.034496
108021093.201785
129534562.267671
176815856.593454
109206716.142559
113964561.220462
130960865.670771
117890496.901528
117612812.686176
63738600.252066
126068840.263350
107739983.310634
137910869.062770
17126144.479122
16018161.871671
108954291.976133
98512116.948198
156224971.589744
110341625.278590
11119220.864980
71204646.932900
226045413.397554
106164388.433142
149591256.804285
171209996.679549
69581721.825998
5820619.939747
109452227.097162
81147240.767528
187348617.075464
58233800.975090
103179731.553175
112681182.399371
138768787.478073
147092835.369325
103813118.936518
129537272.100810
120812644.969281
108522860.378486
124469279.591126
122527609.402523
101565395.180725
138238772.895634
120793133.422184
129739744.580297
160901946.856994
183538814.685768
159822562.175012
255697267.905054
114615293.230574
127675354.568238
103262642.587230
117729925.758136
16781473.109300
113312895.086704
111219311.056592
86013917.960374
41770827.318094
104760831.593046
240982644.393017
41454206.939678
112185286.136389
62482877.119582
110478866.201686
30627741.409873
107213848.351329
106791357.909580
17615428.766515
77057992.632227
108288435.153568
139666011.775643
121596737.950505
104879564.995151
167384700.457050
128798572.315734
10487208.734608
202406056.675662
73313937.455384
-2176033.101691
47092924.177944
125584723.333532
55262626.864015
119064213.686703
103470390.885716
115117843.678721
27071589.401672
101427062.574586
89933811.819477
124361298.320048
130034597.503522
96098415.634608
106168960.193880
115631687.340316
238051864.382254
239368734.265515
109287076.967847
68919805.068999
121919714.123956
104598673.738626
133543988.364094
124295969.463000
24802319.207841
102335002.219932
140043552.835037
121946347.485967
133398724.290921
167719791.877374
86122480.507377
123676684.477561
38105069.726075
167707330.311230
123097657.481796
164770637.031564
90661746.423784
121476145.489653
137178161.915357
24453412.027313
117200451.271153
26508893.316502
100820042.431638
94290068.993915
65401458.824114
44211231.238797
84005398.754447
4923474.967488
86349499.967096
13398136.878611
97979040.566398
193256551.879802
191189357.914367
140582459.320381
169088831.953049
6946905.378125
155631579.590334
102969181.843260
108647045.243826
111618018.351885
14060399.553553
104279273.814100
107875536.599999
176275214.549136
171691149.849052
181741033.360968
109367125.883114
86028089.001660
135679778.857041
103798079.904558
119932202.261088
105344847.003259
94860388.692007
83342154.780671
15556386.200555
177917949.234833
205856250.397021
115076773.862626
111648965.020820
119948986.827081
78118957.873599
67397446.750516
98062307.076730
83257875.613203
44033694.795122
188189575.557623
11353833.624717
109783620.125337
233884248.781580
70681702.009112
94581327.601679
82403023.873989
165058597.616752
128110402.636675
109094146.283880
176654368.652223
158647673.546423
117031766.369512
58588770.274979
148010482.291004
131048302.800964
40038257.183138
159336612.384919
35247228.456352
171537876.144634
117247229.091411
98910595.102778
50552298.785197
166286204.011979
46982944.169110
26419294.707050
102055293.730362
118014906.375029
50178131.517991
121100466.447368
42670529.371803
108273014.808483
77536278.529971
109157400.988229
123894548.663038
134936044.080134
53242178.943505
136261880.868483
136499307.288624
117924924.061397
108271296.563829
105286176.479095
149309400.687420
48282671.052455
127509417.137262
151769620.471171
159906714.739263
108000531.206939
107905933.890777
104188647.218466
125537629.306317
116006684.722382
113165703.119068
190126545.163226
101754796.701798
141588693.416723
51325662.663772
109325884.747319
48501621.310702
11552954.620962
125907913.582718
104086626.803153
149742376.435348
97436439.656499
20621054.799316
65480441.439788
19808502.901003
110094943.603772
114064185.389400
141527914.441460
67626108.319021
49410259.793540
100094315.233446
107348948.353605
128550304.583218
153310575.553740
150292292.110494
133438391.815516
26587788.666864
68801625.650062
130689200.023237
127261656.904693
39955344.584204
220968254.234225
166977579.812833
120028288.063694
126399331.085332
106962816.220910
130498901.554648
117097709.211338
93629317.419697
134543213.874870
106164516.199953
167446878.088693
115534833.308518
104163899.553072
136070563.944467
93812435.759860
147573001.752894
119648318.860579
173419207.306086
98970149.170206
121017786.836556
64347857.157319
110753097.834589
93519635.981529
213819393.230827
3793024.712879
47052948.635126
2659965.239986
114306457.674733
118311697.023048
107298858.102948
101498773.271649
117878361.554905
134694179.791357
117138466.488274
107614715.611242
100084582.587336
48296883.492169
80121565.357556
131675344.801271
36788983.383092
149095615.689049
208496375.023454
117670614.118129
75596931.008364
2424953.486593
149685807.476756
126992632.100683
207298829.677517
86608427.111693
101947747.069644
101603052.868434
88964295.022970
108283792.421038
143603840.408151
114703465.166472
179112621.580687
114875595.112365
4979443.355278
6468199.919142
181389713.392688
189691897.749880
114424574.974474
121668486.213757
66336924.066903
161064277.977497
100483113.779751
112245652.143953
126656240.614530
120321311.640954
124180878.607971
7113889.340997
136503444.769344
70465532.791728
112489359.617217
105952373.510886
98494423.827107
35341881.652687
41606380.006470
115789645.110091
161897474.741180
126972697.670630
126304411.913945
145273461.053180
102759537.389674
197869775.860837
94765947.408841
82765924.126247
104974436.081262
124174190.200557
76169021.695282
106883575.397969
116168311.782507
138466908.256343
115616184.018278
106684528.921948
156823190.517199
193906292.891006
107884253.386843
124915225.082788
128921690.160205
158575685.367794
152834276.951137
54508284.117712
108077860.703185
53272152.872845
103838015.889751
77305941.803872
44552455.033167
128215237.738429
171572184.414445
106806603.223306
103500975.173254
136285373.397976
104821181.084236
135242798.980689
46884656.607047
60830056.471419
47631880.672101
81359920.458549
112074729.377446
15762113.807212
8261594.343307
101964440.074694
138916675.591777
-1118829.182982
109839183.379354
6363716.960098
140902466.267496
141622956.493087
196730832.195045
80553239.743366
173733776.063276
127145160.946447
111300586.854411
89121881.612679
21640886.259100
106336271.832787
121908236.623049
102208701.543944
45133012.901807
137110269.940205
116029059.450418
106414673.569403
199858173.801979
106487964.413610
47496454.959580
83394988.693272
75961302.797474
106722741.878815
150408265.968773
148869118.079097
111161651.468544
183088009.769857
85149849.633993
41403949.659711
167809605.575084
198340548.164379
-3015635.277156
141886824.508563
154984339.992439
30403583.428138
44484857.708203
128440131.675671
64251105.550194
126406798.602599
79919767.017806
160745628.384364
-871285.337854
21789548.782227
48018978.932771
144902363.213168
140414944.153234
107746025.809134
190822937.084125
140041997.420107
123930588.524245
119823585.245249
15184117.038462
151332286.680341
13161218.920312
69154778.571205
121609940.061726
132686376.558160
197677748.149610
111911869.534533
106991621.920161
124729949.853345
99099062.174248
35310965.097897
105307780.838429
87886569.606069
69535515.630794
72815497.784299
12119290.762163
134257849.604089
64702402.185002
203365449.643392
117517965.841970
50467807.735428
19166041.164478
177729169.305058
113243707.505294
1276491.955350
220208567.834020
27059569.881752
155498765.136368
107761740.406649
114372592.488104
56517354.171176
104834831.709667
100095799.078865
195740536.963531
145371964.035939
46791201.008001
66994478.510209
46478645.777698
26433038.994165
2447388.539161
139504113.750920
100712541.826733
102621608.468822
104739220.690365
102010201.580727
84541000.182140
102231774.743141
22070289.954068
-4073486.023128
103256083.688521
127597287.837604
47006960.214121
227032042.765765
148854078.017171
98588750.154046
25766563.021646
125840656.525600
153854427.712595
102999721.523002
115348316.647654
176710783.809046
205735131.214762
103739188.500297
188547108.992692
131102167.302262
32677980.024290
148188383.234727
137256441.485387
109567534.971479
-2888968.479080
105300724.485270
139565625.051215
121770184.024045
40102409.704166
105629886.684712
157265764.702628
225407030.338310
131015501.487032
6612934.634114
79154481.375886
96358210.081358
115763206.055061
115768176.496312
119082668.216210
105658670.880248
58591150.967546
122942626.915305
124349012.939826
113791731.089523
151317847.851569
150747006.543640
51317499.601187
162232441.282873
39938456.006893
102809619.376859
138876013.261859
14726574.259570
34890530.828212
62360061.694602
149434488.987902
99843609.391932
44105305.640394
141684169.879134
120707529.718513
19084115.359362
237858483.937912
36216537.579139
42068958.593735
198576201.335049
13224919.305297
117522694.291605
22534243.484046
118962079.965074
15791148.355385
44300915.058850
76025846.680370
71374655.761450
86350086.658730
53889253.180045
58917694.848035
87334733.553949
77958212.508557
93770753.751613
41655046.826231
10676447.786079
104197573.837340
137634588.602931
104630923.554572
17009152.387510
156875043.695437
161393580.668835
129211697.168568
61557545.282713
151131754.053500
129100107.218171
142378752.155681
20648050.996320
51835500.729740
94720650.647571
119594134.629930
104269450.819384
14669024.469195
28794575.334081
129859441.505471
65939283.730728
118087350.637003
46633388.108904
102717874.073860
157761334.160299
83396338.397015
75963610.569066
184842203.288663
175981994.182374
44140886.864576
127859269.247661
126353530.746954
102472073.668726
203030004.990899
155401365.311652
7293218.196073
116637678.194443
114649632.848215
81308548.650546
131756239.725718
177005973.929946
147643924.099092
17482839.124654
18552673.909101
118952379.223108
141298995.571892
207146786.830394
225844738.503380
21104291.127845
134969896.468868
105802045.974536
114537512.301830
104886450.516715
122743510.549346
209422033.534071
42425683.249849
122204367.104893
102385614.670936
136553459.092237
7198918.576351
73680056.666705
209411879.782664
117858549.537522
109202645.915000
92444421.006436
146279664.781956
36584814.664450
95164416.328455
9576585.691145
111295500.300735
80690926.584405
155107198.484882
174743975.250745
191949365.622064
171206890.197739
99904645.937269
67807724.601887
120613798.531144
14617453.070344
4925885.177306
190605763.041940
169259912.860681
97126195.614481
37182382.587407
156137341.524952
156295742.739374
145756931.618694
61652660.380006
169945824.958282
31117576.448410
192622341.345083
5867376.128456
118202326.063397
143514421.813272
176120604.949684
135741925.115134
174553353.290447
173699870.154165
180382016.923475
112987224.534882
116680537.144962
80128736.079291
23814070.954453
7625549.168508
24789038.444850
73657321.083910
139607354.631414
137680845.771312
36271075.438506
18076008.200916
178772461.297459
31343950.486823
158991213.158889
198995659.054804
182765123.124368
24457149.830317
116937394.654463
80410369.387139
164969677.753693
16220104.797353
161950577.463304
95184105.447853
178437823.047009
124792660.247873
22122858.053128
22180500.574841
155883133.163162
128288231.621060
169770685.376879
37500427.449601
109791945.219321
161503880.190496
116559637.981893
144897585.665505
11069961.190065
90851565.066219
-3592885.331558
152650719.702739
110582770.906745
-3249761.931985
16600739.264909
179880412.659378
28616384.731264
195254538.643624
61818308.879503
103985478.566098
266423984.219067
184699913.770188
143373268.726320
178236749.026701
6704738.376712
117303701.247442
104806360.293358
138132854.299450
184957629.483684
111230939.192194
157978534.411249
132837803.045621
105890093.931268
83279638.010218
5498404.495878
126098447.363515
19891109.934841
5036681.845242
223052470.266491
114854126.663728
106366571.173983
101080017.817195
236626219.544626
98071539.508759
164799670.623053
137011564.949618
117370846.369839
202805049.217290
87655822.376189
43369915.704901
50122315.934377
30511370.861099
103637901.363259
97041116.559345
95465342.758874
156658553.763142
55370182.617723
161716012.585744
180228398.681698
162326088.697740
22465113.204921
157074228.920120
137791551.433852
166242117.865476
134773706.850361
153627582.885536
102963521.443580
16367822.577144
116709960.502749
106502150.443633
170241260.862801
23052114.310320
128696800.227604
103757164.870567
184023233.070085
274310548.554451
205222812.102353
124435365.700921
137131510.802298
5884086.423674
135526331.327907
159012662.889721
152730873.534016
63779212.787965
183862051.042676
3625713.559121
143697445.533790
122641512.044456
12894450.456868
74596762.332533
162434132.027125
114325310.778077
120585235.750272
134267864.883696
63029977.381244
66629852.269631
118262769.138027
137613701.750552
124286878.140727
117922884.368120
148213264.155927
135607315.196923
141452230.512644
48109189.626990
87021385.646387
134117030.031560
98853710.236104
24835694.866191
62954625.726335
96691166.425430
89581593.708250
142402010.553721
256364890.907678
114157995.628656
34144635.520509
116029734.739833
132849192.928635
41463274.856724
123232479.034727
128270169.285161
95076320.605316
155574340.187509
107749586.655316
131028915.255058
104551999.181888
103539598.532018
105741031.776993
100838694.519190
5517880.328577
94163463.631866
107101304.991616
72790680.211519
20763888.586328
109972164.015740
110072674.099721
78981503.036370
117842418.019470
227106373.481677
124310800.469303
133016901.654615
40336839.448631
114844191.336842
58424926.522964
106521693.740321
221760870.108355
30939731.823810
178519747.352776
108098070.677196
27765737.053144
115165227.356293
40168135.080560
54426383.285977
204433406.763578
63320770.343590
115912348.193328
101169314.112694
141784568.460291
14917871.881970
1484941.167975
136836827.235121
105661894.668445
102631431.963637
78289531.129128
116529862.427306
124383009.299218
118783266.990109
138388329.996828
55386627.808235
101008045.927291
165920725.962503
21887348.480891
91987228.297436
98163630.720008
114409458.633007
76987433.205894
157553992.743368
99441039.821339
90253586.223932
101140263.774038
161185890.668665
157758478.036510
100212905.463500
47527023.940136
21943827.751197
65216868.267182
2120847.401750
117640830.492391
68318489.819980
2239712.692358
43309709.153017
186198842.088327
-3785865.865047
142624182.733089
69047997.041840
154563578.312847
83595304.058864
11620785.600271
119501643.614057
159823342.797144
91427158.075506
22366045.532351
384984.594900
1920230.556912
6760368.316279
72070161.114727
169036229.415643
157065123.894379
45540306.084205
109235405.889953
22269055.958106
83744258.688657
80224314.939683
161587709.072376
108248913.967823
104777686.642115
107152333.155309
239098271.232496
194255676.423324
11535077.818015
44502587.065644
233704838.185880
159053940.402721
124337195.232286
23976509.411661
166315010.985780
126855989.396872
97126165.928081
68777805.350635
10854457.703950
110742374.448469
114362357.983411
124787203.367986
161376898.337748
178910716.535944
85275277.735298
126668371.702487
89362833.793718
148476538.842735
150845537.427198
92463943.172744
128175284.471888
139337504.525007
107449445.437232
5834337.181790
137328991.269556
182200192.710898
39701949.511070
157834052.844745
77339322.473672
90794994.013158
136184218.899356
50710515.838334
140045968.925177
40210254.627621
122826322.180864
134968449.803255
120149925.163722
-1572676.414684
99384363.224651
126745932.751448
160159892.741815
102630324.552558
81000629.675282
111566241.740642
114673265.388722
20745133.303129
98522202.733807
126734379.185982
90805594.355608
109843415.984939
156340706.758597
105852678.906623
80637309.216436
174080823.247951
157652274.085520
147648493.303930
180725130.485746
91841653.428211
114647326.813031
30215220.504089
124894056.796016
131994504.196323
118241965.059656
51144576.671210
16939383.920482
115903036.559572
230958702.558616
-909546.418407
118405394.467139
98582684.764743
63965790.343373
107305284.021289
105926427.666477
122247851.882817
114595996.598631
111521910.322750
141388279.522259
115930223.317624
10750683.619207
198504492.587103
-3645126.632525
56677423.812944
47611359.401557
120201947.961330
88746773.467305
104157215.015117
100122141.198103
268119690.393475
63012281.497203
115491004.252543
19339499.389622
162399711.452138
126704966.287789
81811339.404358
179809914.686163
116712668.909608
253575020.709505
174480507.624501
108945507.490330
28435708.857558
70639822.519234
107781456.898851
122276710.398107
69660465.642559
232362513.210079
127547031.407483
78997835.027550
82064975.183727
115577517.640157
248427859.735309
14284822.597722
122775624.392404
70605324.503333
142725935.871409
212982498.422363
190291456.683873
128162722.949593
125614322.787998
113557615.934381
95250988.998990
89376028.651258
13653700.766696
118113122.140425
95989660.868903
95481502.226122
124387393.561050
62063321.954485
84372026.975794
172484845.050107
67630124.130560
123052321.040049
117252974.225994
126113898.810009
149692771.701875
-1360601.152708
135732603.818197
23492942.970595
142737257.875029
101508545.948136
92416508.430721
99770612.830494
165484708.369732
126217908.657165
19059824.468314
154365874.335527
74878200.935632
24749103.146708
131652801.405834
107489287.436877
59498938.226915
138982061.194108
145093037.343894
142165560.331658
113494177.796497
165040498.302587
30435755.038801
240791818.052011
115225773.581319
153877565.367438
218145705.667416
153593466.610471
154433349.582437
27368988.298703
57978222.662083
4244922.202567
162479971.192954
97320715.596915
30919918.511396
157798619.282651
35054044.801516
110573558.648383
25541532.430033
140230972.042334
32476613.528163
88196574.306509
15566230.322454
109110795.169193
80291721.448111
145026962.201945
101144053.680508
225908923.623126
73727883.680479
129345321.415884
25562296.927635
156670129.484443
736560.127589
112540539.233258
221383060.610199
105933486.093415
20435659.198151
130656395.070607
114409515.504663
66330445.803365
71101023.850590
126756016.830590
51364063.186632
128060916.709090
82275875.522265
131652062.304162
157527349.944677
27545137.876291
100403015.615299
148425218.791551
100246505.783863
13283027.528711
144595591.173114
188919854.453606
157087281.341927
17494963.035545
143421254.563636
187224554.192481
96242185.154570
-2413778.942444
86601502.319383
117899628.245985
11262032.518182
231860620.633387
91851656.767001
136565834.508821
127101938.125873
95914767.696609
20321558.610001
198513724.944750
64500577.655410
166290851.942467
78123940.508150
102130430.741041
110354932.444824
77624750.666782
116688866.765147
104081747.767549
1811899.634835
146995718.077901
107043848.137849
118646810.446896
105877.882324
124020875.895931
68332532.540578
13095869.900061
125339565.969629
26442297.331561
12324500.818662
137588586.359090
155239402.362659
-1613827.711256
16824132.483358
121313742.458938
129414991.832476
56003375.746098
19484552.522322
95949707.764628
8057624.661378
90195479.610074
169849667.755928
110878923.217811
10944280.123201
136480102.236336
108898369.480260
101199295.451081
60899941.414316
101447027.709921
190400940.514734
120419447.746671
131254697.911689
177596957.259573
93712192.508309
34403391.453457
79087799.346163
100983711.726273
141705727.624975
-2077170.484106
89062628.502551
95145654.017115
161724110.274759
111895020.760995
114194739.747565
135520275.463367
61780545.200620
111394856.240511
86974294.430183
64946335.096239
166170349.565515
111756293.627101
132833444.786848
55249108.510542
101193589.484990
-2847426.940442
129799590.309166
113049119.141286
159640448.818621
157310152.833661
8220623.841159
113844704.874021
173990401.045813
105094919.281228
145993419.764372
110970982.255026
39779793.430540
233019951.264550
201458321.018312
135183905.220601
127357842.926056
181866872.543042
113048442.987857
104195280.742391
46151794.181708
73699850.843346
156194048.711574
113599321.831818
17823090.304391
27859462.292163
21603270.096873
9713220.623716
139468925.188499
115949113.643874
51758158.626431
120241515.817470
148282424.855814
143415724.845020
3850053.094776
49576710.441735
242988289.800000
129453979.529654
18585919.883332
263077302.258370
117672696.063690
44305528.746050
86083953.302980
187281371.688316
80054496.646629
34318345.157988
113116070.708891
29485844.952507
46388225.667329
131562721.815672
34220068.360554
112535917.002502
8459914.903477
146675218.691020
143744052.894438
137219187.543906
9673776.764587
153974050.735684
116882433.031994
207796500.848055
118769720.498822
70883518.829546
93650208.085735
14656398.519332
7490120.552392
150814926.912405
169128403.317546
208813031.536182
164907466.435984
120837628.446775
1536073.352721
80534341.417069
148998149.710288
124842328.865972
163855252.867085
99494988.290268
10821832.712685
4605714.289062
247147674.666711
102576098.813685
90815782.094278
132833633.839352
103504471.982729
109863173.542898
81531484.892824
174481919.593570
75973763.063584
194037104.014769
22944148.163771
121678794.555979
86978773.461122
7447458.530567
129288183.939412
241927976.950092
38940418.222327
12246289.871102
75774542.471951
114652665.416830
55010282.071613
10939141.833410
109834139.610413
137840935.139550
51160410.006667
81336093.727731
104843107.221105
143907420.652140
92905466.891616
199078759.686099
88731230.157280
87002873.951068
119038431.836411
71347305.149353
88912335.318100
137051519.518998
106821627.658579
131039658.952289
110132309.662393
137817568.492069
108799129.691902
38602803.358765
92477416.763717
27705794.072032
104441282.284644
244875877.025223
99542237.697786
116846223.440270
142223359.046586
128467205.345865
197529331.636252
101768824.080642
102374909.077776
103159822.174899
109203329.139172
102606367.627249
101323778.603658
108869659.938624
26529677.472034
153729517.724445
118001337.907049
144782040.627116
117806168.693573
151748627.723205
136134327.657613
143531014.095568
102924182.473485
88105148.642946
155387495.612111
137030053.062763
112089857.725100
79054835.920955
138898558.032753
161434076.304241
61471925.149476
136379814.660935
141563146.623703
54588826.679223
165066122.138871
110783422.582617
188009019.919804
141290842.743549
159134942.620597
78456541.642881
-2975427.625866
5240101.931813
247651605.888282
136752477.581858
9321760.869117
50427489.519603
106541455.883947
158767245.268340
104355106.982692
129237155.476331
83064781.102737
175682381.250604
197066193.279917
146107511.162818
48843719.386845
72693360.024141
147954590.555171
3936588.039390
98408912.882898
194840860.275338
109312027.784409
132305674.407101
158947132.161973
150164775.187726
36026078.399648
145916266.258206
158768327.679300
153568426.634429
118189360.789809
45314120.632318
214516721.118200
4387406.430870
113494151.049914
114430459.662987
83917219.083417
53389021.829285
104189957.550687
109265696.464923
11287241.934737
67955686.520432
-2703449.841018
29934908.189778
271163044.346234
176403373.180051
55737735.177774
40376731.247611
69629789.857482
163445798.273727
160605907.474257
143855078.153686
130119197.264504
91057626.143032
192434867.908609
59167197.411044
148727050.333146
156966825.800570
160621706.551193
119198714.261671
57764914.729169
74972823.669788
176438369.690193
139808750.214535
129051374.501584
18114438.421634
91467606.949430
152176637.902049
143786824.791964
102705685.532557
74900564.046983
102766357.635467
102242469.068365
103843811.807168
157214089.555510
11967225.561839
151077605.555648
54652841.137845
162009553.320839
11012941.185142
53333295.248420
168846745.166076
129773044.507554
23270661.996593
110475514.646475
141745215.479149
91992918.056193
114863347.272945
43585345.770325
130454593.810625
63777071.778072
100535181.720086
14480580.833010
150374084.108144
179340064.174627
124693797.629486
179650284.034595
139806507.923999
215432710.903699
98228740.446402
17853269.737327
179429754.714529
114370123.159270
147423707.775454
35897217.885321
100801481.028699
152609136.435009
17989887.370044
133353857.882847
85572082.233279
113986871.429049
123171781.799910
68573818.320331
117318203.122630
66026924.435548
161191536.043828
135397540.189072
91139703.885887
44796603.286270
70319730.183201
35958478.855662
90695855.870559
162401785.477929
72146455.205742
110643034.871220
64102757.330311
104241676.483883
169183451.762514
183096046.392701
141268721.152433
7608726.331831
186990008.092902
88023468.175103
149403026.623638
152508565.474597
60261464.673371
69387960.348718
152905896.173846
73809700.472465
56266625.075838
1157756.540323
165110187.369055
53816663.216028
173876852.570164
100593896.102221
47626135.134528
105637413.675084
134889011.548470
29275339.792485
114757130.871786
59839928.936627
60123218.779903
48889717.642387
-1560083.484975
76862966.275861
97197797.589241
37527297.414410
1873937.806584
58945465.618970
132394476.825726
124892415.284543
9831838.262218
82161226.037990
211506445.237165
9678758.992157
160078034.010601
113571903.495208
108972596.130892
226397900.233861
151170498.185686
66236716.978868
24552197.437724
165821963.255647
136962854.426046
141271422.825920
137230221.175349
16335661.350507
80312064.722198
-3228381.921321
33968114.407323
131255275.367630
140451065.212794
115912696.339492
135057923.443529
168305470.945583
100746646.350300
115205634.809174
51307956.729996
128558674.383437
119340615.251243
216966490.841822
-33364.039443
-3475362.226894
32287529.620791
122684826.961556
104616478.737026
20044898.837382
-4311198.054653
60658962.073135
30052537.779279
232289903.156520
130330667.523849
35852013.710724
134881604.972164
80769539.292653
75846064.240998
227143293.529431
101712552.045935
157651980.953569
131587519.219186
110907846.347864
106178671.887094
140433214.923700
153438762.147468
104880419.776065
162971035.179470
10223664.951871
125090136.220653
137130090.837540
53370161.509919
58620859.256691
28594958.254600
209672785.199028
-3433829.681570
118829241.417412
37348484.708165
191432885.363612
22130633.062352
78994535.062982
9712395.809615
24221219.905786
55331522.942630
105404557.221850
83836562.233730
134172926.685648
214187468.762986
105864379.836248
163188298.652657
190132231.277363
153449710.876990
88865005.203103
101206725.887472
89341871.768959
24344924.606527
23087951.733137
101911512.831120
100191660.852693
91770303.333711
163863063.740496
119437820.418001
8891830.155257
88602262.949220
77858878.953452
8474330.255852
82214223.055963
39950214.804076
93822110.089250
104931339.438271
86694130.153469
131285052.904458
23549952.385314
-722931.348684
47699725.378623
110093016.623990
104921956.995939
122131013.504418
112691004.107285
56295758.046941
123335125.514058
113864695.194973
130287147.815887
152275359.817509
254899112.246175
118778182.154248
105502984.187629
101082111.736971
92140481.708382
102069202.585140
93895086.913641
171010928.564370
70658672.985858
113122083.042281
214107687.223463
7226461.111436
116980172.989920
97691745.972437
115872353.268764
117899458.224715
16187735.928113
162710290.437726
122590855.513803
17888053.270550
61681407.832934
123614129.184939
119945160.579967
116774205.911364
134111071.374236
3865322.982919
19551877.959611
69735543.550099
98206283.744497
166552526.569260
115954345.610298
89581007.368289
110505914.605741
219147896.173511
134826445.736055
166537530.729695
114223939.165209
108201308.088063
60114127.363362
76846600.871383
148919810.602909
125766370.367701
194912657.341762
251806072.434353
117391150.780470
149026300.603802
64962890.478102
81108348.523753
198468923.310660
117161528.551065
138636695.155827
161676611.905685
213950555.672304
89351391.603445
131715767.059007
105448862.611777
29139951.479700
109592997.334034
104983245.968578
107609282.956434
170938212.205359
219518971.717532
125398961.930652
98410103.854019
39637998.065531
30524490.342988
161846111.773392
39663838.827929
47902946.575972
54813172.615976
3333004.226639
76533828.773625
131179187.153154
175927644.855115
-4295093.860365
96637116.294453
151889164.254402
150085954.876104
122533052.900537
170929891.419577
143071803.359587
182767763.701174
204752911.343005
28784524.595656
113538139.632676
99304040.137481
11459017.035400
104191566.938325
35832512.111910
65346214.758069
201710465.987504
-3435395.699812
164693264.263435
113804582.630929
136532994.972851
22880179.407653
118384466.251931
18454932.224232
62702392.161459
115678644.701153
146213434.735709
197691013.504950
90263405.317715
105365187.586322
43518606.562324
97863412.294641
87188585.552474
103336763.965481
95061370.892162
166178322.877160
239351554.607306
158615182.523170
52354296.331570
116359861.446366
157637751.431041
96726247.535517
3413566.975336
153902626.986563
218335009.068797
203619335.749427
90995302.984192
155492657.216130
52971063.140698
180312117.911472
102625617.351600
17062269.618280
127530476.224087
127778094.828406
105593862.715156
101518780.489072
140903128.380115
102862818.771939
-765993.732116
175364163.315526
133339901.373849
12643616.064599
136878186.537213
19782904.766488
67421979.957598
114190711.660769
32288262.785002
80016595.563926
115845868.772480
124956885.271457
130456795.808098
128396920.231052
131603401.311728
123506489.026926
75447833.460731
196074785.702807
60704713.777964
136218562.525838
131543762.416484
24724641.277977
83501040.694481
130226798.906008
12323852.528489
34348617.714295
219408521.317928
222977902.518506
117067753.865940
24397051.667801
121369052.576330
98301565.382076
144931874.769314
125827975.219433
133261483.857017
241266017.719910
40459621.256899
139648961.587916
24873146.101641
118780630.145271
222024831.438683
152781318.522748
129010724.882761
105504753.276920
166927650.685969
125342809.399968
15653073.282468
183641000.361475
150910340.327489
41637074.560727
126097877.845075
230800353.430311
123702072.526636
145370752.213634
135773099.888248
10516337.077407
117057748.632210
102680678.476496
98033682.219585
116959138.460103
161679143.264974
153177099.749816
144174720.013785
84983187.649466
171486559.114929
137723207.018287
163778959.407339
116927833.453264
110326.493417
87390140.832821
128810937.547321
78755983.237226
155574299.657507
150186798.478717
28878626.201382
128934381.232965
87107198.620789
175395647.296834
29913123.328538
129135016.147550
124787547.637783
59464868.678994
111482241.745372
61204486.357811
173894256.512574
108046871.753824
113014311.628309
2320646.790027
106361879.065356
94324402.352192
232484982.166983
111742499.165389
26800627.195941
134267844.872246
151929663.823616
212017929.914319
54088659.003795
135553033.225583
136446930.511086
171036109.331982
122076017.591290
27003791.560077
81731468.470876
134013158.586181
168510836.889636
186125081.371133
147834741.436199
87226615.333585
134802354.370296
43862484.313782
26638160.578226
150460320.511065
195673476.880473
198544979.996026
180149413.654654
91355557.604789
164567849.044351
130843799.580176
131778160.893520
4808457.375795
38698616.660151
159562903.440906
176712663.437118
68201200.454942
129679238.973763
126953951.579665
153743949.524332
129695592.951181
8014837.384552
209321616.271703
164423215.716323
169465407.227425
152453492.986082
137077344.771950
171573515.211143
90860883.319184
150607270.018047
128903703.080826
152014009.527698
134956802.883244
118349856.661283
127549162.225169
125800899.465199
128503132.782756
83098133.406299
155169416.962567
101574502.668149
84753712.495552
10719086.488285
123833555.020469
175936730.868162
94448653.069954
85910933.205766
6489987.375256
130223777.447318
110988022.492302
132455148.177176
31449593.783881
42710978.290994
136078835.571669
36614314.997698
30652611.604166
21632237.518090
71024067.197911
142112600.916460
168050145.053693
-3505091.640720
-3720042.776913
110196030.820575
140664017.244668
385320.832326
123075936.323256
162082928.618109
159306035.818571
6342127.188342
68270070.887264
164785286.173832
113062354.965267
147196465.969326
186530631.887010
158874020.681383
154289497.286442
116135898.920981
205754107.384374
148680692.426432
119267550.534618
110248086.218086
216336867.501759
161054700.559679
163404843.167196
126901917.816635
159803777.321106
30774861.727821
117361195.322506
157693088.773914
98802919.589492
120480158.212763
114399849.430173
241073093.635182
12630644.992523
13057416.587878
44726073.809120
24209960.850928
124474424.523949
150299920.962639
136413830.707143
110404285.824526
110365433.208455
101043614.947045
1524390.876364
168353802.223075
160022272.848147
16108094.474094
143464723.439400
119141580.682976
139030212.070602
203959338.117740
115658370.801632
51023697.712627
13016513.757849
130798086.825882
82676629.825917
8198617.750342
135861716.999512
146569657.476267
24628388.246465
73563743.658034
111636348.413578
96324834.463712
160465721.352795
25960675.197452
47858832.770484
173919810.891895
23540605.816131
118438722.239149
129007173.332711
115168236.867813
88501133.151538
172762764.582042
118660503.870774
161447753.398228
159881941.561665
-352330.335634
173669862.419209
59361623.424031
148418799.151129
65145178.526953
101375521.576319
102878912.202312
100932960.548406
103417230.581412
102283744.762835
118482856.170499
176856975.064759
102833967.912580
117528158.241015
112703913.118686
172414091.276697
183116068.646877
218325237.242616
113475321.561841
16496470.858669
153567058.534902
112326235.885899
4110416.845427
24465078.360296
128619581.728178
3600772.726909
146909091.002072
99812965.011624
121483504.063904
123187451.913858
124894202.479624
126455452.283903
155183073.362359
22494587.403853
107197166.686964
180932061.203037
148505871.550041
58847472.641362
142851317.424139
98489125.532914
215211948.775308
216235109.930286
177218858.823746
103199925.601731
85269709.030002
100525379.444898
24305263.526197
12794591.988915
18814871.467667
164588421.101457
182283615.669301
20676945.736784
99054724.222757
173814387.352648
112342871.926591
86739514.003526
153424620.956623
106528894.330141
102391374.460596
122179628.038404
116765077.570634
153742754.375564
133493782.490269
3038512.015312
137090445.725938
26496144.451083
196651983.415220
226547217.403219
62443556.656456
71636799.648022
111053763.315792
9619902.226750
1764237.990328
95305240.195976
80039292.184823
143984436.923633
69398505.158756
67293458.223828
-1158194.869077
157720988.303918
20420705.464338
202844706.053808
153615650.231450
157244118.531702
136430821.676375
89589736.224535
97554040.462147
801323.843098
73857078.413289
112419704.980577
14833342.609654
173287020.836449
64164259.173749
118568805.836853
26098646.934979
207538094.632132
69487636.501366
103269190.644612
95632114.209955
17136283.120677
62350093.233023
98653235.252023
87764568.639056
3494888.249705
178607192.183802
14111231.970948
138898080.344514
14593062.430211
170483788.711161
7241899.623141
130944984.195162
146210158.430649
20614017.323631
112457177.797682
103088575.932186
204197810.504974
246192630.875523
178494572.228655
117633584.240231
264222737.921813
166121064.129023
138236725.010243
31380242.832394
99923654.819230
81266891.565920
89519685.585201
161687303.696278
35801192.158094
113633226.823586
115918453.529313
178504121.691998
178351664.526013
168064632.686899
89695991.419359
98986041.048151
152238758.593729
13256623.155916
165289104.397518
192964737.245772
68647976.891556
107925556.465020
113810701.527736
166970133.185647
100102376.573701
97079372.359039
138619487.835539
94972567.450757
103467797.664902
117490455.987015
115168597.365639
97632753.335584
151700983.612645
103684290.897276
96038779.593931
116481115.423084
199646343.794606
24685867.244579
123364887.679306
43881247.492242
101219722.275696
101284594.975170
100901858.068567
161391520.684192
177017995.616675
119939900.523099
94132973.511027
171736131.606431
137755158.998996
26553309.456032
113094478.618618
27440129.079243
113540829.895368
117429798.648423
87352531.074935
149090320.238069
119845997.316875
131835470.010192
162309464.039554
129801862.563815
19893576.322886
82378106.460941
102151976.283947
77555381.142035
186385212.871809
46283668.406460
15177653.863807
43263063.954484
193255931.353521
96064918.580924
208626809.320651
3257166.329998
21264487.674062
206990576.757144
182344665.392914
168771839.360334
111166443.358345
178437345.734304
67238698.618956
90850060.756962
91170775.291132
137049421.361018
55172162.835203
212746.301269
6482764.991998
131132019.809251
72614147.640357
173544898.108401
112686040.719887
178118154.078549
229059753.283996
144367607.234991
115585781.645159
107947776.881024
117393992.125144
123928850.846372
235959626.108043
115062674.869136
114195424.737347
173358967.379513
117038367.170874
248046388.914553
35521513.542894
67697630.626714
179183259.380159
219735175.470867
120655986.824268
117495076.907800
18502547.213483
102008543.194266
117811852.665084
42046636.150552
109028724.067533
195453982.546527
84086813.633821
150592535.571015
119459105.724209
100064560.363824
187531024.459570
119580867.315294
212923677.416204
11931932.968724
157048157.744088
150270706.511479
119782304.127429
174686189.133607
146867021.184406
114077293.065043
237926217.154812
132225272.412902
129297171.163750
43497290.300572
-1852137.016163
122648180.076229
32399642.749055
32824743.345426
151710166.467624
186818865.448007
159742830.515045
139162836.285854
116289813.804328
105853898.665398
127229508.426178
89191699.912608
194104486.469432
99076503.513994
116540404.801463
102514243.578631
240692402.956991
117232245.700492
88629161.759260
29097009.760988
96012733.068164
81850248.910089
98637847.125726
74897013.020562
141040865.945291
149820214.955597
5237829.088712
139764416.961802
46014271.893947
118798041.534533
22266211.374834
192763321.051657
167522878.482315
10654390.389941
109576310.291838
28383030.512848
19746425.795098
60972357.596121
88380545.558893
136862314.650647
173804074.345105
131745787.690452
25267112.451194
125701899.877328
176342515.684459
87596412.523289
142098347.361447
200643241.524650
48434408.503914
164285988.347109
64240297.011297
123493320.347887
77805078.062514
114408485.464622
168708810.640151
186606489.148378
82011303.658097
35134005.619975
82033549.936619
12356194.157109
70749486.653692
21777754.213684
133450328.879719
172640301.703822
170147597.411377
6440176.484644
41483549.157914
59610744.192642
183038379.361743
113910688.311069
129014903.245216
156980628.989592
117330977.020232
132053464.626347
76919902.025182
82661827.047129
145533468.774567
129767293.396873
128650697.798668
83216676.271033
60597098.280054
200265156.779160
43548720.000486
125326586.392262
48883878.267322
62418822.208844
165751182.967784
155636394.868034
99633053.884558
18856308.737234
187911562.514467
125173463.249130
154333539.303287
114779898.177591
165450522.127473
42930730.425578
237521032.210927
47643946.299233
142806173.950353
108157141.232662
131274010.629281
87191103.890088
51498135.916996
45896922.810329
48740032.939615
181932037.419455
131238521.370259
23356195.895466
92160954.528788
24742558.359858
124081772.855161
258920968.893645
162756106.232595
143568240.581704
93803118.113663
60403652.607343
77257342.835226
42863844.999994
163236693.987898
24873635.610456
191029387.703280
94528921.419324
27606371.197439
178082469.087227
26972159.504087
124677406.685009
58159048.983424
118993709.698910
153021522.441603
116183656.030019
93184180.711014
91617174.218542
74988742.719857
98432375.405620
155002204.022303
21727353.143858
115776073.315557
108163451.676119
12160248.211786
131028364.729308
137857810.970060
201612922.324126
119076701.504443
132931000.245362
151238249.253319
52813677.016857
27208070.188648
49273091.864125
44911162.577073
152768503.422931
135190947.984435
115938051.583835
131541977.986033
2097561.530967
155395065.119233
115129525.829549
147112148.607302
135983295.248870
83943629.397970
99808846.640621
124086518.759230
68572456.126155
34505876.912623
31484973.035385
115968118.598628
112147443.673182
188669760.746250
114473862.312483
26800262.282391
132714512.578879
182145257.679021
16301998.567531
172321300.693484
149400075.592257
111160794.688222
21300947.049395
138604164.815234
84842204.969062
15631677.249856
82865012.260795
22152783.576017
197044040.394590
45728857.637394
129144559.927738
212009560.785200
168210982.340323
167139927.286614
994631.191068
172098433.430813
68197629.507020
117781266.522361
50697884.613075
16850725.591888
38487994.852593
77901066.886462
93961081.377536
169898471.136714
149873295.828813
145775222.263976
6251043.513014
166916012.497000
214898639.938424
119184829.905932
63813191.543435
103010520.707095
141976794.619390
66468075.281779
177019890.196924
78827010.613095
151520370.052682
99057806.274424
26794609.420323
223696536.895326
103020667.583187
101254480.872146
123387327.712436
110400255.008204
150091215.682898
117518802.351001
197567480.180249
257546126.790017
111097478.953283
119642835.883962
135827777.411423
171125524.192458
8983339.508100
179278508.472012
8648543.097203
30776432.134004
28918115.821351
89948866.478574
8604037.815960
21263396.727715
159700538.275602
118584569.611903
171184703.977742
127374247.002401
152745384.901799
25096190.404960
10663374.315967
149720651.195579
118193304.202395
156496682.208344
20331496.250496
111795960.197895
50574628.575472
104737817.807497
36180413.554965
120215969.124513
152622146.528690
122401078.770141
212644145.017145
120113714.837952
116713808.713187
117874573.508911
99339994.596481
122648619.564815
132309140.645777
38783005.049801
130136307.850379
85752566.530843
157301503.433095
145616886.544903
167172317.096229
111683788.186843
120836169.120017
132023324.717341
120149453.179031
105780939.963411
167758820.001307
151810991.152114
100684331.042854
179524906.614670
111198441.398482
38989428.648745
131623978.545936
128062469.978833
168304942.397089
57350938.414379
15470458.804235
76098440.890438
152693789.360139
127391131.129702
77244650.522374
109913453.219025
203314139.952241
108708023.792967
112481855.243028
151274462.732103
57148837.447963
170041345.819495
58768540.663199
132207997.029509
68660240.443915
33726194.074847
128730063.552004
127944617.723701
159467338.963635
182264937.116397
128998577.859006
132786994.922592
98997789.771825
159935539.338607
117458899.056802
118687277.375823
137773564.558765
94276843.827808
190524793.832627
174142790.403779
150302856.313700
108119665.471543
118874393.732615
47659478.213734
14526052.011880
61509326.526583
107081547.991497
155781933.020575
45481527.178951
170184338.883666
139883625.908203
151993916.157970
116825759.015606
131161186.983943
229050954.006923
77953691.830405
88549208.876755
127244268.920827
114162740.465797
45429037.018633
125098359.524846
60499303.638712
151705397.942783
152747971.686767
21386986.742857
159145993.726941
118266249.716729
135868551.596551
84301055.143115
138214989.179095
211921056.322978
78997391.589116
137301697.508629
125927009.682911
94059208.383426
98365188.295856
9449861.308129
125220928.406178
109433502.788930
17580726.752142
61291610.733697
61872544.533565
140722280.402745
131391148.157483
139582205.651290
167996270.836961
86621366.125652
-731466.655595
102383679.769193
161015057.674972
130694670.097471
55326208.200324
110662408.860243
157378416.788103
110111882.745383
24344340.077978
185614078.927926
65070606.019388
121316840.311512
27195187.703458
94519581.417115
62544198.158151
104419276.194810
194457419.364555
26586925.307601
104035950.179208
172757265.414863
93498123.075227
38939431.808503
151139982.441813
191940390.880393
210721593.773583
191946644.327993
113489316.086171
120434933.694735
122739195.443028
135884574.081704
196566.913213
123027945.582519
123873513.784273
22458533.130287
60990850.246637
36877477.751069
119622924.054782
174237180.441440
158977125.798032
86282203.391402
651241.576978
117929850.572074
168582207.512988
165836694.953995
135697170.687824
55204169.583539
103150781.742387
138842503.587914
103864163.025239
56424933.798411
102734756.007640
116076294.854169
166300607.537249
176540135.896571
94426597.214755
137906593.894774
62870441.168495
126708172.481960
107001987.342434
124681803.242709
122241514.423079
113913204.082169
119305370.513623
186809790.774601
45768694.191328
169212668.841344
164818333.893801
112333682.570959
110208900.930494
178343861.982398
14158880.587794
118070747.089609
205883110.016910
118113571.945395
130229205.985734
183009042.699003
43923949.339385
40289748.604742
55153905.791036
157788941.241418
28643651.181480
139680005.833257
57210592.992557
118363540.887067
130489582.867441
28437222.029393
168786385.247352
52122893.507796
157970514.993958
18580786.159657
184600639.706843
168451008.822140
28698824.560538
30927896.739228
161206453.394216
100946309.601621
38268011.596682
249463197.415432
32455176.697316
26608622.877652
114990681.499395
4545789.042884
191184890.070395
115463859.750236
118530462.168983
119178542.820259
138674677.975810
128066906.220607
125505884.523126
101900147.174579
83757988.355592
4240567.245974
223472652.547317
174142374.828599
10507799.663638
118658736.829461
152422759.774399
-408755.465526
150375433.728301
78954457.121342
144155049.915883
192426554.133965
164888959.971857
203510836.044668
109071371.846375
120092045.209159
83459276.408465
12259631.665674
199423362.700040
139731731.183039
102382492.464050
148252453.117116
128227695.228174
154396267.739742
112629364.833777
160783523.292663
149492549.002745
139704846.773823
127358344.799222
151307185.828719
167024077.137176
72777790.036955
116614108.141962
115666953.946997
171244387.770022
93650874.211573
132938411.162604
67513698.925427
143912212.534488
114521770.962074
119010946.990580
122385328.284107
50793536.362978
131643504.760699
13688670.189678
120231536.038183
3410549.354367
12318843.312216
74348596.603580
79133692.124723
73753150.013661
207162622.067895
101419947.323887
120556999.666852
92988751.007620
157747203.099880
102583673.780899
122060037.823474
111377363.941405
168603992.541633
119696817.525902
166116205.043433
120450928.215824
106948286.796154
119530820.361694
26833690.153696
189072778.007993
170380059.154454
151875621.758407
126786953.359230
116497166.710347
57382970.523607
114124347.524916
127661991.736445
49691104.571183
174287577.187275
84762460.635240
121271108.138984
149826831.608838
155143351.762362
30521185.502576
121951618.815388
131599194.216767
104784409.765692
183246448.100624
100031613.259516
31985080.913119
150922205.177268
86162826.369028
1512200.621667
127697721.421149
99401189.547916
103382348.652898
58769407.632289
171420860.098995
132936005.530885
189338502.078420
101955532.902339
151995420.266333
102711205.390404
102214827.557652
103031730.013237
102874799.454701
102639582.078089
18274345.261404
123779833.876758
161235923.844730
119661675.270336
1339168.101084
20623255.419380
46905973.572481
114197852.814541
126851010.682600
2318172.776886
110924985.735463
76116081.978010
149344491.130255
105753818.289579
102407491.414199
80391680.693025
89374895.774360
57207344.307424
57983374.559964
134078997.170567
82034021.715904
92750647.883457
126464628.880358
156031874.175898
166057387.748716
98783400.852085
91556367.465515
12914546.389636
120674692.634458
161766315.466974
111508567.140904
107043291.911058
166539779.640088
152912445.899990
190767524.628657
140485813.648969
119823634.814271
151059104.033804
122295607.502968
187085264.256832
111788074.027449
138812923.296572
120953268.814074
163615439.738625
127676767.569885
108231478.594565
14751419.518911
155244079.582315
154031153.633416
145447435.010021
79936182.851241
140308607.341981
163843723.820847
125749478.890884
113665883.722286
84404198.088017
113232908.050554
183399883.127105
138076973.317152
160020655.697998
154426843.724829
35317754.077904
203753891.684493
116984960.614616
54689150.039109
143897685.723441
120775724.869224
49099294.472168
101327876.664139
163735450.305989
100263320.549692
95928425.363641
138848786.824732
183723284.155332
124921209.666328
111661788.010045
231205956.076565
118109717.165111
104624373.085032
110602569.977922
98142605.308614
96789771.709078
140977745.290082
92252975.742869
150351311.799776
119991964.067550
92226503.324471
138790873.527660
2849474.308603
77536198.124471
100320605.513895
144393064.892856
94243802.069880
98727635.937763
101075942.952145
95528992.735476
116944036.402053
121491002.795486
123897413.138533
166081403.424723
131796958.155037
140611269.209170
95075716.971211
38562849.963294
97158094.567592
73137347.547142
132186745.762551
153298446.568947
104563601.722317
103210370.327312
96361934.927685
15234458.857160
154453260.119605
79104508.331736
103477508.456795
10513292.622530
43395614.668038
143355304.850578
142216171.856269
154662257.295823
97185594.716928
168873841.454020
124725502.982079
228275624.969065
120547904.739649
104692051.575254
62720484.693340
100538189.025419
188074041.966426
38874771.119943
139407096.985840
150712396.107994
120650262.383710
97523337.947678
127166969.086943
120518133.861086
142380213.587974
71809359.866848
15579038.408847
113912836.453443
131613874.310049
103321113.524660
98746766.871620
162433833.858742
72427998.896483
92035686.667163
42303571.275945
126722506.988002
173689019.046659
158568388.803332
118913218.755641
141475814.860456
117760898.348646
101795944.247319
118279853.474180
69690013.781231
123303557.300552
-1110422.384974
154402846.260703
122815752.906581
141373303.637661
119233323.535799
112069348.033131
133473569.608072
57889946.380239
111826746.956738
80441573.336562
109581273.939278
122839084.089927
143881968.983411
175891208.968960
127880244.919348
165506474.405012
101742935.197681
168581140.772899
120855157.135062
1457038.352340
225224564.363007
174256284.642139
142579278.554302
139671634.125330
125715750.329248
65469354.435689
-229231.747783
100275126.905074
170934641.879274
-956919.150239
1835196.206348
133525168.463849
141290565.212821
96894777.536156
123897587.870077
110871369.015413
196677415.503597
125630758.758795
126564309.591479
100533969.319166
5197566.978170
143440438.348213
122447877.234981
152640902.980183
127059884.036240
154471150.037368
16783360.886550
81290808.644592
121561651.614277
122218905.618523
123635612.978862
85701012.258573
154114960.875523
163963497.551321
134154719.970454
109326261.719766
67171314.494441
87984844.384450
151163266.805082
96458549.878621
98441642.876994
68209876.264732
101558208.196072
52740706.321806
140695302.878413
120729205.329970
167979975.598892
121833999.078547
171236150.167032
110010916.001684
124774785.010166
126784569.737771
73081933.094289
96968091.388966
93807502.736067
99423862.336932
118520280.105821
141905381.159943
152749199.169120
168512810.184536
93426029.383033
2492374.524658
2126320.471077
141559645.394354
200859464.256684
80466929.745776
254262.564712
93299382.492767
51668728.330211
30688119.713413
121263559.415893
82450920.284498
123912032.826737
133730297.243687
109602596.455803
75003614.173094
111089812.902124
14812377.637279
74897864.227578
171429033.825138
98566980.502940
163518706.770907
119001731.406923
153344380.714624
122651319.486969
40876579.773679
144472019.664681
61817121.627687
88516838.096987
122396225.759339
122933594.408145
125208290.130975
124293450.345847
64503018.384710
159094116.063559
134252969.189986
133354944.040724
95510362.194479
122494624.962213
132215482.459243
127050809.839346
163888321.905955
116613253.544364
119076477.930192
126582228.512944
110933767.544443
146552817.769346
123396755.306444
117481436.352894
120739203.426507
118367330.747164
132887558.908735
134839743.472027
127619738.451671
120805477.507611
120708499.159425
125183529.312768
136053682.830100
136349741.408120
94176699.868090
56716892.485128
107741201.668654
142296619.903668
126304643.947064
17198227.341861
117456397.453125
124344031.022134
128401928.503521
72312285.842277
140506431.655805
123481199.153489
153634393.704311
121194901.814901
99545474.477801
124759114.813168
128668879.480169
129634293.932273
161342229.125524
42434040.722816
119052603.066164
80020346.739001
143344510.944194
111931014.221851
53485027.131266
151060972.076048
126463028.687960
58966423.086674
126794997.933952
137253403.016178
143154911.227974
125882946.459790
145415622.413044
123480210.135666
-252103.127179
125470636.316263
152414946.720394
48931559.152949
30855209.349853
107753511.675280
132318802.585503
152787728.356372
103716079.327804
142031031.997946
120575619.924093
54424374.405401
117741607.374613
125502589.014497
115913491.304260
132403686.818478
126204757.959681
118338564.652605
145017834.761824
123847348.055233
66052271.230407
118837667.775372
56631529.074644
55023589.510751
53913525.571359
90099958.724017
53562092.152132
69815072.998510
127664646.951218
829978.148480
67037635.523797
114306314.474932
125015939.447988
77441067.691446
107284926.676617
159476751.204349
121932958.772538
122444006.209673
143694034.349167
33234238.130693
2698167.075754
133351041.329525
121684523.165995
57263231.095333
94829854.106590
119660174.890072
119086179.416141
64361523.155318
125153471.168498
117457987.578763
116291229.433695
108035150.672655
120784732.541047
146219861.597116
114374415.834629
115867714.167705
95775005.835579
52124562.530613
121850909.327910
117438889.449492
63436299.808416
141525259.045132
112841027.299378
115890805.273961
134238828.505278
54393760.783618
125063049.147663
101242209.085555
122609619.252313
31179187.254104
61668728.212207
141568996.757572
123600553.856960
132721896.668322
52903493.184169
133549781.262306
100298967.583630
119250738.708352
145159423.399223
124226135.086570
102798733.219830
101744786.754735
102596599.460506
102060437.237984
103160486.107641
58170117.494534
76188454.636547
76250671.925780
2497207.688883
144168330.493032
34044247.805858
147853929.420461
116981541.592195
123062249.524227
135549131.998933
70898087.025570
115798580.506823
71216914.245587
143246957.041930
130195609.552819
50287858.077768
124589241.993766
59120784.021786
112706733.397968
134991653.133804
2726236.932020
109021572.746060
137314620.787224
114166823.151058
130503374.336878
102919357.330526
123798419.098802
131824354.419730
156451581.371151
135318461.203285
30961874.910498
114283547.744138
129977748.273503
109025195.421955
101841799.327992
119366085.470059
97512057.346911
48376561.228285
124768428.316801
46220862.843468
118705623.524300
136129857.228740
120465237.135588
114766711.965096
33399550.444569
42602903.210808
108277317.330304
125948773.403480
117546272.570184
33493554.460390
112544719.011962
40912158.058328
155674936.541119
14982288.085849
59958142.510589
33084369.327126
56420949.894900
57190119.573358
966281.792142
60806772.217727
106061151.776898
55374598.526834
1287093.032207
45739308.914089
33347741.084033
140327939.147865
50875538.655527
51041131.268914
143643188.151208
118931968.582706
42971777.139050
118674235.024444
30988650.921283
91251158.295586
95490227.227359
93006232.154282
38329883.949952
134321042.244640
48209636.249448
148849378.195488
132770868.844514
133609221.570983
132147854.947888
47694171.376790
132931558.132565
40578662.140993
38070471.506223
43137498.778518
119034100.947500
45572393.628666
35619990.713336
35805991.949347
129929683.095561
40415312.330762
142574429.968161
135625798.420728
126077503.578549
126151985.638196
126998930.064165
40120597.457881
33010668.216106
45129953.311936
43545036.698377
37910597.702752
49096005.042268
51824175.148354
69526229.519126
31424737.024378
67266858.835392
59303086.214532
61728888.079790
35464576.836857
37689973.111182
139417556.187448
17325216.515767
51382538.001065
102923194.995443
103139564.760886
102936746.201567
103177426.340166
102957215.212795
141531561.439274
138559592.308351
140542742.082984
554908.276803
925633.340183
2632541.963513
99265135.942161
96766790.891189
4381025.829056
58456312.641193
70646649.634810
4261997.657574
17203304.419740
96484412.302481
93762457.023516
101943315.549058
131888474.102578
130784153.145339
127628449.004012
137491768.689544
126820395.619512
2665171.179464
1531995.999972
102012213.572517
52512098.580943
102452318.329266
102953210.373471
103117469.592303
1001313.396383
523031.938185
1167283.015935
100035928.412875
101984785.613526
90900122.522836
92955704.470547
132123864.943304
127100721.241056
135429196.197579
127061407.449400
48042441.915041
47930297.581392
103224125.855751
103371867.175474
103179508.019709
-1043544.371920
-302516.230494
99834189.160036
97214544.444075
93351583.345584
93778403.648512
93881148.840453
133154556.761331
127803059.961555
135438674.847662
45425225.742781
95512977.980878
101450855.723445
102999649.139990
103329279.621722
-356135.994203
100644199.411535
90575230.322624
-1856102.808092
-2654291.663285
135698359.169113
134511614.473306
136125496.821263
128109025.021133
134209136.803058
132713358.883232
129194733.795455
45145398.488363
43116764.883083
102789207.887067
103548226.549808
103922765.977950
-1336740.058755
-1745516.652557
101151669.176701
97706114.463028
91388191.080362
102637086.720830
135695308.601825
137081661.617068
130042299.342789
133935030.341669
133694512.470201
128904912.225999
41390984.592442
44655341.076050
103450874.622794
103795019.441253
-1550529.140733
-2189284.841209
101304714.737328
101935889.624767
87858332.236805
87203117.701439
85747478.661427
137238242.540780
145977724.609576
-2890794.251693
132273099.487252
129090338.487899
217330.448458
-102045.680577
40655639.677010
39064982.729320
-1748557.260389
-2211706.419050
103892251.454819
-2270632.367441
-2141265.131124
-2609049.443692
98260201.140635
1085129.894081
-2281125.870489
88315647.763475
88639587.296775
-330946.797580
138653732.569069
144104929.440603
127341880.142493
130010404.808174
132425380.963753
131271688.192808
-2554930.019915
40083868.931947
-893334.780761
104457242.490962
104231394.294881
-2552277.677630
-2850375.049319
99084662.532778
99610811.353626
-1945868.272461
-1555548.351057
-1151059.159400
89084399.549895
84731270.742366
91857103.145225
90158790.367794
140167267.528553
139433995.140457
143445324.971432
130047330.915324
131111486.633663
127148923.839134
146750987.588256
36205305.822687
104123355.077043
103408717.089065
89678649.846706
86579325.207377
104041130.979444
104273142.785545
104757963.049680
-3004457.169830
-2669329.982146
134359134.878357
135349423.678459
133558505.285950
92633205.032593
95848911.786160
-2244813.758145
87956757.151456
86351353.595851
85293456.044758
85379566.433434
83180507.240118
-2569128.005189
300948958.518805
80530658.228865
134226349.491595
-2781223.133290
-3298709.393797
-3102025.282210
-2369535.094213
139926084.137656
141890556.610910
-3405907.234313
292640530.121981
131092106.822158
127929938.246885
149825018.930573
-3898724.137432
232409922.370346
35720460.177783
-1645017.568651
303525485.603140
83833246.739736
84354620.602043
148413808.188138
104665276.438497
104705135.404416
-3324237.965510
34404165.697129
-2661388.498480
-2283654.762133
96483809.116568
148317818.917682
82065902.983510
-4334322.692590
285768181.054496
73611341.845146
82936113.824333
81320159.674172
79673579.281247
-5140445.850204
276030172.338675
-3804713.057339
99703597.111793
85563079.814963
84286306.620969
87497317.732304
141317162.310258
100156182.987707
128381018.077633
129626581.076036
127840380.230988
100007929.987384
80157440.930969
-2506784.853859
-2647191.523095
32012766.016883
-3875023.084018
-1765885.422454
211464231.242497
100170133.481178
-3648300.186869
-3717120.073401
100009325.804038
274204989.719335
32173560.588494
81999189.070349
27307298.001907
110045598.446748
23176319.880512
92443799.646160
104630870.496084
-2890428.041322
89838769.101891
-4027289.787985
-1435013.932708
-4100680.895611
268011202.136150
93151977.672218
90410796.724092
85079700.258179
124188857.311774
100136097.442593
100859895.243116
122743137.061376
100129748.256844
156753953.721385
100101001.978204
205487120.940007
264433945.058170
-5729601.128249
-3102698.934203
39708295.636670
119492584.335919
106233336.586810
124962999.382021
124096940.237585
100547268.922097
100096488.721230
35139686.089469
37932255.614138
81785561.634851
104434203.523688
85040321.494080
91743948.902579
99845888.307847
97021359.707542
81929990.096583
83874997.118676
119352283.175976
256933766.993280
94919381.646167
100126960.789195
117833426.909196
117657541.677446
99703605.145324
219838.799444
199917434.902078
97995233.613404
-3279633.976740
98592058.576775
100653895.372291
208610982.377075
-2743666.423645
-4048405.515366
-2860976.775218
100435867.505584
143230960.036573
130760015.021150
129432509.659295
194804681.855324
102162291.047781
107734253.709209
75138485.964299
98984096.340649
244262836.281257
-6191573.171550
31016739.264943
95276721.788255
100189053.846769
39739462.707288
2534179.996473
190098643.982051
159096547.525466
17813725.244874
12012738.466979
5106631.273746
9228261.313125
185632503.539899
170391566.468362
154081350.465600
156424371.851782
123545312.732972
161833747.898276
181344027.810766
95493840.360678
96484445.976977
94107487.525706
101687310.375179
80933890.011187
79243286.291588
101258816.401525
105683998.294766
107027621.822297
101906926.744582
96030850.042886
45553666.753839
125409139.583246
94866678.536396
16379666.437789
13443064.121807
10611430.487402
3761899.442204
100094447.578123
100075648.183068
9101835.793305
10288722.772279
124359788.590980
112678012.152981
100000592.310266
202703137.523167
89426789.454345
133974272.294082
38398298.090564
134188551.629505
25040655.854282
90276597.824636
150027891.350934
112020559.036278
-4005979.908892
89908133.702622
100412338.470715
81149381.257368
42061420.559098
121988358.501436
104603844.241999
118245232.425362
229206540.546954
112071198.398440
-6110203.815462
5010902.774805
162783959.370176
67603274.493199
61111336.511175
49034527.588946
868464.123370
54809906.047764
171475625.758599
12944147.438660
-889104.731702
120347291.019749
197116339.519124
187659320.683838
180633859.226502
-6338517.970946
88941329.727679
23943791.330032
-5931996.594552
33474430.756305
136858122.354207
153762825.913315
20083267.686093
2437789.258231
-2240608.779088
-4241258.063975
-3375766.869033
7014065.337740
205180301.024690
105158937.767389
-3841304.341168
-3896495.712605
94522615.199827
111174729.513694
144299890.105229
106706545.525304
107782133.729126
75585253.087244
-2221002.493446
88276915.210314
100503115.219398
197427936.221108
119810475.520513
100467316.643498
100147699.271027
128323136.776359
3337420.147240
100082209.432176
18072661.429395
80591774.238416
141239550.599336
29009903.518298
102439749.766007
-1822427.896032
12325958.434515
125352951.173812
147218388.862278
90439527.271545
93616401.698225
100312014.670445
89896540.369984
100151248.489502
251966647.811111
90205661.085234
99926339.292192
100249233.026427
99942306.404399
100250557.034507
108551443.650575
144690520.402553
120505521.221736
100152603.372668
100063672.460205
123277662.576018
-3621694.622557
226852172.846772
122224326.623135
192497915.073896
58050609.430093
100533134.329040
105620039.845047
17665447.827233
123520144.965607
40887947.269415
58545305.487660
100229578.090264
30144748.350049
183397999.651060
157602995.215444
16970140.821513
12916943.840407
160135316.018026
4485383.809117
155270687.938846
107342844.446992
80391192.929329
95318552.085993
96298660.609757
101726437.636835
94729480.725040
95805799.891227
101903365.059948
124504684.721113
9857276.362477
187731740.424054
11399618.968588
3045144.486725
100090667.505779
73034202.812273
8056975.663170
100417812.373211
99859470.027241
246957665.949104
100195475.195873
99977931.934829
42029591.698841
41684310.176981
133245185.026545
29952110.584728
130827493.958876
131026405.666683
130024303.013803
284201194.964380
77753414.940366
76426176.912928
-927237.186690
123303242.134690
36672169.407214
120851116.036908
124120393.548393
100268826.207530
98444437.439578
107299708.280608
-4187842.733280
100075547.707792
99608233.795908
79462677.683189
100235211.618413
29468500.813748
158946029.951072
159725519.327316
145857018.969376
29901934.510868
39634697.340196
67939625.649885
93565988.573940
-2778489.853708
39023700.666530
154971238.519864
100016690.369775
99965368.634570
100030926.646980
99971533.848508
142333403.114895
132996285.755697
100590443.559347
229607090.639850
262273263.189679
101191372.974931
124127816.086402
106890662.561977
107680385.368619
99991210.776888
148556608.862979
129005583.557142
18620745.412615
40037860.987931
100525547.992398
-1571261.723398
100040772.576341
105405562.713529
100146463.616937
76588439.260040
99804977.166844
99781888.269473
100134127.689374
118634769.786457
100005982.820289
37834137.892061
100930206.058704
100078047.533741
100465401.585184
31596920.844394
159027645.392590
100096594.737825
99990149.280815
4796444.041307
123156838.804503
238068392.067816
145436750.249006
-3453005.218419
89160971.995406
76262412.897212
100046560.250190
128469932.484944
91117957.198192
113322098.005649
99927381.103138
101295325.593139
100071499.537738
100047258.431870
30575144.388800
100113150.688287
104603412.490040
36372818.947204
281720978.637100
36124416.218661
99998494.903574
160650373.582153
134714221.790030
100084194.977083
144858314.067115
100455296.763439
80444336.985919
83218564.032189
114023575.897382
100658183.244298
100050948.122564
100172699.905703
160119742.786386
133219310.500855
132668975.687505
99787142.486662
75459874.245374
51250883.447937
145170679.943795
147085368.175071
178114367.629155
182015380.050091
118268960.194087
100024468.364587
100069913.267837
98033632.587935
100039587.634401
100028407.111654
100057370.113821
100570430.334335
100203273.674186
134665326.495697
100121250.730054
100025223.007358
135872347.389144
99959925.023091
42417178.232639
134318889.548906
135079845.580098
99800309.708187
40904660.137852
109967518.965903
100123291.741851
100142607.895249
102349557.026711
129755551.184391
118654926.461653
103984733.809445
99986960.937561
100161772.829057
100111692.524408
99658445.011621
92842064.121316
123985468.925709
100224931.165456
100038249.359331
100500861.585186
100134959.163740
101009852.502168
27253672.348663
103908979.270510
24622582.684619
23344743.938075
136836437.013630
99921893.574295
99989592.849617
101344355.196939
99748944.003790
104966565.043834
99873686.543887
100312463.752107
100085156.002069
146839085.721755
148261907.265390
237033463.433238
127069209.217454
105635029.743079
98580222.899186
100107583.636111
100185218.797634
60043828.394233
100060762.801497
99992684.032809
87666701.371799
88962416.131098
100442068.158123
100014041.137499
100160550.423988
57073609.581812
59324118.317746
100141029.383497
253234905.243815
100364124.822009
100681045.955217
79906599.042256
99898931.530131
99500439.998582
27727192.771056
100012998.157301
100221628.693425
100092385.895818
99234169.748568
160733651.286064
34135446.917092
100397597.667442
100145154.933467
100105288.807591
99991379.376802
146005994.798222
100033481.382363
117584994.075250
100010639.069565
100206048.795153
100369471.155664
100290888.523205
104642658.177718
100221506.741265
100107087.561729
100412970.252476
100194785.769991
-2051063.073717
76241809.478408
155061250.409056
100294903.206824
100246605.869926
100386701.481960
99918050.202517
107040222.548656
107410797.936542
8942109.013605
247576634.716017
256467196.155746
39365698.272968
101513964.255593
104817774.303908
100022056.912557
99918278.992033
147212874.063282
147223498.628983
99593592.003360
118569957.884026
100196266.117220
100146174.212695
101013721.545739
220461416.450471
100540326.829389
100463308.158725
100491725.319049
99915074.538083
99961045.822412
100030469.495540
89964200.532533
86643669.157285
255167549.892183
106789886.456774
87094655.887827
-4181853.799501
157565174.131865
100061210.729908
100337436.483055
100387139.978861
100499199.638483
106439194.920907
100111628.180490
100029098.232498
150786161.626905
100041911.309206
100435092.893327
106784343.422198
99966051.893074
99985151.115635
99928742.798420
100448317.830942
99964257.462898
100401088.626713
234547029.558173
100332845.529799
58875700.102729
73421935.147296
100295994.925263
-3724357.299824
116250469.650156
104735197.891601
100074616.799190
134351710.454103
100261136.641586
107812741.972604
100443540.941533
60203672.819243
100051703.000626
100123427.295980
101657182.468614
134600673.040114
100926980.720055
100234953.219208
124797951.078755
73457912.932167
73496618.908505
100345338.242054
66279662.713385
118498941.381524
100580918.672142
100019099.513591
100163402.031878
68086968.431957
154698193.223968
118470228.220978
103680253.103270
100460387.088067
100785814.807572
121975094.286097
100017335.051787
240732743.037624
100564046.703768
100465394.360018
100267838.791548
94056331.392713
89893736.664296
85777991.432910
99983907.083252
100538758.988742
103279743.783826
103987413.633653
103653421.947368
100587106.050667
100055597.714047
100255105.208585
104019361.061748
100877853.299743
3554340.401871
73098585.820754
92174284.079028
73499899.681219
119557063.607148
95256029.156589
102397910.949462
100191541.399179
78699149.474709
79844974.867714
100666490.842191
122637654.793636
121536286.076470
100367398.694949
96281653.911492
99964831.487127
100015705.352969
141936135.795138
99956457.250842
100449425.554915
100597882.134925
100172768.475811
100273724.273791
100468171.404296
131636184.017293
90083498.503183
99926934.073532
122686251.938483
101234557.449706
129719334.257380
99657826.126115
100368995.939584
100093653.991173
100272124.832141
33352982.774318
100313370.863648
-3880648.223618
-4069394.821801
99864590.342280
81858840.006641
83630069.641534
99899890.296351
56546176.915579
99934430.734486
100064989.329600
100116602.581510
100340234.390697
1660606.066170
285416788.936412
288845149.140594
100104518.558202
136809723.338784
137477675.835516
100648782.695804
105774628.929765
104155865.387576
32736144.199387
126406462.925967
118989173.722159
99905327.016855
39359595.301269
102081514.701912
135711475.840085
135338419.723688
99994180.246581
131638103.053713
113256894.223300
22885895.907634
100755676.624624
83980475.385855
99877125.287688
103408929.380433
103461760.871295
100019181.528814
99303379.262456
110929719.788647
100308826.614908
103678567.672175
99980324.161108
59985997.104975
101343840.941684
134005668.448473
123133017.247704
72699995.857886
138737837.564960
148532877.864820
100604577.980504
180347947.216873
151734721.132231
228328226.754260
100004305.731974
100879794.667017
99513547.646111
100166878.679034
135878032.733385
101014925.236704
100188924.328003
99765506.473816
99564869.180164
99897972.718304
63934790.180961
135462637.846718
-4362430.465731
99975909.848331
77903799.701105
99573151.379787
100230861.747796
-2463915.732714
100144178.843277
100101444.682107
245697723.250334
118728373.352693
281467616.372894
100140953.445436
236432467.674827
102650610.361109
103084006.429850
100656608.054001
128669589.581865
101433324.492077
122142398.158330
249629120.579175
76255920.946236
110752533.571292
76522158.773630
78654747.569546
99723930.127863
104627858.943458
146120189.271071
16718544.160203
75770175.164173
25157033.468687
136340462.788293
137436773.402244
213308168.369509
64658107.162757
62904922.322925
101356052.377914
100855133.659289
103454719.109558
103417580.256029
136165340.381316
100249516.309786
100479069.246802
67424447.938328
100081083.825372
96813995.362560
34066086.057098
130350318.969652
92992639.943612
101136074.685095
99931523.367515
100384594.204131
104024375.417140
89956446.447845
68645231.449008
69872246.987418
78128524.247806
134842941.877880
100559875.922523
83625040.910749
97287569.764020
98714249.556461
136517298.721514
111361077.557332
88389700.314519
99708005.825996
246865072.965122
101700019.718646
103365431.603149
49322369.710147
111413065.362145
110508684.238451
58684010.547928
144691620.532666
104067202.082466
103172531.406728
14062339.033949
16113376.822390
139750310.614737
109996775.249145
70542432.665963
100286237.162387
112258346.384623
100053194.031176
100787508.065046
101080700.155340
100995829.997476
80058300.247243
121882047.242677
82805207.857396
99951294.485577
171187368.861873
133412744.023463
101303288.214831
50494435.841628
100423196.837920
87102066.479206
147208969.152286
121625070.662312
101435543.201613
-1659759.349756
104228811.152769
36944219.328678
99519120.524574
100463351.432605
130817033.264562
109506740.614854
132189821.614746
152369899.218511
107814654.939382
257881178.962150
122351490.208400
227677716.658414
235966134.356481
94979384.629810
117436836.300641
112496317.464767
120668913.528871
132031623.733271
129712905.897859
71396241.491665
100073171.660409
99183537.096398
100381211.553939
51645040.335055
105965795.700454
179452568.301916
100679712.025068
101570768.971818
130524190.364839
101303126.231666
101432744.314887
152051957.765898
128544223.741685
129448524.305793
98990512.603713
100703048.289956
100392695.496281
125813865.525973
-3969166.406480
95539323.589988
152278615.344188
105389991.462268
-1645295.101187
100364906.868813
122418720.951113
-1273960.707392
130223158.912508
80234508.034669
100547857.900014
81625504.529675
111147963.302045
44203648.933540
128270995.288174
84346994.389566
94631121.727775
100896512.122303
100577438.250832
101860962.332169
127055974.815018
21269182.219806
46799101.145605
103990212.272614
100031221.257553
86266784.216838
99796485.484280
101440778.512940
69814960.199545
100150228.143968
100359328.317577
138420137.993204
122462861.712561
112525155.406456
158111522.524321
59164444.589325
95957472.281839
102010915.389350
23133228.420389
12252544.274061
59545507.992946
100474686.368580
154849657.256120
58916230.819604
68712804.165949
172810389.997486
-2190170.699689
123502061.933652
99119645.718014
243955016.283504
247652375.194794
101573168.125456
99997672.664102
129811897.471170
100362470.271583
100570716.029001
64897620.978744
99998529.725171
106359289.842160
101038218.153821
100935016.779534
104918688.738161
88108398.909939
95116139.149890
127359788.012038
100826052.766589
101407110.229534
47607137.599986
98687416.059896
98617896.386371
38170772.709769
100943676.422309
139818362.152574
18124352.072514
-3362177.123886
73006537.921728
111093130.217944
101481667.926029
99868374.966612
104452910.835575
102705791.379698
101138939.602398
100066061.020937
33431810.493869
109971986.722410
100669610.708086
99809062.986790
46835738.955654
100317591.239269
107927525.846536
6837397.125664
101124531.072433
100640907.318686
99973608.912261
100724759.554954
5802096.040199
99570613.649960
105032007.917048
89859952.481466
100138993.433459
98843992.336050
99848355.447330
39892262.616833
103971700.673795
99624203.625828
100751518.846049
29743130.029930
104803615.229296
44626861.490586
103621792.072393
235619282.775824
100069785.309756
57526984.141696
99717477.567935
248393615.569824
117369823.420351
100103697.612342
218927598.490501
106425603.822821
100077386.278481
108085216.055750
78904725.951295
155431842.846554
96690828.511853
15456404.093485
99845464.250823
123529008.155619
74358827.573511
99817442.869391
145184402.833115
267761457.028309
95517654.399363
105060205.286636
60256418.756342
101781047.732252
82599386.403235
99402268.319048
56343359.005423
100045613.785535
100110302.782275
99649640.838771
-4488098.122392
99498036.804690
130987342.498646
47203714.537811
103171657.758352
101675300.720161
11775357.055103
99442218.716670
94699991.575613
94535625.280979
59409075.097639
229052327.018288
240064628.953490
112543147.363575
122989060.102987
-3440681.990739
-3633473.657054
123501809.415809
5020787.407146
82803786.988901
136837547.317295
100386064.102284
84378712.271136
100863006.828803
106099135.063557
117709690.254454
36449114.205028
15530687.241887
14217076.467386
77337153.424234
104756116.421163
100108342.750225
35813466.581690
277363866.736600
136233269.895227
65553734.639657
100333814.952243
46953284.594111
124327104.475549
99036026.469764
172093176.244398
145986707.813716
147964014.734186
136831511.914596
279768332.064575
116792449.538356
29383549.369237
22115465.169395
100074117.756350
102885339.182604
100813319.851304
103564240.332439
100016368.456052
-4421796.164034
100900769.022106
98688314.941854
107295644.973006
31149602.975221
122287199.338944
98941885.411596
101163896.658718
72661693.324203
32938562.411652
31435922.190205
100005673.935365
31226242.160078
44527209.022926
19522784.205334
20864330.654004
108576252.932001
122842820.456499
98175943.897389
241135096.904888
-3896502.534094
99953192.418284
149550404.754028
222941631.333508
106965495.425677
118373036.661557
101151888.834441
101611564.329522
2728205.115433
35502268.432397
-3022623.285525
-4459495.965787
84304025.879579
120742673.100947
100767270.658758
100485152.440932
100140601.984243
103000316.680367
100623416.238270
91310042.309577
19896439.211940
112433229.669291
143453034.949737
100548837.906889
138924006.483372
135462904.344657
101380232.520051
116951535.420336
119128813.811920
11879796.622694
100308539.323725
19914736.509888
100752720.674327
99812410.862799
34064831.998857
217783602.985282
106484988.008996
144352818.022696
100001197.745949
97774641.239735
105896956.166657
105309676.380399
98583911.815003
18278265.199586
102111067.151857
18992496.553385
106004583.518270
106515298.037153
21193794.635002
31924764.864558
106672297.069734
126351565.531969
238359033.188724
171253302.353905
167534135.660518
4305478.776615
134892340.010221
48030671.385540
106360713.252170
120992441.454329
120703464.368091
130941719.509191
149210806.190906
104475832.620270
91859345.621734
103858555.363804
87581592.715531
94958529.754366
59952744.399311
101383812.319966
170330671.266827
-5978998.887109
82372955.188220
51247671.403453
58487979.662219
161674058.356034
15289700.721982
63271201.612185
83891833.367571
101671579.876215
74683348.442371
100743420.968452
100467213.392303
104231047.851901
100129408.056260
65135678.419052
99823102.857993
100406884.508218
13782772.380994
55589221.770393
144150267.232391
102819932.425111
129982826.673638
71995061.626713
216895228.136709
36237657.363511
122229811.040452
170352301.200837
101237239.651685
67030674.853660
133547758.640145
83965581.822790
117170366.777316
101682150.593538
30769004.298320
516863.351401
100389223.157121
139450265.935513
139973175.290586
133036010.822621
106063813.020899
83246260.739867
22050065.513691
21786931.203980
107367861.946025
102150189.298381
100182901.481635
57857194.544830
68515879.966528
244665036.671424
100000426.369480
125816338.133515
99999982.471293
99786947.321015
100361534.936097
59762205.092356
122408324.581924
100027044.524825
100175327.541457
119471520.188768
96767447.902695
177482065.827978
97826921.926811
100104603.843126
93310261.405396
-1912301.015076
118747790.340693
74038028.182084
100640997.212092
101137660.082588
256352980.135033
99178502.977440
104156921.504652
156204742.459592
99791497.197486
111651020.904450
93196163.394602
105281926.834119
36248063.597510
140978749.348813
120319525.806044
100510049.515093
101826354.360193
71047496.968309
21946522.696393
99001563.933578
98227402.709853
17785970.315038
18539506.046765
107441812.861082
107066700.581882
100024009.424284
231176982.780891
17806472.061468
137748565.360246
133012467.196864
93241464.274444
99651415.359370
-1404578.435089
100904561.420304
99651347.546988
107152651.860922
92941481.533322
53203388.003258
123768542.425623
123251432.187160
43508655.869552
70728436.830853
100321207.969548
53175518.047804
92050516.368379
-2489596.377417
179981943.827767
100840208.749588
99998680.124735
98314571.704791
117819148.405952
150192506.016979
302345242.793151
91505706.975386
-530818.913681
291887512.163201
96287229.533991
-2413939.956167
304220589.384176
153617595.789732
1902069.249372
872466.970105
101424332.102072
3134286.505706
100384412.855522
46216401.727851
221978802.779183
213727041.823144
90391894.034203
106324194.271048
90562916.318728
163542828.525925
11477163.196881
123225997.777143
119883196.196264
137819832.327766
139150003.538716
83516987.148229
161717064.835039
155641592.478103
91949142.943100
102166116.202681
25898547.112851
111730661.301922
73172927.770001
62769346.917686
212812725.821060
100030361.974167
221549925.572306
95998452.473930
95692722.396213
137287624.632670
169277576.768107
124892837.032364
-2706528.216785
69160596.097472
130372063.521156
85662478.267556
56960713.987678
23257465.341888
130655944.652982
99868406.868419
129392392.192629
34521494.503358
124956872.274784
148200333.351545
99715910.152568
120545809.196107
99773963.987547
113931678.264199
95872790.496934
73493653.342842
101523297.431123
28779652.750819
99855462.240694
31703876.313291
99814486.679962
149888929.273681
30198734.454417
227645211.865641
100385614.381884
114446801.683648
133564053.544902
34744434.289999
96915631.504122
128882982.163192
159242856.895225
29645916.784655
100007875.340043
128178410.989396
97035255.769397
99831761.175608
54248797.905939
118414798.159104
138564598.888792
-1272552.210907
-492165.400710
112144038.056247
127143516.103197
121609333.057625
157990310.045408
105903070.152770
1030613.249829
50494722.244499
119932700.316642
100016446.596947
99137388.561609
99983080.934335
71382197.630385
99338398.833266
119494694.832249
95576503.597175
130807324.870821
121868773.667151
99376464.194971
131688543.735070
99944552.613194
113530422.383295
99887763.567376
88072662.817682
87775822.259970
-3730707.664662
96337339.302225
106838677.619866
44573170.664924
126998216.544918
3904884.163265
115575614.397238
100314295.332576
121330814.210480
62845064.858726
111190989.964399
125139241.431575
81998600.030552
101876954.897485
49251129.752382
-2200870.898447
110509969.308595
101513346.351790
-1666308.419233
99426406.583820
137237994.435179
148197861.715559
151892427.498708
113872243.017293
66723726.217290
-4580306.267792
101426089.834440
87876953.299963
101650972.971215
5031696.773994
-3679208.054983
162130215.021009
106268663.494243
122372003.825616
156102001.297062
154321293.644361
99999090.339926
99998147.370514
65306954.818391
117958609.173419
44858452.774750
43559450.444049
162832433.185928
119998537.697877
94338495.045639
111472412.988617
153068568.466576
153204980.400845
31467480.864732
279481279.878232
96297070.961618
151156090.538037
89740062.239155
90079084.246454
56860168.008345
206676662.997706
25750597.659751
99357480.860122
117408538.184110
102134425.617579
99890087.046254
124219377.195128
121632970.673574
135125381.999875
101836238.211777
268507614.866176
168374050.561811
189018211.532892
81109375.772952
15658899.449275
121446818.488411
6450256.546836
104321134.821338
104246141.733604
98640658.549302
88340331.582350
101062357.045303
100799259.494579
125389920.400231
49527943.227061
241570957.755534
236801223.568002
101806159.504936
144571857.161326
106875282.713731
92897573.650512
153959475.742384
101063490.560705
30774968.021065
105584375.551365
1143903.995215
117174521.560792
68572819.655884
101816657.027423
197852819.313170
112811297.589019
116661925.962888
142850804.886229
100987929.503288
151776603.483205
19223543.251162
100831773.007899
175510970.018039
105956789.229252
22714805.953667
32004667.272381
234192661.834658
-3188801.638238
118538041.226011
119101833.600524
123133938.815293
100058611.026714
37146088.171473
101360927.116892
33782750.714884
99862816.946715
101197447.504339
68041584.800377
52665655.476272
-3366377.632909
100323333.219147
100154809.817153
92426712.092720
34529721.948732
116185627.514883
124235796.102621
89659294.784911
100353658.823844
174883438.753171
101216445.227374
154888237.335031
99244147.345368
100102430.079337
76593890.606246
93459389.959040
101278413.040035
95340603.787123
93952537.270185
101121412.929631
7121891.980255
8129845.688624
58864434.453515
115008714.738849
101871160.804743
99687941.626416
119468462.829951
101036409.076515
100197912.275932
101184052.832918
104873510.310404
101281955.973789
86788196.125730
156949742.182493
100457550.593184
115235504.248844
140724865.870247
75708877.903719
110673946.524679
94529118.588916
61974036.792247
225508953.083063
33132419.240020
101825051.218949
106312909.301095
157490627.084839
84959280.028012
96989656.819291
45090646.677032
107151549.100555
120346277.310433
2159140.089112
101457112.917939
120744155.637471
113575778.007885
115361118.301843
115559566.108659
101512496.014190
99951643.864860
101018635.940696
43538153.328943
99925651.789793
107977651.240050
84640424.858669
224574701.814478
99894993.671355
20879347.154418
99819140.502428
100466391.245867
-3426134.194733
105731830.174833
120020226.932196
79959798.814704
100065933.587158
101074398.069793
46103296.440952
31295340.130214
73860785.349736
73882803.579703
-3075341.871740
135775161.800656
118156821.262519
121167181.851456
105096539.210283
65070214.738282
100034293.829129
101063574.016857
105478432.215636
103027061.232455
70732597.371027
101229707.553790
14921568.673112
64417610.685234
102982747.940411
100068708.372049
-4507403.864200
125274816.210871
66347405.731491
100214150.272173
133367847.810398
86574473.856407
108273833.111663
101797665.940585
109263729.500219
96231483.564556
61526849.002933
174044706.333730
102338011.536214
100073809.193373
113894539.348431
100071163.301493
99222227.558397
-3477137.628227
107625973.259442
122792804.426460
100080380.870038
95859986.846917
12568576.274309
71200589.636455
141060946.913234
100140145.295033
113983387.955459
129751416.128349
101112408.663854
14016767.312090
5528019.558591
94324069.884518
99407318.714224
100012706.133050
100435971.016167
119323302.860705
124609272.406356
104357642.238109
124083968.475620
-3180097.241456
99915956.310577
206923820.023696
17333370.653676
100017130.536010
100811836.779427
122562656.394690
99773967.513784
104350357.963118
103683694.107378
287670524.275859
40257830.143559
26062736.563964
101792838.788698
105912455.350534
100095105.545198
103241529.189362
42118422.899373
117541273.736719
98530082.985691
137652378.533721
76677066.868501
132809153.461479
13446328.004447
98621192.316408
189034352.474415
101280257.700345
146127163.203328
123889055.963654
261853451.022467
67348830.373230
103091174.619760
50984665.092237
97677078.879213
120080185.361130
105942541.864541
146839251.617972
105988360.748236
110074146.207979
83785051.945525
72488556.499066
12048891.486220
214610086.004453
121203214.090191
52326793.997815
198484994.445159
100931201.714448
103598606.984495
26844405.156386
117511603.714693
67109610.696431
105917614.837538
101254679.181419
216253652.561226
106030267.852409
4110424.012112
100217371.482928
-576638.890660
102746030.826346
106402538.710678
105542488.480281
47513494.125142
105799804.406019
105391518.795426
99863138.231848
62281248.954510
39889307.623285
5400032.646710
92554507.318851
73533040.798022
99689441.896041
76524500.133264
102927586.357649
95175790.317945
200456910.244720
-3091943.308789
105441615.468634
101538972.745789
97503200.244626
118729039.556687
99675712.277938
100238920.986868
114584830.925080
87760729.791889
92700432.853396
65185321.825193
64541544.405044
106237739.404356
3480605.410822
105227363.354586
101228731.976185
105879282.607536
99908239.623463
224960595.940392
19827903.101185
102316480.627900
284129166.342820
81327142.328014
119700734.066047
156377650.786775
100351601.044411
99983887.296104
100950108.983389
48988740.911170
113776313.215213
99585817.764990
104138413.715440
100195811.771991
64011155.311851
100340607.022138
101562739.681995
102120164.269559
212032294.935680
83636467.558631
61405334.700059
101010915.405488
74229837.637774
99455538.384027
34205952.208560
133385232.663225
119505433.668701
25089896.669459
214742153.554620
49950344.822517
100849507.295442
100397310.443298
99485921.232546
297261982.389580
193656182.165087
98060768.998191
145873614.259683
63938508.675731
129593520.686661
122076071.120123
187325278.595113
106229829.425187
111104498.422528
100942574.904927
120654528.913662
101356295.966297
135261371.495611
100027930.898037
51545745.960864
126068039.578440
125453706.129697
102346889.556476
100021879.389147
99869174.824618
119068173.162304
112438800.513556
94413426.269977
101872629.036350
101631406.278202
82476703.481535
34309427.452446
53100051.207984
153691621.720858
69168168.073521
117747320.481887
100392525.493459
138243497.404712
169964703.274424
114424265.757069
97004522.120776
136018727.504361
210006979.009759
-3396530.331344
100993138.298753
89331833.332894
25392657.585969
103820126.072819
101391848.392407
113598608.206664
107508243.121064
97210674.983516
101226564.008089
-4879474.360819
89094492.989219
120978068.534572
19165068.747544
56053391.201298
101296176.400260
80207986.772486
101665360.357307
101488478.814014
83305596.047899
88956395.651779
147212194.549606
101246306.700836
4394187.813533
101694217.012845
53575453.018129
208434858.848717
98907073.987379
113409221.389749
106153510.050278
111171176.100804
9855420.662420
10137264.499714
90958662.438588
-2358582.069949
-2852165.291450
100017226.092119
121987624.006874
109405281.452242
77193268.450289
71170353.741920
128122820.179449
101523982.912561
21117564.622355
99927987.048449
131080218.058166
72867649.243802
100338854.041923
90831759.746585
176956842.772435
7554876.362815
97237493.002715
65570563.875758
100706190.718020
101071329.616922
71385223.610514
142706091.818194
100570652.929363
121952456.993095
135432944.344098
17862102.117585
48767789.164818
219612912.892764
60184304.875922
37198562.476536
69778554.229894
101574199.178977
100023876.443141
74165395.511805
74264816.134765
115257694.036944
140687555.225091
152286970.354030
122732183.307030
100268968.123660
83124290.251378
98367327.077047
104428263.495388
100033181.356341
101958623.677985
62461449.326610
99996829.740770
91890577.021444
97996282.349411
120211646.947110
100319522.917757
87954230.940873
102716881.715358
92917204.193177
33406611.014962
71238801.655605
95639235.710714
100406964.600769
155624424.752852
99998022.419870
102034161.926469
114841655.162222
17183805.438994
16563613.367890
100001942.019505
13927721.865675
101704738.523625
101600508.942089
266336938.015715
51274857.876163
97048434.438249
259138456.716444
101187779.922530
1262701.208951
271600274.467881
123493996.605753
62451739.695682
-271902.091480
124250791.830593
101387964.643837
46805996.011463
119940563.013986
105251964.888039
13220216.248917
100353011.825544
204024340.325151
105322963.507108
3044207.156298
107254629.800406
122015169.818757
100541240.539799
101337397.017727
132425670.991508
36094006.959839
95122308.211995
124098241.825034
101860915.136035
70319830.112080
17915492.511364
45232748.693867
128708906.560176
132555383.779006
131962593.514591
34682865.079820
19413780.386255
108257079.856998
92871882.964710
134084267.775177
91217861.768398
-1989519.012321
99905893.896473
152220468.143390
17512048.657350
-2892644.096815
156368816.448687
107075244.078193
19620915.695774
114916610.578050
46458284.965029
101985023.957725
100413026.651424
111496976.252539
85710716.793791
99700469.284953
86659670.907691
123649313.012366
100081538.279945
99861142.431350
107545641.906611
154096363.184006
132053537.009206
202666006.934605
100096657.388042
101680191.569583
110210812.322922
134221475.671182
167006307.090606
205938743.953311
72731318.119890
71978877.489933
98996504.026399
99688472.626234
102096746.518743
100232542.257066
106788798.845290
114558069.385892
99941657.970183
156657225.437917
60292778.864310
19901121.696847
-3164865.548871
137951837.457160
105627583.453159
99979186.535071
206572214.228416
77116466.310467
57100784.468842
92160989.111588
138619919.783648
123604549.320433
99935571.617100
120693469.650555
115479665.424472
22196674.740843
102155168.234388
100591279.130741
124064586.868220
100045272.335950
-859729.390992
97845882.277762
151590309.879406
99628708.858070
144497538.146703
211646798.374414
104431850.253108
88184378.511963
97564999.660391
124976544.088613
99651850.841373
139425767.465061
-2194275.866259
101253494.335705
122999440.756336
101584251.905403
144001996.176809
4893388.585509
109771893.390500
100069893.858944
198720421.141121
104081384.632420
85116483.207147
99977202.797887
100837422.714203
165463160.140726
43095181.227523
99902936.675862
101512457.371533
100699860.053551
-1618897.844492
9086500.320777
138013321.557660
115055931.168081
2151802.706402
84317695.344982
100042104.573061
109131373.412174
82421150.725443
115487031.184610
116425800.050796
124760883.122860
5907409.237767
46409626.201081
52143666.220781
99557386.949903
107915805.274512
100273201.634213
197245911.046366
101915532.771751
101854765.040661
115999051.116520
34628796.972710
18953321.713526
16224449.876029
103213722.670524
102104310.562362
207820306.585675
121579638.951184
100012587.819064
287175588.291450
37157503.706904
218027621.567331
127942585.665006
105613527.564205
159078112.077688
114890359.197399
93484588.970583
100018429.026884
99999273.863803
137238313.552594
48626073.238230
164576454.379572
101274420.138278
149517456.276953
98132572.774875
97302341.307121
100017973.207900
90437222.013127
99296307.546066
101642250.623985
118449950.845748
99591967.737989
107170364.740916
134096825.219752
106890092.628603
147047983.274064
251920605.312963
101031813.696609
130177013.765869
115055691.589216
99245580.162750
132122696.290534
101464085.570941
103285626.678761
100084316.058783
156259904.802862
100920249.438687
137278066.186548
100518787.265064
113344822.450048
100004020.913085
118740270.410354
91834335.093150
134010757.836086
85343983.863163
101081158.146692
205714067.760383
100803484.821322
193399620.855835
97381222.380664
105154619.740207
25552843.826589
108819890.013595
118266531.416060
104655661.572843
39196151.032347
37293382.748543
120102539.223872
100294510.780884
102771546.375721
51951151.957614
49916587.426748
100141556.650105
101355327.459374
100242920.108105
114120775.059993
86898490.029722
98633475.660663
213202233.304002
105268768.801032
100050028.597202
121585930.442197
50584075.739367
-2668275.536006
82549040.833388
53392169.732620
19160895.634838
-4317108.512677
106622680.497364
110677601.452416
192865666.440323
101868833.941339
11227973.553538
101754328.595192
100033949.477099
101621648.492852
101399509.892590
96073929.491444
96256829.420007
90663106.093790
137901672.518380
145086627.057657
107823755.473094
11139856.810542
124882087.901847
98951616.073216
117324562.115958
1215836.522953
288634943.817076
95158216.322869
157444555.621354
145682634.348794
97597404.823045
129582970.760428
99960655.803314
100053535.497951
100032721.251430
106270651.728272
107180335.080010
109303102.648503
100104421.105157
88210690.241808
9369147.681866
52076358.711688
73265839.827201
93611886.846929
100123764.444508
17370846.470260
29353199.974557
99967597.401631
99360070.252272
278209106.065516
126365652.566335
202232364.756326
120089259.227489
160481634.281984
118098790.982672
293063334.781600
125312536.811166
126312994.328559
105415403.377981
122712924.512607
271750122.654716
100000221.317924
100038163.359683
47782070.510850
-3006438.417294
101037677.272119
50074687.207157
101509546.258393
109797612.820900
32503914.343499
100503378.412584
130526602.841880
97343934.465922
19675430.865089
104810183.422527
88431819.662642
116371256.820172
221519113.807577
100492443.253383
166648717.440577
117253964.401495
100068987.235290
115572590.538685
107320881.050012
99936375.155150
154514987.294224
14208857.696412
112867145.759397
271452009.270854
103975926.514053
182669778.616106
141569424.538124
109905519.392952
153995982.979050
111562761.116253
119367583.235705
200080688.676600
49408461.181147
92502945.074339
59046166.695832
105860686.012060
195175505.291392
100056066.602078
99588312.995895
143126174.994645
86743751.925381
99794257.736625
101934336.286442
101669597.804181
93568922.392665
98188875.643147
134519472.440976
99515223.731085
67802179.981523
110121998.116414
274533134.670302
110218820.394779
113724600.493419
52489940.623229
152855550.345515
100224948.411192
112418945.989938
44995807.665274
-3445552.926179
144880886.289632
82784825.461200
93188082.424728
67330990.019577
99768877.818317
83873693.284913
200128522.018294
97393285.778136
18483548.165266
18467133.643592
100136431.429895
109182943.057248
-3783353.580234
49446138.019408
292958093.670722
-1857470.226565
65029873.024644
88930883.050550
111438475.112889
153035303.698910
17854562.249449
134736706.354185
21956899.631063
102043492.227506
94429705.863094
65192212.119223
100024478.693066
63675900.080968
100047407.067401
98923877.043958
98822124.156615
92906184.893729
124209142.793620
196806314.580850
129116458.763868
129134931.615502
30956013.804076
118588283.431972
-1633953.508481
61139625.944827
188882643.462750
107362683.278875
124894757.608742
117012729.932928
1270516.521436
119121622.353468
105695558.064757
123343617.671158
254714803.240860
99789449.657207
99974580.442825
142631353.159723
75746207.459116
105892990.055003
38368733.518300
106630366.177332
125777216.145496
50334633.168484
99936578.551131
143765368.086275
-3417213.119427
193140544.862549
99782388.981690
145110372.722911
99993927.650466
120144776.287128
228827055.966795
124758829.711509
100265170.902493
126037003.768113
77690135.524728
148987455.307281
153011006.112304
101192844.993248
85538962.699194
91268681.019256
111298839.106754
104123435.715424
110336391.913331
106450413.752630
121066254.076472
15245745.669673
17229810.855863
181235326.556598
195021023.321020
7842888.971435
103660747.067785
86844464.801209
163725664.038541
114981002.162255
122002455.577078
123122206.141387
102433001.572031
20884538.708171
20513132.101817
122595320.133797
97840831.464503
121836516.479988
6613848.405338
-5006896.320129
142200003.272963
47069744.838145
118478181.348201
99568406.290331
154292081.839796
61610189.348029
100011549.101925
122746375.668716
50764243.786936
50054365.800043
82601550.149682
95025104.188754
24915254.598863
214257104.426098
59609247.884148
81888226.642772
99999152.351041
100182119.096332
101202833.221175
192509747.863752
99989607.214441
115679205.561607
5877725.477054
58462885.697021
100018132.324218
122639200.995758
67612874.436129
81890042.181002
-4012372.333691
153334698.227265
136254658.431567
24034309.206490
100049097.460560
104082308.846221
80928657.937902
101245797.116939
89449963.062442
153493606.286002
51353156.289561
151562264.217060
65527928.403621
113229061.144859
127221555.776455
122424555.761530
25262846.112241
100225885.099269
125212270.590672
51221294.342846
103456518.181406
64961131.727495
36848320.550297
35942791.541880
101990623.566397
124697409.931541
109887906.091989
121116730.299777
119005839.253881
47445045.446822
153208486.951940
24528999.300009
87227941.326879
100370492.898434
115606898.261022
64773773.492590
101724772.191443
101640199.768719
98895596.885588
156836129.859097
65092702.102678
119169841.823680
97591478.445023
71512266.274110
94309678.345703
150001830.487068
106938011.355102
100869756.802126
280592061.911505
152539798.223302
106324493.349024
100997009.947506
82696150.352267
88465353.271155
133428872.217579
121317180.647615
122870387.304464
89444225.087313
126129813.284541
57412217.832227
110753962.063398
120864497.885944
104024016.665280
105590744.039978
97765437.323435
64645814.640654
129272373.938718
100979271.570381
59942782.352242
62514978.215539
100692928.402755
41758853.506305
58743169.047938
121523363.703656
134984972.285093
23985913.659202
97498893.868706
118120162.877701
131128360.750790
113772723.975303
100942044.843904
116326863.984776
122882842.377913
104490536.706978
99937041.063142
152245725.789659
123492365.937942
101497526.083073
101605603.605894
98089969.544344
103809201.283159
97174748.747520
97617883.828200
122426012.167667
100890623.143321
105084219.569370
121308007.529470
122887677.339359
120136443.400972
120138985.212406
34394381.584708
1646235.919387
143844450.201561
122131404.441021
22723895.389808
101493081.903572
14475331.783839
121749100.930259
54776167.852133
27296157.329020
113297238.532737
129230475.585899
21959837.497398
20597736.769739
102465110.138451
116198230.989889
103914148.385335
93243291.441074
67874002.202195
150011852.964995
20976165.015054
20512249.065806
71955303.973664
104105414.841834
55213092.228249
151492259.918624
100883381.904368
53833228.046814
119134792.577257
104546738.913363
50654495.566242
92107617.463924
88009212.529368
117882562.442477
104075654.356182
112072707.321094
112267954.346340
99986460.840600
98975479.194730
104467159.309093
68552875.184254
107158433.149882
110578104.157675
80563958.815325
135540819.504201
101793557.058081
121052770.063842
116957584.914880
103750867.453623
89652132.929791
115360699.807453
93111916.444797
102629181.707887
114967049.860667
86781078.815823
99418198.458903
130042000.748558
83967703.615672
119242827.046498
105903368.053752
37357768.054285
72470776.366674
134550616.192478
127190984.228470
119170579.748549
117064170.125014
100970883.373083
141339758.990309
89126166.221780
123408743.757068
122817731.479883
98929386.908699
108885813.790678
98121013.259279
104426659.385456
114229630.141467
107562446.468425
138806604.547400
116856148.685911
105962350.847880
48912291.048108
113474118.542602
64073540.009511
92398487.272033
106885589.428654
123256642.416803
101340489.139758
99992130.926658
158717845.064735
135359943.262420
94538377.794004
68422967.400841
100308676.058911
110490095.249973
111294235.749914
103063568.175974
110729970.528573
113184601.555053
100261627.823153
142413026.522117
151308824.987097
148652014.715134
101839941.547997
116815030.744711
121880274.530332
107283447.920309
138688086.717556
109604034.909940
77605506.486516
101237888.551518
20370034.072474
150578518.536159
140414863.182571
95320647.403255
142486865.177330
106885783.822546
103612873.013178
121288944.349461
117846985.854299
122245651.716803
104809228.034353
111602182.958435
51617195.126303
153463947.316310
137240915.081876
138085774.572916
138355446.129566
138984367.180695
138222142.247551
88452958.322837
95950988.689466
112214647.467149
47966051.097637
99960073.019170
101587306.233779
96943774.116160
124990304.523899
101485788.140042
101946743.357671
142900079.932695
125426259.879147
100132936.226234
134567069.214595
63638217.601564
48303763.115159
119128589.654780
99966008.609990
119785871.167977
119927927.070736
134842025.133958
135663949.609467
64931237.126126
148079975.982169
107009936.888274
139123642.204379
98792333.285933
98106655.678224
119570855.917457
108010691.529173
143355413.470673
57336748.288860
103235858.560771
117940141.119686
100799165.031141
144145954.615795
143507962.204668
117421602.690360
83886161.988727
122961474.640703
101650632.630418
99340634.595307
87857197.389842
48958496.870400
114850177.839174
131418584.500365
22708182.326477
93745217.573580
104769207.601376
97556956.913836
76559718.554997
111474787.457564
107022548.233437
108118186.997426
103015003.437286
103226728.816800
22753930.255315
147348074.264838
145880880.904791
102986665.943713
99283995.084153
122565785.908092
120533489.554510
150094879.667439
121638886.589055
101121454.726572
137888496.950857
131511673.710998
112024684.167460
89814966.147263
132488792.220280
113157228.417308
22912251.404481
119420515.845080
111046357.697823
21248563.845083
101065816.680943
140601352.489148
62323684.244286
102431647.697668
63838951.213355
143239103.864751
88515048.987525
87933908.015092
83989219.075470
120076751.858612
51529206.219453
86555459.176625
101514887.853231
91188248.052526
91420142.354322
105993114.319414
114919524.022533
102550564.788139
91399636.871753
103538398.756233
103962959.858889
105639010.307929
106218403.629983
101104565.835437
105781740.489397
103742909.317692
95767712.112266
98252460.523954
73939331.226773
80199402.923747
81543784.181165
110107958.365150
109750339.368580
109914436.688754
117508864.267474
55922344.023016
53746282.153007
102633086.258132
100804933.618797
123184087.622496
123844580.169669
123904792.972236
91374549.118414
90800864.644993
115614725.516462
144784931.139890
96945683.367490
109175391.096653
115701138.359991
124245290.235344
124901232.866199
125273855.733172
149783875.095796
149442638.720740
85720490.716889
88313393.106233
119502267.518915
25418850.184325
22796677.055554
120586457.613353
122909453.855827
29949737.058147
121850478.351819
106240859.466655
116331463.591067
120047204.166756
32892815.293627
SCALARS stress_s12 float 1
LOOKUP_TABLE default
-28385705.517764
-12658745.002201
-806441.661072
5939084.737493
-1804258.157486
2878831.282792
5642389.163954
-590598.686086
10548552.967428
-207346.575685
-36069.899908
-324972.141337
-12181.543812
-25326166.974817
-6705247.031764
-29915160.031991
1211287.664147
-20987576.567792
19424.044548
-22920204.847086
-19452.309467
135001.479576
-3959141.985454
-326361.842726
-4818871.323954
-389434.680400
3586515.680654
1740374.532072
-6544411.967141
-15753807.733876
-8126792.367715
-49337.265311
633789.834363
-29057283.103593
-2699233.862526
-1116306.019494
-6743410.175887
-211979.079884
1173775.090409
-255626.925772
-1349915.324000
-801794.815334
7768.484067
2023241.371084
9251988.695195
-2437503.504158
-2194895.705907
-1538635.048728
-3749462.913077
-1299238.056067
1745215.105102
-1392404.307074
-4352582.298770
-485668.129413
-20155145.848899
-1440994.359344
1463935.146022
-20647564.758827
-6657786.413719
-4576515.397092
2644897.939243
-9908861.057674
500452.325476
-7597067.328289
-538039.753252
-473580.498386
-1191829.424950
12114089.911338
-2298.414391
-4833821.219672
-4324070.009823
-3752329.586461
-3588854.230042
-1902740.155298
6627461.372563
-1626239.293972
-1672887.893094
-782959.003352
-5489586.624602
-70707.917247
-7277927.481498
-438704.301463
-5312669.845399
-17819570.680096
-12753438.289611
7371776.717104
-9468002.702483
9512216.564248
-18773123.422806
-15771845.930390
-7914957.021066
-7939060.828708
-1255608.420979
-12929003.458085
-3690052.100520
-17351468.627307
-955173.986917
398007.516980
-2999173.664021
-1642211.571152
651112.538308
-3041713.468147
-5616588.273439
2029007.310845
-61432.678735
-1393850.257435
-13369005.035619
-15649345.098417
528614.877715
-1233820.821025
11149.757428
-2990478.238407
966501.941069
-1717396.111679
-6415657.219681
-28103180.213748
-397818.578468
-27089944.568811
750644.263967
-383228.633050
-4515256.513813
-510800.629422
-30090447.036833
-120982.265157
-383752.063462
89791.204574
7897340.219482
-3083633.797693
-32508.094357
-11026.819297
842515.780716
-4879466.038938
2118797.296254
20764.362402
-9691093.557589
-940985.006048
379750.173540
-1308618.571899
-2686483.710664
-1070469.227886
-6843180.473460
-217672.086909
-1236099.190831
-22653116.223178
-3863353.829831
-6735593.266142
-17281058.416404
7862373.896515
-27826702.822619
-24641009.708683
-466917.980496
-1168700.972540
169135.302081
-46926928.808283
-1233921.125563
-27109848.015317
-501222.058745
1179772.856267
-4394831.716677
2497493.740707
4249185.424195
659209.931224
-758804.029945
-1156764.113847
-4654332.698142
-3215441.159823
52918.577303
-10482889.258695
1909343.861651
-2451340.585114
1890916.611460
-65448.606676
10090374.855921
-183864.846638
2395968.548221
-22278717.750743
163977.549440
-21865156.597240
100404.397363
-79877195.770452
2193851.821898
-6076689.397714
-47543351.839060
-7501960.309858
-943760.885502
-937314.037493
563969.446519
-1016679.930144
-68863946.450747
2237932.619514
502709.152430
-2924374.104172
-12497407.886725
-1307921.129550
1048498.016927
-540639.706894
-693826.972004
2590782.998618
2878660.162061
93769.795456
-392673.562684
-331527.722120
-7993700.962745
-2617127.721512
-809377.009669
-1603874.460526
-45212606.925728
-5677775.632128
-30320175.526091
425866.892229
-74838050.492199
-428465.949085
-1106468.931869
1601229.591650
4410207.945473
-29616064.916626
-65530.854443
-5736215.920375
-442334.778239
394698.827919
-66278065.846654
1405078.916485
1116682.263104
70438.993685
-2051903.828134
411296.552976
371004.098244
2750908.202821
-659487.866210
6613145.542395
-10809732.631442
2607386.225238
-10887046.433233
428.641845
1860006.863782
1718000.912491
-24139269.088689
-45169058.638764
-1174654.841484
742727.085514
-3669420.046173
963036.256526
3222845.206682
-1407467.214190
1745822.909852
228335.252094
-459479.218071
-119368.325896
-78691.107966
92686.189175
-1140219.411047
-82240.533302
-26951474.843461
-171678.121896
-15576542.276985
-16363919.198899
1537773.910476
-1157649.996575
-275488.252601
-2509467.315426
-1780115.313630
-1075375.905219
-1125732.393342
106802.184787
-1020491.015020
-17446017.110099
-4576585.006090
-232907.468586
-25399012.720388
-3882154.999218
-17509738.493375
111814.968639
-25857941.076195
2169121.549624
-186365.126474
734796.513923
-810763.224479
8933329.118846
-1695672.797145
-21883579.284860
-26398530.299459
-6613025.357929
-23379668.621126
2390780.415221
-1481404.597130
6350668.504683
6878222.584308
976788.784138
-185551.706868
364446.863156
2997229.316435
-219264.563156
-976863.392216
128140.895622
-5503486.860749
-22910221.335010
5114041.642726
-15105812.375152
-606865.280881
-29981577.295860
-7130309.266491
2862150.702524
565996.807787
-185017.238057
-3852322.503489
31995.930303
-35137260.491150
4491639.781818
-3224491.995617
-20124148.010015
786731.368910
111007.724876
-30767651.497062
-1390697.337942
1100765.571242
-3159227.906610
-1356248.060676
659923.791790
-2159022.847910
2730469.781424
-4656185.594608
7233186.012191
-289450.828902
-202234.778997
-3549505.249296
-45953623.564894
231358.005526
-29886925.530177
-1106946.461312
-20837594.112197
-7190674.332865
2504679.362127
-2670763.812034
74238.663389
-5233211.262382
-5715770.513736
217436.092297
-2925442.285457
127482.584067
-52020575.709382
-22239560.282633
2626151.062075
-29230446.216121
-9466246.182468
-18382536.966098
-20958072.188879
2274939.490818
-168774.266555
-10461284.203104
-46253587.517547
-51792.736868
-744566.697392
2610051.786585
-2617713.750986
-592738.863243
-7093834.512718
38893.332751
-3906628.668858
1969222.673165
-70399318.125022
-452288.952108
-2639887.078724
-764339.883705
-26205371.978667
494883.299845
-179014.886759
-1758459.304780
654822.465637
4281239.500394
-2220040.319344
6000829.925381
142048.551097
-3222475.288477
20548.325450
3242006.595874
-8476782.274998
-2027666.613428
2064908.907715
16250.897636
270914.779491
3556800.217452
252641.162363
47272.015523
2866182.319672
-7775398.306003
-12236765.104597
9325117.383396
-24394338.812852
2524161.451551
-339113.615054
-4937102.138505
-6433332.442510
-2741723.911918
1817395.361078
-1617129.152062
86111.450894
-756641.811381
113723.791066
-20854825.144645
979282.612775
1528633.755293
1559486.018663
-418405.458901
-5346004.500966
-158837.340778
-1303579.420120
2049889.472560
-8205.204242
-1518463.938333
-133917.092449
-4332709.901481
-3990788.819603
-1294725.272222
-3766118.385910
-4894653.101802
-227295.604745
5258252.077642
347342.162817
-185909.985444
1395844.928005
647946.705213
1085528.242688
-280373.636050
24191.072707
-27725443.746927
-3507997.035462
711721.968878
-590134.011698
1077225.551478
-1367212.935116
2534123.242283
-2434470.277061
1090873.929853
-10324648.790244
1081595.290839
327607.073978
1073815.787508
-28217033.414028
-3697948.571799
-439731.412823
-373849.322653
-5851848.215181
8103784.134515
-12411969.879547
-1180002.011201
3568179.024507
568244.115968
-758494.343815
-5129705.474724
71917.126617
-207192.742686
-542357.980066
-18040018.257081
-22034962.843550
-10984530.582438
-49416670.541186
-19995114.178120
3431578.324158
-11876589.517430
2304576.217184
-25955311.924529
3377529.811053
-1280654.193723
-57386829.739124
-61533058.232258
2623785.690215
-11583877.193015
-72364348.638916
2310575.330018
-4559057.372931
940549.557419
-196642.199046
3635075.033750
-888011.715788
-4761269.522671
-17663349.790431
1122109.140549
-4391595.957749
3962090.003598
127227.234655
-2152738.526720
-28378718.648836
-6934387.571365
1952903.229777
-167754.431745
3454185.536607
3124314.211614
970166.307359
3651008.596493
-22254464.356546
12326149.973621
-23416249.087492
-59075072.713921
-13433311.459539
2136147.706444
-141278.314913
-927200.961790
1321947.599024
7215975.742099
1820972.193921
-21644528.683234
824930.992428
-27511767.640635
-626147.011338
-66290.477468
2124289.745093
-27686077.327466
-459189.168000
91825.005319
282663.690448
-18480738.112379
24629.435250
2482197.543465
453279.085085
1678051.626456
3355690.661637
-4559229.200657
365948.247816
-219858.123884
-75138233.301914
-68376941.852088
-21915514.447617
15468.672291
1800927.606754
-19533801.852816
-17225043.285621
-6137716.191757
606226.361167
3077492.968712
2431837.658641
-6462242.853582
-10239.830701
-22857109.808922
-64643857.356112
-24856607.540992
-15483904.947882
-21558176.512564
1781498.641571
-11923845.369361
8799608.231564
-1672299.863015
-7639279.934094
-23767266.073664
826911.847126
-70166019.678036
14444.463284
-159762.086701
-25331486.966082
-4049534.461957
-5601656.167319
-16371.617071
-35744173.145964
-28390025.766583
3011930.483572
-1759486.911174
-10596199.187253
-138081.636390
894929.732593
-12091778.588902
8859494.192695
211305.164346
-1327726.177382
1450686.470847
-7606466.006432
2458133.504347
-18442523.752257
1279024.704837
673839.876694
-13240179.781779
-12893476.802873
1895773.580183
2454782.640192
-13671882.455389
-11877948.199610
-22808.726689
-4461004.582189
-30644568.428889
-10466102.112428
-24980696.777869
-472520.873487
-173873.283819
-19946732.979533
1433687.551237
1478860.959729
-9267718.573254
893431.469807
-18405.619379
711779.065375
-1339513.685723
-11843588.019455
1810305.404410
-8109387.083869
-7470466.277410
-17525.205839
-919129.239806
-7311529.311488
-4958394.181897
-182661.471341
119511.663810
-66708689.729263
-19570467.926850
-36685.679337
-3380993.859298
58750.138516
-2177088.295960
842631.439276
-23602938.422441
-1105780.856616
-233240.249060
6367587.204073
-223004.496721
-7517589.737499
39041.036994
-69392852.007943
-26240635.794157
1053015.695030
-651777.818803
3431592.768096
3555280.628323
-10481022.549730
-50694.376969
-156656.095785
-1836762.561260
378965.158577
-2693509.140399
-718857.678959
-27421827.488537
-22415407.483036
3973945.971875
1453045.335423
3387750.134207
-1159254.696159
-4517626.283322
-517199.552501
916889.677497
-10106847.818907
-30075783.622468
112658.433878
2069.867139
-419760.381877
-1725845.971217
3210137.309820
-750013.387640
-1768173.426081
-2647926.134550
89774.308637
-621167.788501
3494234.688967
418475.691970
-5166896.293308
-3976350.926380
-1693736.684603
421073.032560
-13238365.681236
-22645038.387416
-3616115.665416
-1875358.138076
634048.415675
2635498.686992
2124428.463355
456912.915583
1432160.642421
1130612.863836
-3282906.395340
357328.558037
-1192872.750088
-3631517.302841
-18345629.878179
3841596.117966
-1686924.456545
-22818730.923855
-3840995.273085
-26671455.849672
-20726925.250892
-33479.237445
2773327.146165
-9937698.497392
-6401903.459718
-26317036.945384
-26062729.843906
-6645861.371763
118611.216251
-63327.943656
765103.122299
7378.577866
-26514.568206
8110628.517289
-6142547.034869
932522.522894
7858463.671334
1155945.820305
-21062556.827665
3859749.338410
-683853.774166
1865442.813494
-14633206.316501
-6253288.301497
465365.627727
3806242.973942
3050512.731359
-23975897.574448
61650.993244
-49109864.003697
-434860.240021
7711441.468509
-9843047.994682
-9713253.250791
901906.596319
-492765.586160
-1664284.501978
-19027431.020309
-359868.156133
1333349.741627
-10321562.123980
-75182571.654238
1815756.141558
1848872.698481
-1702177.386670
1073108.332809
418925.638929
-75447461.064979
1912185.918080
1525426.382303
1780146.485769
5414203.387085
90369.364471
-1705534.594382
-599074.511553
1165591.026870
8013166.035621
-7942055.731401
-61742908.002208
908240.776814
227891.512163
-20187586.232909
-20076612.410425
-32696.726708
-2585636.326055
1825875.464260
-23291048.663163
7187816.339025
339990.332723
-10127488.337170
-12667682.317823
-21190820.717868
-8696747.362264
-540830.504632
-550648.231221
-17731339.178231
-3641339.839808
-21961205.440760
418284.265018
-19765805.604314
699384.357222
2149600.471301
4515164.899113
1567405.933955
-377812.728549
-181760.087240
164804.987213
-407406.182588
-13278893.685776
-649225.255833
-44633523.324284
-1027325.651570
-138628.910133
-644216.178451
-4306205.464402
-4019671.088761
1911074.681215
115836.606492
-45921.600456
7060742.705662
378209.417377
-536199.875812
9887.397721
-15617676.869653
3856785.048021
490478.854228
-601113.214129
-4902285.446888
-988422.358196
-14241298.661140
-8660858.525583
-123204.318976
-64810372.164812
-6944166.508578
323007.125855
4144626.870560
-2518255.457234
-25287534.885936
850091.054558
-10217195.893032
-54982239.369835
-26938771.788371
2662125.964630
-114527.562479
-12752066.336173
3292158.238346
2727817.176978
68768.715304
159774.834067
659643.940961
3502.424154
2733742.622017
-2131353.068164
-1846953.310309
-457621.776962
2297423.507076
5700678.740006
-94424.483135
-1118942.948785
2060747.384792
-5180487.390679
-21844553.116129
2515694.958623
1782980.538103
-378312.605767
365429.176785
-2081034.818703
833698.010201
-492788.250370
-23199876.888842
3285018.537823
410930.456857
-11643413.891586
-17847621.861280
110179.996260
-1778192.190612
652477.521802
-685943.878424
348152.833550
-12324851.359219
1864164.650914
-5527845.794602
-30293285.783761
6750888.296514
-25435114.697324
689460.222888
-5400659.657356
-1120709.582346
90577.553888
2370490.734294
1551506.744849
-544273.028122
-21209310.578356
5084752.789587
-10108118.847746
-68304988.832380
6782587.039174
-4444348.631827
-8997789.664738
7442222.040237
98804.628468
-4652405.934599
594508.033053
3232.085195
-18640654.141919
2813274.839298
-4002824.245159
-262901.165931
-64309399.238158
-1148019.864837
-4145962.991323
5508836.522202
-255846.411962
709800.454989
-13551438.723784
225225.941260
-834667.520305
-10503978.790505
123637.340037
-30924244.287706
-990358.771017
-28487484.318131
-32450631.525649
-12937683.686896
-5993888.401812
-9232263.665393
2203794.299046
5220074.565414
22483.836167
4719813.073011
2048528.619794
-12651423.995784
38535.590650
-22379739.985365
3843434.085487
-2764681.227031
-22224367.383526
1602296.058685
376311.053714
98667.326211
420335.324772
-70337068.287917
265716.085796
-393537.522318
-220655.777594
-12333258.174839
-8658717.431983
-2810847.848022
-28031710.414656
-401893.711381
2064108.165256
-23490.259098
-11403060.960963
-13274530.192725
-23027085.262484
-6474757.277360
33278.210336
-1589421.331143
-736366.372247
575997.123463
2295415.675088
-6996801.626853
-23835.937965
-17101815.587467
-17375713.187370
-3120253.801062
-19973706.553512
-14836058.679024
-3843743.559956
-16009226.555160
344488.575494
-10769237.849403
1920775.638373
-583135.795534
6328281.861685
-29942825.594032
1917389.417100
6834725.132322
-4279449.773685
-21184425.215712
7169100.212377
367600.303648
-498688.207582
-1907414.769361
7593455.903078
-2424312.318893
-56131925.774177
-43698359.002245
1070885.482074
-6938794.713348
5592375.587451
-6668717.293287
-4583646.208904
-30708258.887826
116408.921760
2174047.198835
-17547.610741
3772518.940983
-166413.444332
7403147.936202
-3867052.114045
-27269472.487578
-25320.850835
-27946521.974522
-929497.505337
3228962.390153
279860.149853
-166715.378047
-289116.105267
-2008512.199341
-1684423.854498
2057281.769083
-11757047.837590
-10222481.135382
-308017.942454
-165044.506059
8378571.553902
-10890494.041899
2571279.020391
-4536587.904529
-702807.143197
166687.230904
-58693061.744824
10003138.201001
4003378.625449
5843638.744668
-8356238.895878
-11388942.835899
-5278484.014781
4238130.409834
3813504.383935
-10673656.202205
-26645052.321915
-22498014.020243
1718217.375375
-5728446.824004
-390028.948880
7876051.809801
1306429.824867
5647579.481120
756580.425019
776020.800255
-913609.170608
-34355647.269785
-1096436.090295
-29965551.758340
-279238.240328
7229892.891969
6639919.069824
-5105980.610965
1144224.249308
-1049040.149600
-5852262.046379
126646.407270
-1868489.970500
-6564144.957053
-12395334.215875
-13308633.091349
-13172132.975256
-8806273.420830
-6733439.200962
-5535800.124374
-1070788.539451
-54321989.654576
-25198437.709375
154241.052796
-40993.980564
6090880.241126
-14825284.940527
6424562.935887
-93849.013140
231295.827138
427783.847971
-3481753.254443
-29839707.845487
4928799.169541
-26114.574062
1847080.421718
758470.011430
-15311723.401619
268909.141935
-19449829.040461
-44278300.432190
-27986965.127132
3541937.332980
2594653.835386
-57809975.636389
-21369503.986839
7194571.391873
3315310.781769
-2708669.857906
6259998.648635
62492.146822
3353856.442776
536203.777827
2664528.461231
-12352182.786914
-748066.486859
734909.306043
3429449.940818
310520.747333
195939.491151
1358312.310404
4196917.347592
5016458.531582
208348.048693
7697573.243609
73551.201691
1296764.621273
7784852.545339
-25372911.627560
6688170.943591
693571.798579
-160724.077788
-27164.882454
-3527906.339791
-18916868.261085
-9590370.614773
-17216715.371699
-419697.128490
-643206.176564
2398273.376765
1815700.427540
-548418.956461
-10543434.351700
2050848.759336
-1341570.062492
-25615988.792165
1712893.235759
3310077.304598
7483756.991909
-362238.641828
2564968.392096
-7761392.206184
-10228842.082559
1025040.258043
9979053.148660
-1982644.562638
250164.050569
-30380083.799770
2735561.708441
-28887840.553361
1816868.061820
-2744722.286440
1865274.628594
201411.830616
-296635.488993
-2760485.533712
191307.776414
485912.306167
-5973246.739305
296250.382381
-1426514.118719
-594404.366355
2125029.194180
-4649279.986839
5867266.256508
7127380.427647
-1415408.448189
974415.575892
1356008.052828
-60452157.419532
-67307589.821729
-5351197.283741
6827955.319145
-24692642.915890
-651060.315158
150553.688420
-3397325.889043
-331558.721107
-28280729.448024
268836.328352
-3230115.047612
676211.750137
-8133245.019578
-55827910.276260
6353249.794211
-43057.955324
-596061.529396
-395675.735330
-1401738.744571
-15206533.539199
-11963525.191760
-31164517.009519
-31003388.602119
-1618385.217259
-2849938.093662
928352.182765
1682576.113677
-46281755.472981
1977679.936622
3989457.057438
-865410.716246
260813.506583
-111149.788579
2048523.390634
450935.233063
277376.469559
323277.117329
-3506702.998776
-1180347.322433
-15717472.546687
-5582515.417760
6819826.506765
6237174.925974
972814.053918
4250500.485386
6694166.335772
-179193.816052
-22886623.536316
-30848734.329215
3854075.757148
1508040.587767
-4492565.640885
1357010.550837
4755933.774626
-834506.606885
-8373812.681530
42550.097335
895980.485609
-963135.878084
-42609945.055985
244232.255513
169660.319467
3980436.933444
1237347.421543
-2417303.984693
12862013.395248
2135849.671957
-30955114.803191
-51415301.034559
-81341.525991
4092980.702659
1486533.106901
-89819.189280
1301570.977545
-820134.905676
-29555557.991918
-27500030.042502
309259.166589
14342538.215650
-4874417.438996
-414530.915361
623402.486263
-125671.693945
324790.803135
6063139.353710
-60350637.814163
814039.307944
-1201555.015942
-7556730.725232
7833249.057191
275684.251311
324571.970571
-25515252.691387
-314397.700434
1048787.569354
3343330.663506
7348256.746609
-11806502.336217
6996353.837205
-285606.803630
-8163005.953356
412179.137589
-948461.925279
553954.869137
11947148.943442
7732193.821409
7254651.010775
-22060004.760762
-2882328.271986
-864808.450016
-6411495.045489
-22150960.007624
-1507934.359821
-2462765.030540
-127291.365487
508.737626
389275.389119
-328134.314135
-3778761.278259
6341613.642137
-26224099.027501
154919.882542
6772242.310498
-565593.372474
-100066.169408
1981319.214324
4104713.605446
-4044071.063473
-260430.118310
32849.311040
-4435775.024869
3222757.289818
187622.101424
310921.757812
6193267.361918
-23348326.986965
-245517.650682
-728242.881501
41013.072674
-744415.056214
-834163.021363
15142914.515204
-75457564.289175
-9920332.304302
-28246670.220703
-80747981.280999
9098584.858669
-11308720.629422
-17398037.506462
-77030372.516398
1530552.211036
2867568.637844
3378455.033597
-811121.670194
807057.118273
-725649.317461
-56585.122511
-2216329.815240
568896.174035
-56734.752258
-23086931.847383
6261777.310144
12131383.620410
-341290.280685
2078649.925498
-39485555.625513
221123.333997
-5123263.033492
-10063389.909350
1178116.698474
-2379318.853032
2782436.152822
5462255.267053
-96775.280551
-4773403.243453
303202.794501
-9992405.819812
-86057.903102
-18780246.959187
-70268652.821418
-60770.390431
2155838.369997
169832.803529
7579038.071723
-73384.276011
-34412485.957521
-61074718.522726
-1721122.534338
274847.427279
-10558.477907
-27987373.897466
-4386347.822583
-3663820.720090
213661.101599
72592.652843
840126.342271
-4603258.464168
-19098426.095969
-5659261.843240
-473374.977487
-4354178.710700
1588526.255151
-374685.055150
-1790526.935922
-5909217.593319
-803502.232749
-1288754.768827
43892.081324
-431498.289253
-541080.309999
-8528964.733486
-652606.968075
-3703754.652355
5510848.201314
-3792009.815417
-3898745.257046
-32803.843597
-5288.217330
-6467794.652459
-5422876.150212
265360.204353
1538913.378894
-23122964.119225
-13301.548701
260505.789974
-18540900.167775
-27892.712196
230679.882449
-406473.170808
-641094.597071
-5063.958180
4571454.415681
5496423.852151
-3874587.959003
18005.947221
-17319494.194563
1438005.279422
2859653.947324
-2623254.074488
1235296.293738
-1161808.241640
32045.015809
153260.263483
-52958717.012184
824716.609781
-12645559.482211
433808.385529
60884.114841
7696038.338301
7510633.113053
-8371058.502668
2289582.314431
1531628.364165
-521122.646067
-9837591.534768
7939994.114720
5166.689137
-1733302.653232
6074798.656603
-71507724.096230
-25709496.048085
3100565.349110
-4301133.571694
5049843.318011
188373.309028
-4934889.533543
2252574.515570
323892.237683
189468.240347
-4272774.648679
7235421.127539
7533760.815074
-425407.862505
-186397.420850
-21445518.605893
-665436.318376
3880753.829456
-275110.102418
1586539.070382
-34650146.561632
384564.280616
-6551.873361
-558.249694
5320093.726208
-5761534.491312
313651.885947
2323747.492810
-23351613.175355
1976296.332403
-20708418.397549
-7685590.573437
-10364.033806
-3738979.894862
-12587563.514154
-70174906.946563
-2573402.588006
1105959.037690
-35621.386786
823187.027788
-3946153.300212
-25650011.027816
-24563480.987537
-5964771.057473
-314705.423891
-27763498.001012
6220117.286986
-27550743.451823
6628821.504529
5032202.525616
5087335.527788
8135861.554786
-52359972.516038
-30115348.191648
9584511.325858
3358344.429610
-1792871.068829
-79102842.231529
-108217.179500
345687.388212
10945172.010377
-41767911.320748
12118733.194456
14485058.905315
-348948.348432
182266.930141
-10432.422009
-7227705.257354
-51000649.837933
-365836.126425
10250.724301
-1174350.224373
72981.142211
-13994012.634028
-1925.471171
16261721.655614
79147.932544
2651430.668147
-261872.555332
-53229920.973399
-60178292.670704
-2989831.309736
-2564507.023359
1017443.562513
-1241999.236779
-1028803.525172
-16595902.713530
-7884087.392653
-8747714.413949
-62028.574802
-46283.602174
-292673.827429
-28915116.163741
7065203.126621
-73137703.660834
-83512775.003134
-29824257.193210
10155875.428811
-63928845.371471
-11509170.678598
-18383842.504144
-80246303.550921
6985132.590797
1966603.403190
6245704.441016
-100165.890542
-121370.565611
1869395.303730
-1946.087362
-10791.306824
2262134.049180
2884802.720467
-10356324.804130
8661474.995747
-57316454.086854
4493.778040
16964616.746081
-76496333.230363
-8610949.707709
6226157.500459
-5935.265057
340168.742222
-11378649.873775
-1179621.860140
-73846.293047
-67658182.604443
7753147.160845
-23827602.753227
1159285.138136
-3913.308836
260003.154596
-151081.577757
-349584.156704
-5515803.634354
-25447072.541781
-83303.021321
62908.033328
-1229309.577549
-846.306112
2389293.165566
837433.218355
-70991789.249287
82134.407425
-954096.302466
381494.572115
-27629624.917856
1459991.163168
74563.655641
-215006.226500
-111005.373257
1852031.696210
5536767.508382
-23981.443301
-1562781.491767
-26179.497018
-14361.564962
-27514631.694007
-26798885.088723
-1753.116373
71547.118357
-17223637.446370
-356510.997876
-18531373.658253
-140770.679317
328030.340519
-406459.653708
322896.518306
-736224.794662
-71713786.619707
-69158.723590
-17068436.926061
383831.469940
-39251.465858
-7117.549087
-29562325.599002
27559.383662
3739849.384782
25635.442890
-247985.055307
-114697.180679
-22895385.724852
-24061251.581324
5534655.474534
4370830.700135
-5234839.296510
10720149.962460
-3120.814741
2989803.376463
-17253139.487205
-5982683.053292
-5490462.476270
-841155.412565
547320.871464
-18189255.513060
-75112649.625496
-83089478.145133
-50935291.972667
-83481654.464825
-1713371.007130
3427979.573699
1132178.764920
12685050.240064
-82554179.867387
-7526437.857859
-83234059.557058
5432416.244752
-46555886.093936
-54308629.577185
-4561064.721097
-24615595.606628
-83110922.212463
-83346068.999807
15037530.815430
42464.226245
-6422194.510046
9004.934637
2356575.639273
332301.191258
-16368075.820291
42143.186034
-21900469.446868
375140.269652
-16821753.623500
2283189.608002
-23943157.931567
-3349.863108
5010395.658373
-554654.148714
-7367377.824948
-115199.925651
1472742.361380
-612737.990719
-25971574.169000
-54140.127023
-5550672.095266
-59713.841251
-28265299.070518
294881.780217
-4295373.660733
-15217425.708320
43297.452085
-27628294.513808
36025.352023
-51915638.626442
-2305504.156312
-23550190.583644
11204.531107
1911849.018308
1181354.028259
-22276593.013069
-3647.325553
-24518799.999962
1073806.003962
-617083.418179
-11810.746601
2549718.031802
915535.947950
-30548123.309850
-753840.067164
-68253.011540
92792.426529
-147912.743974
46922.893605
372790.890154
-20395059.279121
4555719.262685
-2049.746796
-832907.340470
-5279.578450
3931.869262
735892.400555
-10735149.295795
7125466.495971
-583979.852655
-18768.871278
12034.947498
-11397694.213795
-9424086.201905
322799.274062
6202.784344
96147.551384
1489923.301370
-25260147.282644
-41086.998451
-11100976.604445
29779.191185
1064019.003889
7220824.401284
-21992783.937852
-28204980.386877
7432877.382642
4320267.993360
7056736.221226
6805432.599857
1093089.770503
3385661.934968
581614.675604
3110076.394939
-8302714.765889
332114.633667
-3474715.275551
225063.742835
-12224802.274336
1489257.745199
81961.530784
7190478.262222
5273923.275479
-461221.768497
5330723.269151
-473987.907538
862825.933578
6194017.130481
-19806.391303
1902.375264
6542924.585702
2768812.201560
3190618.886799
6406513.254633
6830064.313826
6539606.471105
6911323.593053
760778.325216
-186781.801601
7373914.548519
5151303.659378
3565561.660700
5736162.618293
-10074467.812798
-4919160.467728
-710172.841473
-6942899.431689
6051622.268817
5423126.072281
2717240.740545
-1412298.734032
4237010.091675
5933340.278951
-10384158.569635
-8048343.024578
1545490.263323
-11348253.189468
6705185.811287
6985769.086336
4409452.474336
3518607.432495
3408251.363681
4287418.597659
-997538.372786
93.013007
-11940856.992372
-7670755.497255
-227568.631382
-423864.569306
3270184.629242
-10190154.472431
-99068.931407
7366115.156654
-408699.274745
-1308062.451509
-11877911.993655
-11003703.327021
5225782.781162
-10413052.456087
-11119612.074773
-11384755.401324
6665230.827019
-865659.129067
-835511.397396
3083836.386049
-66027.956365
5291596.277566
-8604488.252709
993883.456442
-4437862.082354
-2129.002956
-1052.032438
2530917.815185
1079306.877690
6378756.912150
-2614856.129727
6012934.846424
5544132.575384
-3954458.605929
5986329.349617
-683363.343590
-23217391.641855
6581639.726782
-13515169.739652
4068232.436853
-2155589.042509
6323103.140798
5730674.156997
4742614.632201
-4675674.493433
3926858.001772
-13604419.017600
-4173383.926420
-2208840.764129
-13189733.055112
386126.841211
-21326691.022007
-2712428.547919
-2681166.869684
-1415599.220658
-3997438.548310
2109.054891
-18979616.519350
-961443.646554
7350178.138675
4956419.231734
-3204190.611575
-1317780.573383
6714925.739974
-1196005.324939
-1322773.877491
-1296919.145820
-1511538.734508
-1126064.085471
-21089702.369349
-1069345.424693
-1057123.113432
511523.897397
-1173333.030987
-11148858.425270
-1198478.722715
-69773.025896
-814149.915497
6338990.255041
5863515.111156
-1249368.608518
-979382.994823
5212309.417261
690709.988804
5814097.419940
6497082.150142
4526844.757356
4980352.959321
244985.071225
-1034284.008230
-4792920.191191
-4550831.771900
-25875891.554287
4451748.278899
-1122204.711101
-1162605.170516
4920682.809937
-22789606.484177
-893895.758679
86227.780261
-777875.527809
-7954842.131621
-879112.322540
-1301413.057713
-7369141.137469
-20636802.898462
-8093310.953364
-7477919.491482
-8391819.734665
5827289.498953
-8901374.525633
-8513273.779597
-22612453.760692
-8712835.952771
4477842.830589
-8830768.257848
-10171497.421738
-8792005.133666
-23991174.431323
-8882090.187257
-9506709.810496
-10863408.614210
-10138609.000947
-3995248.364137
-494382.618785
-18577318.414841
-1683193.468907
6606152.412246
6031131.359279
-8869539.213456
-9425782.715398
6647508.570067
-22025685.551589
-10898769.158716
-23823554.468394
6341565.036528
-9501695.613655
-313997.825599
5542692.420336
5772042.556398
-330741.134090
-19172461.622736
-20782660.034420
-1506803.729754
6878298.872991
-24733772.988028
-1495123.267994
5106338.915960
5713375.420748
-5332598.714996
-218755.618998
-570883.011166
-11708166.820156
-461053.045357
-86702.946535
-65589.290299
5321774.935801
-24426220.858127
6774592.026124
27958.794596
-20492640.513972
59909.306253
-16624097.762105
-17391136.173412
73324.611785
-5621653.493872
6301929.725414
-215808.760886
-83663.390757
-15875963.266190
-18031891.302333
-16591948.531214
118955.444812
-18709996.679367
340587.040434
4657245.704788
-7903083.622273
-17005642.813303
-19052699.281603
-968993.113061
-17678813.199607
-20749775.987305
-17695976.081455
-19745071.987026
-18304149.843721
-8366430.508199
264261.184458
-20438683.897187
-6563138.313652
-7404049.779224
-19995153.155465
138405.796457
-10550927.866885
-99498.457244
-21200059.079382
-19760426.193223
-24872455.217486
-19021062.827878
-21233963.177612
-13447057.552498
-13841128.628525
-14637974.350125
-14998176.492932
-15853858.740249
-16175884.160711
-31293676.319222
-32509568.683279
-17087104.612258
-31355836.116129
-30194392.662826
-31487607.684118
-32189352.688885
-31391084.671530
-32048082.500547
-29161153.880821
-30521836.903969
350852.068701
5914575.988692
-2138261.962649
-31401081.198877
-23491619.127020
-20181743.962279
-11613217.707036
-23231897.236137
-29865854.694215
-23248093.373837
-11163446.838853
-24392612.987068
-12711004.987321
-24346435.693368
-25508078.018725
-25147780.441898
-25397324.586978
-23293342.168070
-24321160.556854
-865222.902169
-20813443.301020
-26568772.686200
-31811915.437359
-22111284.839921
-25738320.858787
-31910738.975426
-23076620.513639
-22245559.360104
-22190786.129194
-26215714.769774
-23542803.570521
-24251639.072539
-18314676.266601
-18836372.063582
-11715225.646910
-20001152.793946
-12287363.031145
4915739.458951
-25187493.454475
-23988023.174684
-21270366.829990
-21825466.249284
-20984955.905471
-24763101.332614
-20556140.893940
-18271293.656307
-1898376.552258
-28491874.679963
-28181087.915886
-17773174.813770
-20801601.136175
-23239270.053711
-20325269.476476
-20120410.915995
-27322305.076617
-13253335.444826
-27565960.933200
-26392002.589352
-30775857.501689
-19840107.178178
-31319151.978434
-28961929.493197
-32772527.798734
-29339300.266366
-30102300.692922
-29659416.258086
-19676030.247581
-22819280.140688
-31242843.395112
-19344236.038900
-30269085.501775
-31095089.004395
-31540720.445069
-25306454.526645
-24596727.256884
-31762804.079540
-20866465.089768
-32482866.362061
-31953246.754121
-24430595.085827
-30529301.837017
-30004871.541828
-31903020.164172
-32472490.815414
231217.103701
430777.188319
-32244068.141651
-32130199.097054
-25983267.846864
-30698042.949863
-24870334.575767
-26838908.718278
-31535819.642171
-32668134.719065
-22035567.512682
-20945655.637376
-27863763.733553
-12983759.197681
-28452255.250344
-27675258.812725
-31757138.332068
-18753351.056402
-23157451.298051
-1946935.859653
-28832902.921931
-28697743.890213
-29608469.108610
-31114788.850269
-23095021.312214
-19139570.904737
-24941481.692289
-29407991.515938
-8535178.408814
-26164737.615549
-22644524.399659
-17257357.899519
-27995136.543302
-8533967.050355
-26341492.132867
-37094936.030631
-10606911.340821
-22756293.401380
-21828252.232620
-35981356.722917
-29122045.361192
-190672.503376
-22604113.768629
-27678089.557420
-22139756.048850
-11862145.187986
-40050089.497869
-22453960.887610
-24147697.793373
-23694875.494202
-21408475.061732
-19220872.101160
-20330671.158471
-4712679.565686
-22781518.956782
1597567.993811
-2100642.356150
-11864063.659982
-12709127.742309
-30377803.430326
-12364382.729952
-25040885.662530
-10078056.751095
-22331724.900686
-4138822.043633
-25996385.135282
-12487242.166181
-27193167.356280
-13110478.312288
-18549323.239102
-34863831.778905
-17777798.695524
-3600070.815715
-13541381.222787
-12954002.180132
-13731306.901535
-21861474.894857
-14126740.309638
-14349952.141785
-7910275.980886
-20533996.225985
-10583725.841529
-3083884.466929
-21399256.284282
-25006154.555398
-27103137.399601
-2563042.667569
884656.628395
-1076744.636885
-26846357.384848
-9130606.073211
-19084682.363957
-1598420.396623
-22332835.671981
-35647290.085663
-22319669.451918
-21420574.674991
-23144937.164084
2060895.104958
-15579877.687613
-1588793.067546
2422304.343741
-12828567.682837
-25558087.493935
-12262100.862087
-13989193.612032
-11973875.931917
-26349827.941012
-30725683.985653
-26236910.005667
-23916922.433257
-26969834.494309
4281588.965135
-17344523.180206
-31382187.713737
-30793770.523678
-18089160.788016
-30196537.400130
-31293468.720442
1164697.443975
-238311.437241
-25405858.260296
-24187074.352395
-25896557.735725
-13961891.896848
-24938574.118310
-25028605.292221
-16120952.317758
-32206983.832816
-30321318.896855
-36353298.939409
-13493050.088905
-20664588.907167
-25881817.665254
-22736318.341062
-6147637.283869
-14173935.944760
-28451544.638847
-8851690.344111
-5846535.012682
-11179066.931035
-28621545.907323
-32782453.681033
-27200404.693747
-31633955.284661
-17827372.584487
-16587722.174171
-205265.540377
-29163347.572664
-14376.739636
-30166808.097886
-19236043.833689
-19903269.093928
-17225083.026217
-12125959.890065
-23819340.012383
-23436230.972361
-26021078.254786
-25005537.390643
-32515564.080167
-31894594.509304
-26241000.942484
-11772775.717936
-25964826.390372
-16024842.408041
-36744668.998205
-13314625.701291
-32075022.796909
-237580.024573
-15523269.050133
-1291411.831250
-16697939.220157
-25644363.675124
1068201.740373
-6475044.323249
-9977834.021613
-22327427.777481
-26524858.064600
-695656.025734
-39167526.895602
-29404734.692005
-32741227.813370
-29814674.993353
-20471615.760435
-25794532.504749
445337.939311
-34114469.110803
-30100047.823787
-32196598.507364
-14710105.604542
-16188771.505728
-27344641.354446
-32923483.421281
-17224348.366254
-28793166.554244
-22340484.452638
-32645697.080232
-18791563.842392
-29497931.222407
-22380154.646324
-32393623.616993
-23533155.110804
-16449343.912386
-21103277.555012
-31800758.392644
-25127044.821041
-15871320.658870
-38640017.275147
-31874676.394482
-32007197.843035
-12229576.657729
-12564841.244978
-25221414.433834
-12756211.336373
-31344426.321648
-21231740.136105
-32139909.312178
-27376310.187484
-12135741.342354
-29266991.010334
-20849299.172420
-15291578.372191
-14655358.168925
-21534551.916193
-13264534.978877
-32823205.271890
-25922962.643936
-29309129.717404
-21839917.039264
-20779496.395940
-11660783.862131
-32881064.586899
-25091819.804644
-25814461.574370
-27718375.292187
-36262967.026598
1048641.075824
-33195984.120416
-20941994.581794
-31333664.188186
4801309.965704
-24735137.647798
-30444839.289593
-8252027.902345
-23487801.765525
-20736714.536017
-31126910.567564
-17213125.136956
-25919826.905627
-25909454.334461
-29626756.158224
-15343505.793185
-31678603.909988
-23464932.890135
-34605928.357813
-30990355.569839
-32424399.185972
-31816119.378210
-11156235.095430
-10854421.864921
-23341248.475869
-20189958.103040
-27152624.703477
-30389995.123519
-24304792.386988
-30887234.308557
-28331501.747119
-19266769.073589
-9936171.702290
-20721282.367133
-16846259.082299
-20129352.977028
-18788883.375000
-28250062.849434
-24749506.493767
-22004713.819087
-22848046.590367
-18013442.558642
-31788969.883976
-23906441.618215
-30768466.364421
-16375683.815136
-15784080.402168
-21331450.263957
-5268249.376978
-29965394.926907
-31222823.821897
-32944330.865196
-14330052.723652
-33914717.087367
-21920982.901268
-27831615.068337
-29872684.823793
-23147305.088922
-28668001.192125
-29790908.088227
-18687072.184987
-19355819.731445
-22872539.481006
-18351295.356123
-18203723.730884
-22817350.362927
-19589760.750860
948806.650733
-17701522.817398
-31385770.871191
-25655649.930014
-235085.594733
-28647039.208287
-368469.452409
-31615438.471848
-27827914.892163
-31357654.351213
-17546539.784018
-20396295.729522
-22661464.748912
-21733071.879633
-30298112.239930
-32883966.883794
-33802279.896707
-34897286.418890
-16963006.525281
-26308459.611852
422550.291813
-36525779.492966
-27823624.853194
-14851167.902259
-16833509.621429
-18131155.612839
-8785760.635480
-28166946.205199
-31516718.950632
-31898324.455126
-37425345.771292
-21912116.541190
1835024.458925
-6662693.583743
-25168849.992555
-34319544.929518
-32143105.014812
-24254835.158181
-33455086.771614
-26151352.653370
-19510694.898661
-12091478.200259
-11830028.636005
-24718162.776010
-16007393.059645
-9246158.253744
-24685875.791473
-641282.517373
-11870907.523635
-19827009.271014
-24092468.786016
-11442478.874227
-29023729.655982
-31523383.023945
6589962.272588
-30657370.414232
-19417440.138311
-16731341.273039
-12241122.695808
-26158749.753577
-32254725.443136
-30706807.187150
-9161294.601921
-25937689.941257
-31559516.241949
-9728723.991699
-26795944.956701
-6109687.055577
-12809895.626661
-29806537.381179
-26939537.874247
-12473343.730732
-1528410.329224
-18980336.530953
-10993781.286333
-35861062.458052
-31031182.012526
-29238920.746814
-25928410.356002
-11783998.140411
-22475787.654454
-29770930.827261
-30608653.624403
-28131931.453705
-13993733.109283
-32198276.834718
-13537031.501689
-18695234.051510
-16932817.954243
-16198531.228946
-31837123.579111
-6514481.905926
-29164306.849086
-9629975.503000
-22660430.480169
-18882176.671004
-24792801.666713
-16640211.965611
-29191039.922112
-33767741.893150
-295910.844933
-7732323.208661
-30180222.065983
-8870814.389313
-27948033.208908
-7176721.529958
-18362985.860308
-28215119.750539
-30573364.824083
-32023577.795755
-26648531.488501
-34462233.507683
-9363167.147919
-29767671.155204
894236.204154
-16191027.562941
-27585775.276574
-18245027.651734
-11597932.598494
-11227456.803156
-31178140.512288
-24468490.135962
-23034341.681340
-30931820.671737
-26504322.060743
-30530686.580422
-652296.905429
-17248668.768328
-32058192.012416
-1650664.904674
-30134682.928625
-14737386.026351
-34078593.594909
-31269208.268666
-5309473.682198
-8748113.629773
440814.001309
-1362652.767967
5992393.568587
-10485639.094658
-31074470.328223
-33598339.651470
-23686462.398907
-10165144.140729
-31845740.189061
-19064951.793941
-6217871.231281
-29009322.362801
-23074641.103556
-15154724.294034
-15705731.755767
-31641206.221384
-21188132.530461
-1003819.181746
-23713431.743731
-17747656.586426
-24029799.850152
-36751014.831927
-22901955.530772
1849267.951536
-27202815.209267
-21563901.007582
-23717396.807690
-14528207.786696
-13846905.000487
-14966122.334364
-2439397.404121
-9795893.006211
-36148565.930110
-28242699.814492
-17739032.942043
-15540574.045444
-29275160.114488
-36158488.040719
6069073.514170
-15936047.954424
-32640487.016202
-20981766.699098
-27141532.530241
-484645.959433
-15396317.641290
-28125485.742641
-17996476.823290
-1864344.582420
-25131170.422540
-21498904.037611
-16999249.687673
-15396085.792937
-62686724.662378
-21933971.413757
-19040456.786384
-30657566.999251
-25422677.148950
-19735372.126644
-10314742.242949
-30304655.736987
-1611895.510709
-17526515.452453
-11235194.142361
-25512105.658289
-16312467.644470
-27528853.423400
-29646753.043220
-36607088.591772
-8191994.362571
-29270332.331301
-11237186.977767
-25572081.624118
-20820567.291198
-22624924.622642
-26267280.054163
-15986990.023324
1252324.630725
-22321609.314475
-28202978.028441
-6985459.738766
23837.809722
-11561660.640377
-7299612.538880
-13272844.761858
-7316027.294040
-17993299.986178
-32076741.236960
128833.925849
-12997591.745902
-7566497.532720
758094.503490
-1148977.538666
-2000067.715112
-21022891.789496
-6526760.040942
-16799538.805763
-31941837.850252
-24814493.203468
-10574683.809232
-14629361.377140
-18509613.639051
-32601680.506601
-28207662.615730
-2993842.815358
-16008684.405405
-7970425.856052
-29729223.824185
-28428220.307417
-31763016.140048
6481748.216459
-10335198.478875
-31934099.629792
-6292671.866978
-32463730.804517
-28397701.083137
-33239481.131822
-21790384.833217
-29556964.468734
-12831646.527789
-31371538.220651
-17364389.662406
-33401144.989170
-33730394.041798
-29875711.656849
-15304679.748226
-29545850.182376
-5525847.932779
-12503220.219889
-6788850.169193
-1814091.514871
-31902771.789871
-12886232.575027
-17854873.070773
-29203239.532163
-31434698.160422
-17748606.334534
-29274578.200420
-27011654.802851
-7103045.223301
-3170261.031158
-11664693.915637
-27714706.530739
-33493526.656705
-30779032.642175
-27655891.156549
-30326930.270293
-15048777.623934
-21641278.299101
-22941314.710181
-22166914.933521
-22080632.065428
-31928618.439440
-7881113.440823
-23920936.354605
-19492840.509875
-21701693.974384
-25009801.324274
-32968726.926785
-19402014.747634
-1042157.391022
-55403996.652949
-24856998.786273
391866.457173
-32750661.747311
-10323550.844426
-27351076.021474
-12660343.341947
-10844744.594055
-17600664.642955
-29659333.652078
-14191445.572464
-31583124.486039
-18146149.109501
-10165185.981366
-29899939.386140
2031350.349621
-6025994.249540
-29638858.175887
-10172482.692345
-7830078.820273
775693.186331
1661003.519910
1344881.675166
-29738853.254158
941060.018256
-11138045.664772
-2387887.275570
-12275594.469851
-25825201.042343
-24334383.780599
-23378508.864712
-13885161.752784
-537151.631993
-10612130.207503
-29842452.251340
-23373297.462739
-14428644.016611
-1361034.691174
-14859320.497923
-24073312.167623
-6249437.881703
-28000603.112927
-15791068.607187
-9896712.527214
-26329690.253436
-28911022.788327
-16950136.869399
-15784649.099456
-10784897.276302
-28264393.471207
-32317307.839195
-26933909.336238
-20674532.171638
-28893811.800535
-14234451.497827
-16476140.529744
-18606563.545522
-52074932.708301
-21899283.242553
-20913356.961645
-21254271.544158
-3132990.538691
-32175441.558238
295349.066730
-7042746.132001
-32673745.350923
-13705980.519804
-11508493.278761
-5262915.773988
-28498449.334936
7026124.582344
-23850592.403300
-7048041.674727
6970700.428753
-10929840.343144
-31088148.731488
-31545505.219536
-33201785.907470
-23413893.084947
-23276565.923488
-29741897.076700
-24417305.522342
-6629345.089208
-21357012.744590
948547.512130
-33188285.621704
-23919100.052803
-2139256.453722
-24027691.944078
-12690654.739358
-7463232.994314
-30845835.978141
-30090535.454187
-25519073.220656
-1777562.060291
-15698915.403294
-5217953.686199
581634.599719
-28552601.329060
-24802726.110384
-2600518.534886
-26058531.451523
-17494187.787150
-25649579.665072
-31077013.888836
-32604825.974284
-29332622.580605
-31276314.619711
-27890037.149504
-15394596.664785
-33136890.187857
-30874229.199043
-19927593.154712
-24323409.862761
-21638364.388252
-31050964.579636
-889746.839508
-23979225.627748
-40466.196925
-22986891.740686
-29148676.423680
-6302315.959118
-29510806.274735
-13881266.869621
-16493574.271518
-28769318.387562
-29899449.867698
-30748310.087849
-2129940.731087
-20846158.697436
-16690708.960371
-20652230.133213
-17323492.328154
-13428670.285900
-19248321.445992
-20645650.604917
-24030454.649314
-30705519.079865
-12450086.045326
-27531376.327570
-22445390.149486
-29100370.783491
-16175397.923786
-32602072.493783
-1001816.461568
-32626897.514563
-7680645.315781
-10978987.193720
-5357762.429173
-32031431.173766
-24937642.766993
-29157185.964281
-32902560.932155
-403045.588655
-15588574.644377
-33532102.530096
-31581883.361820
-31736035.149710
-22716189.276457
-31474085.604471
-25152909.932525
-16474661.044507
-37421365.975853
-33763926.282109
-14471240.942532
-28214074.727220
-32162796.930137
-30687516.582027
-36412627.569985
-22657756.720071
-16915674.910664
-25115671.377668
-13775566.747752
-26612477.288672
-24481925.832636
-28745058.082988
-15802126.042685
-10161257.007461
-16513705.381411
-30203330.429114
-28234274.039171
-26775584.805812
-8658090.628315
-23588338.711986
-32194195.488957
-26312157.970206
-27757629.249330
-30689245.458553
-29972239.953296
-12805369.554155
-33499414.502027
-17130511.269601
-9972818.040083
-26169449.905891
-40513634.495672
-31141916.678699
-13786802.268884
-8977602.339358
-25528616.768615
-20941390.314599
-11400028.892015
-13079431.908359
94239.824861
-31484101.929185
-16194003.511765
-11153702.183703
-11702106.086272
-14381641.470611
-31399266.846413
-30525679.253340
-13455477.745587
-31725527.244480
-29680847.496354
-27413274.650644
-8571988.689672
-3586801.607386
-13503316.135162
-28196652.302252
-20879921.813969
-18342894.341339
-9224678.427313
-9625017.307940
-31952681.314704
-1121401.905995
-14660860.736520
-39134935.728115
-18606564.657463
-60914886.392541
-11656556.906204
-27788910.804933
-28092440.541835
-31657973.260674
-26005875.564056
-2979783.616082
-2714801.524438
-21867557.366594
-34755463.054019
-15070477.746306
-16011844.676613
-13438822.795187
-22237476.957166
-31573431.477282
-11057689.956349
-15129471.168766
-17406372.391470
-26358004.731207
-19172393.559578
-14307224.813739
-17109753.456540
1523394.006091
-32621457.405451
-15207866.868236
-15839551.143694
-23243322.878291
-26152613.302992
-11625230.620776
-16294756.248607
-19262552.969011
-24974831.273552
-22482000.392353
-11879083.525677
-20421303.524646
-22828742.727142
-36999006.634555
-28562659.365940
-15250652.389116
-29702393.998025
-31670902.438812
-4181532.300481
-6115600.998297
-26037833.869523
-3216390.139392
-27148739.307156
-31640571.823550
-29876454.214639
-13561664.410723
-24791529.316207
-30508322.989291
-36793092.779793
-23186331.957468
-28501761.589483
-29431988.168523
-14502907.021895
-13023156.267781
-10807914.971838
-25900216.887140
-25934001.886852
-10594345.027580
-31324097.887949
-23120607.473701
-28159815.882656
-23706780.869091
-29846028.485627
-13747994.040512
-37843295.110884
-10716948.579472
-27695793.206803
-22335025.337277
-15024378.447439
-22879280.440777
-4195744.027440
-32341909.264208
-25761698.691759
-6898777.573509
-34099819.328193
-57590085.929438
-29167044.387296
-24398862.507935
-51916790.278305
-26280795.321679
-31004454.563258
-25326975.546631
-11477685.781513
-18370206.825909
-22821013.363568
-30992845.554928
-29172609.693237
-32497482.160265
-13902311.314033
-9423763.390965
-26495085.893073
-23692891.074612
-11651998.563491
-4208188.583708
-15409260.488783
-28227198.408285
-7557156.982572
-604083.013763
-41772947.584699
-30850797.406112
-2630842.963233
-9935262.977211
-16103408.966493
-26959599.886850
-24349634.983314
-8524334.521530
-32883925.250950
-10721380.616729
-8587784.673774
-4583262.672553
-14060605.938492
866.532808
-7261513.825035
-12140199.269883
-21078448.266286
-16388621.602781
-16313419.666953
-14669415.839853
-102921.993570
-786458.992395
-9694452.877972
-5721612.000455
-25869009.358445
-23136315.296722
-25310024.125904
-558459.037526
-18969462.007428
-17775115.631212
-30332668.529500
-17461263.740950
-32945296.150534
-24647501.980761
-14676674.316459
-43271804.895253
-21418437.440526
-31448947.611574
-13506547.985586
-18643859.276198
-11105951.971652
-24441533.210985
-32615399.086871
-32334839.127041
-45713925.624784
-14846108.839968
-12480329.545582
3005004.917091
-9919505.684252
-10855555.126926
-32226430.360327
-11717975.072816
-303567.144610
-26377047.495664
-11403163.613168
-32025762.911916
-4078875.481122
-6591502.288395
-13161452.884231
-6701264.497328
-1823898.830004
-30164769.104822
-26992611.572536
-27870050.532445
-31543652.736914
-14170798.082054
-14486141.255872
-32343548.334014
-333320.426932
-2464427.835816
-9958177.307598
-4735924.062743
-37216519.792983
-9475373.024441
-31165303.910515
-6601183.567830
-24661110.467620
-13966045.201944
-38061128.439160
-30986024.987682
-22993383.444396
-28579079.204557
-21394518.364161
-6261614.029446
-2586618.050537
-31718950.948373
-24402781.144564
-32483857.311287
-17047655.537409
-29813690.767224
-29720284.938394
-1571498.327890
-23907622.808484
-30873441.644934
-8770076.130437
-4385335.189409
-27855235.630301
-4476750.620813
-18332475.888560
-50161167.332472
-1738199.296831
-10662285.044253
-14231716.964437
-14363343.014680
-26874901.141836
-22293125.249538
-936280.542407
-30980093.814974
-12213093.669711
-3861476.536113
-4867566.680291
-8736540.096389
-31142605.560726
-21380560.943105
-14522808.132889
188255.981271
-4457644.712832
-11300970.795174
-16633836.232946
-32792676.186134
-28711530.207152
-46625803.814008
-16425452.605539
-12058213.410894
-10947845.680518
-30363034.361071
-8538733.246112
-11177096.885157
-26041275.015416
-26887565.823255
-6885892.469036
-27430943.922001
-29945438.764526
-58447739.984879
-27244329.202325
-19575285.668503
-5232959.447651
-2586968.953106
-15032563.890201
-18606749.348095
-529438.680620
-2634902.870417
-11176019.241630
-22595475.018157
-32610894.582824
-26837185.004699
-31804400.467445
-22299984.122300
-7278365.087718
-31097366.684898
-4842680.729143
-35571648.233402
-44104871.523349
-14148314.174349
-4101826.496924
-18173016.924349
-9760029.912923
-23818761.368527
-11198382.301146
-8844471.496955
-28642659.505103
-32161783.308026
-19613211.902610
-26265964.270401
-5931125.847604
-42106943.407181
-2221020.203497
-1739814.297162
-6245625.993264
-31778615.279953
-14121418.050632
-27522820.443288
-15896251.530239
-31610102.774071
-31053644.778213
-59461675.083094
-27177503.469371
-13944420.028518
-27526295.924403
-32081891.666790
-27646910.994196
-25989732.321854
-20222262.169862
-30553965.916023
-5351789.821217
-15583857.290123
-12539633.710243
-189438.843533
-11614357.142036
-30221704.276536
-29763664.490354
-15694295.122599
-32394026.416238
-26073908.350107
-13409449.055345
-7463227.453262
-29986686.658755
-12835889.688161
-14880333.884522
-15462129.965985
-19266788.627163
-26095568.667021
-32240029.260089
-9148820.923405
-6825721.890955
221565.259077
-29879702.386485
-32865595.996997
-16195679.768298
-376040.888819
-8239701.409374
-10427587.539125
-21180940.779481
-2623676.820929
-19353578.674485
-31913506.305731
-31731280.959504
-31796923.026161
-32541698.925741
-4913322.261039
-13372296.640425
-29518317.526481
-12420775.416846
-22184448.529803
-6383766.073709
-2148964.756722
-28058582.435713
2583740.811778
-7514906.139564
-8643745.618145
-1842070.983001
-8197231.516674
-15225315.304329
-8811469.302262
-4775278.178947
-5999197.211105
-14794202.447623
-31753287.420109
-11501630.663238
-32552411.949785
-3847312.650840
-31870718.662132
-22452545.342101
-9460089.973404
-359973.619449
-9867441.085064
-574673.072076
-10022823.818444
-11414878.096704
-11336173.602849
-20539825.395849
-15063015.387681
-29285294.141807
-5675611.787104
-7650083.173414
-24598541.535159
-9255963.967866
-20515089.460092
-10993628.584811
-26151964.384239
-31085687.061915
-11940267.413779
-11443561.892036
-14871002.947591
-32706912.733692
-31917025.552159
-44136523.403363
-21589907.434188
-19585349.589389
-23301027.382896
-8079226.800270
-1977057.946918
-28607395.935733
-15294338.174761
-5257149.676709
-28265013.617253
-27349441.390940
-32167905.540251
-11642574.730784
-29523297.313879
-31180482.616461
-1239216.121673
-17987642.886134
-29792772.421967
-22620380.893986
-19331246.732245
1149183.962043
-2624762.341088
-30861203.702295
-11065161.091897
-13059682.381911
-16226371.208384
-3772439.815830
-32624142.243561
-32491727.765293
-34409867.500032
-15170788.775328
2246571.096184
-14180071.633718
-34016496.111335
-26760720.285626
-19691738.021715
-37050636.234614
-7996717.581864
-40058195.644535
-9022220.209923
-12688844.312670
-1217599.063069
-24994849.958197
-65810342.811499
171960.524675
-5666665.467552
-10227833.928304
-4491742.097820
-30709642.639330
-47620665.141551
-16697910.589331
-14116212.290427
-31478636.766230
-2377293.549757
-24015934.322742
-28793138.566833
-31104152.062491
-5919126.588190
-19739192.612332
-46570917.290342
-24066216.649297
-1675000.145512
-28788401.932194
-32750218.758147
-31722179.451396
-20775910.728482
-16996191.842857
-30536004.148736
-38754833.901666
-296748.995513
-26058571.270311
-7585740.390420
-12357622.858238
-6983221.323128
-31329312.441607
-28259489.129925
-29132732.957435
-7822175.185417
-29379944.188474
-20945895.886350
-13953738.317842
-1044418.332099
-17507835.073827
-276116.881218
-37395360.553490
-21737339.490932
-29689805.447044
-56051762.840876
-17578688.534708
-31032885.310176
-7698374.091569
-32532263.491960
-32285084.817291
-28631021.479042
-31367668.625602
-27610809.800166
-38704205.203706
-3540742.380673
-27749205.298182
-20828756.200894
-24783280.465070
-21098141.169710
-31875332.554243
-32069463.559237
-31823108.097996
-28891430.093935
-13192962.876963
-29099169.328528
-31927476.453922
-18830607.003279
-25498685.219644
-32071415.592034
-12412504.278992
-2071665.293621
-9525527.126072
-29237519.498492
1761688.108417
-29449548.308315
-14560854.587501
-27332636.234294
-14474608.410674
-21424000.475286
-11306253.927999
-8185188.818719
-1760804.632163
-29190544.835949
-31574795.610662
2143858.277383
-3302706.095840
-22265604.580923
-1180723.842813
-31903829.298449
-15482828.231813
-22072133.716830
-28773439.537139
-30680698.079929
-22676734.043325
-19942102.928140
-33210908.889723
-14059185.345409
-23718774.031549
1318947.019673
-12673072.077252
-32145974.580980
-5771468.058532
-31107044.267541
-8570890.502365
-22248940.073320
-2633978.774265
-20935461.905853
-28429411.609307
-18369239.166907
-36165380.663470
-28025922.902651
-21322933.580555
-22889544.795633
-33452387.635582
-41751837.217711
327156.277432
-24488300.738403
-29354026.852697
-29542336.466950
-61215530.364646
-25507687.384370
-45836837.001423
-18442807.486387
-9348180.921526
-3049040.842135
-3499484.086908
-32018277.626604
-6015032.336288
5489630.267066
-26807779.427132
-16659247.300774
-51987515.586380
-250514.758419
-3862741.908434
-757493.419891
-22787671.125524
-44231366.712874
-31678820.941848
-31255466.925002
-15259679.006090
-15520435.366464
-30167370.805360
-29565853.466019
-14897336.647041
-22645338.565152
-12166787.965932
1595478.511090
-10330241.246490
-8705617.874906
-9563403.624645
-39058847.386900
-23164251.003565
-16687334.389939
-13655381.677116
-566412.260933
-31072277.056636
-1958125.440704
-14232593.599029
-24791608.341972
-9287861.127746
-32084523.900733
-25015469.709828
-26952766.614094
-26052950.938784
-22145248.411930
-16179459.679795
-31573202.630507
-29916980.045704
-26072333.194686
1268406.823132
-33170306.281227
10837.374954
-887572.054278
-29182363.149569
-30527937.464051
-19001766.572761
-4702023.100416
-13274403.794230
-14759179.204011
-24375875.753384
-31301678.575501
-678558.348951
-26366386.440633
-120265.737285
-29871556.157083
-20000449.729316
-6091186.909533
666683.341829
-7045396.207511
-23612868.626498
-19084242.592555
-35885321.988084
-29353971.841614
-16568005.543541
-14510744.052631
-32881579.631529
-28516686.691275
-11028572.168682
-31253716.667617
-10876640.935027
-16338440.478341
-51813635.171506
-8293065.827783
-10086059.678139
-37480625.593870
-17646693.562483
-1110215.664245
-48090778.513430
-11877803.045558
-19814526.936438
-29185889.907034
-29335335.939566
312259.865608
-30042999.522602
-2725397.529443
-14661211.982358
-33586412.167502
-11771049.916029
-32278498.050136
-27508930.460017
-15010642.652175
-1696265.310169
-31971730.417475
1033270.376361
-29466876.466196
-15869979.295125
-3033756.051587
-13063918.163074
-25725558.775154
-31714759.367950
-10997059.736066
-10367763.215654
-29017176.637274
-26979720.729996
-29375085.259966
-32061681.347522
-16951737.090257
-25909070.419992
-6493717.178209
-6215964.855948
-9982187.014807
-3177139.204858
-14827553.679784
-14854921.400272
-19201722.712353
-26429317.782572
-22309559.153932
-31509239.371028
-10612016.091239
-30547505.667833
-20119553.599453
-38957107.497262
-2383558.375797
-10824010.102113
-38653223.050761
-651113.604666
-24154602.298545
-31039718.898318
-4362745.091854
-12068477.573984
-5048011.056431
-21018410.414852
-14715544.281835
129532.768508
-25706341.921176
-26580022.192948
-17989619.314489
-31019290.789840
-30028400.150496
-31751878.402160
-9493192.527105
-9952679.174346
-21390205.563222
-29730208.179038
-13268862.066712
-12839711.507576
-4453533.884487
-36322541.090774
-31030231.009034
-32641179.087717
-14209978.203286
-24013206.532585
-14532617.616787
-29853137.461999
-11229517.575040
-55972972.624491
-6814171.135750
-2037769.768115
-16610250.729952
-17837845.300201
-17626811.753055
-10496328.197008
-11524025.361296
-30329086.477451
-19028084.290371
-139624.789892
-31609512.232101
-59856251.863447
-30838871.961074
-19810346.818091
-15948445.123134
-29438014.504610
-30347279.521819
-18560319.364419
-38483267.913096
-31859307.859703
-23955661.638291
-26996167.550670
-11441721.970832
-29198376.615894
-30038060.537744
-29926183.662619
-144410.151894
-27372955.377266
-23555723.161430
525075.293426
-6953937.974942
-24555726.828133
-21055680.395633
-33284923.425864
-9687382.734274
-26586465.485524
-31669904.409744
-29844073.549561
-13371740.893530
-26755712.290699
-31792934.081575
-8486662.693602
-3329950.535350
-10975609.996726
-8399424.544057
-17168199.684027
-11205930.271585
-24660529.401814
-16329412.105225
-15006560.691429
-29225336.414032
-25105554.937249
-8975247.238365
-17301844.211111
-14703274.309122
-1164163.897421
-4797567.198054
-4745269.201754
-39967378.469996
-15437856.675290
-4339107.755347
-3857553.983727
-31640238.848047
-31478613.401849
-12017597.089661
-24184818.759131
-3500592.988205
-17574163.168560
-12070975.638234
-18945284.976580
-29564356.300391
-15013114.349974
-4907306.796377
-31743705.057680
-29656001.330858
-29919653.472528
-28839598.775545
-2342362.461865
-7845799.970308
-15635537.538183
-2318412.767388
-24635403.664072
-5392071.897749
-43470430.783907
-32725880.179884
-26924979.562889
194547.020961
-12140352.172608
-41559371.609270
-32151042.688307
-36424538.040998
-31409200.287687
-13472243.030539
-27756957.732640
-29556937.898708
-22673925.631722
-4146954.197980
-9512570.325793
-7757377.421811
-27623708.755410
-25570606.552079
-22467090.274008
-32228173.249004
-3576005.311040
-27921036.181387
-27542685.030896
-1509622.616633
-3508434.176310
-53028707.091580
-31717841.072800
-2022598.874805
-11196805.132561
-9231941.948470
-19088990.994225
-21844427.501298
-7064837.775960
-34304544.015465
-19481408.105888
-7489597.258460
-14846909.240342
-31776891.606030
-22121224.981696
-29095239.386450
-5916017.915630
-3483098.452120
-20160442.814000
640988.954888
826000.850805
-30512943.707838
-29775133.855585
-21523424.240731
-9364286.709378
-28279608.312496
-16272828.683508
-26512337.319795
-23799602.397284
-8021715.069895
-57977337.402716
-9130395.786014
-51800054.656650
-28832096.375798
-30434567.301293
-10741901.298770
-19601557.624257
-8968669.731863
-1543052.734613
-7920753.782525
-21678245.766089
-31818863.530156
-29533326.343429
-33091249.916208
-4129030.299140
-19065554.888940
-2376365.400797
-32066032.083138
-9154945.032340
-15188228.154783
-26958729.498493
435869.715156
-32174753.811971
-26445319.413157
-8815460.507926
-24570051.058998
-24717862.373936
-36338830.059243
-8914834.323159
-23177050.577723
-15002542.824135
-2462229.125173
-21965605.161271
-32511559.146188
-33554258.833436
-8795824.535442
-29481424.929448
-34762037.911396
-17600332.772809
-34015124.859674
-1989820.737420
-4270966.555444
-34814835.813983
-18521558.863376
-26051820.010075
-10683019.511154
-15131091.788981
-34159827.096074
-22417595.784062
-4926777.159059
-31507145.576074
-5362092.689579
-3124493.452235
-10038153.356209
-37153098.782549
-9953984.268156
-29259170.205021
-14447159.878781
-30890753.876489
-31602434.356888
-28894357.403342
-15502765.456991
-19637091.551710
-16779655.606146
-16052262.279236
2088033.303827
-6146524.668097
-32518495.860664
-21668699.562197
-8397967.282650
-32195991.214113
-10751423.172028
-21525452.739120
-11049521.612660
-2225865.022756
-28754773.856848
1182246.809752
-24108658.424057
-9405846.216453
-30490374.686570
-16118632.659024
909300.343041
-25954097.051640
-13866195.427512
-30016556.083512
-16794879.863332
-11999252.821996
-30622231.943241
-9639244.893008
-47737309.501909
-11607453.255505
-24073755.095200
-31873195.489025
-9104232.372769
-2802558.833044
-1721817.786953
-1940298.277236
-54234114.824807
-9950904.765688
-27755026.321168
-15480352.115963
-18458850.991566
-2019108.876044
-26609114.711343
-30272278.454387
-29229034.387948
-34001580.106736
-751103.990121
-7887552.172834
-10091549.638065
-9758191.769984
-29521689.962970
-44330449.780350
-2941595.589647
-4409179.270130
-31002147.800403
-662384.510189
-26971645.418591
-41137134.898261
7263489.275283
-31408131.987004
-31010446.682277
-31629928.128583
-29614034.084107
-9756487.888483
-14560972.932438
-14547435.738434
-8707464.906639
1387620.933411
-20695463.646377
-27956143.597379
-32718525.542374
-13842064.876400
-41066330.930218
-10995929.353872
-21122788.412558
-9178212.184773
-14070096.223765
-10098017.677809
-32257849.391509
-15254551.822583
-2856967.129354
5997472.795365
-29610989.941535
-31367302.088859
-8829165.174015
-11828164.927928
-497444.055104
-31398865.935637
-27934100.480790
-57009429.732069
-26745106.686407
-31615208.905471
-30578685.368761
-6061669.422672
-64283639.691426
1033055.309493
-13341152.476478
-67666616.539204
-1679306.502789
-541214.555389
-9060825.830441
-23273630.129495
-28679299.807295
-12105613.180139
-19597878.199800
-1101624.265955
-9256675.646303
-56146188.516794
-4320604.817837
-7397639.526905
-23490603.764333
-726006.983640
-31662234.015123
-30966460.090935
-28499576.531252
-7064569.299186
-19875532.272390
454166.624217
-6582671.016022
-9078557.506061
-19187708.726207
-19797847.790468
-1096010.047894
-18567428.605298
-13053125.643773
-27869910.457625
-8543927.753823
-6745047.969917
-31383800.544244
-18129549.145900
-9532260.388820
-17392687.237129
-29657705.280901
-1260060.876406
-46906880.590816
-31603851.489574
-6449426.999187
-9764307.229504
-2811889.356261
-8023870.076905
-14967546.170945
-5173334.835882
-27207572.833853
-20653998.570318
-13864454.931172
-25649253.859505
-20284781.686384
-22632862.982772
-2737758.337071
-29554932.838171
-10215330.839408
-31600764.959361
-14864926.859018
-23366980.370960
-29040193.789186
-5695164.401396
-13788697.008461
-13879807.953529
-41082610.995567
-25478805.125932
-5819129.481012
-32944734.451122
-8024133.304615
-2257488.777970
-32868715.248063
-10235734.153908
-7160258.604930
-12607107.759900
-28553799.622167
-25026908.558637
-2921461.253186
-26761799.598062
-6756611.838888
-26896211.668371
-17948781.392167
789321.734174
-1148350.097762
-27638710.497999
-14380658.783434
-31497240.607117
-1597452.712625
-31983505.972978
-22995437.116633
-26529280.083501
-26819415.348122
-28619863.957514
-30252849.671495
-20832658.870321
-26902795.367603
-29150878.825804
-31553059.567254
-31651941.175024
-10512440.967881
-31619676.520082
-30787349.823548
-2772530.965178
-4269894.388037
-19695586.072009
-28074983.106062
-8592459.894838
-8876344.286421
-29339605.381603
-13851555.575004
-21377688.924861
-17674898.753338
-48330948.341835
-10720493.689101
-31746801.438190
-30995464.326826
7772350.531346
-8177863.348699
-65458.725397
-31057303.079546
-20547712.059539
-4836585.855575
-12738708.825176
-25392942.312143
-500957.994960
-29762065.481252
-4622841.233969
-30189738.211009
-22641832.533571
-5401054.460994
-14485195.514926
-21310484.607926
-24886862.414561
-7660329.743606
-32717036.397620
-26327134.108743
-17654430.869870
-29267259.020568
-28558546.613474
-24762692.933636
-9248629.461737
-13096701.109098
-8040534.667774
-2525804.870385
-9308506.273589
295186.192225
-13630138.082635
-5823363.513964
-45194922.675764
-14911293.222603
-10664632.257303
-11668161.303951
-31633556.742376
-28934862.433308
-17708513.266597
-34514133.090303
1328395.332834
-30121021.923187
-24123575.440916
-3850716.238965
-29403637.954246
840585.285636
-32008626.808478
-3353476.465213
-20189368.455628
760694.141931
-31978477.159718
-3317555.324273
-1493878.155318
-7087650.591696
-32687596.780886
-6343774.780196
-28871682.164380
-12419391.496510
-44246020.938466
-8420168.380649
-38957429.842574
-8430296.073206
-4177457.103462
-7134344.597974
-33907499.132724
-12493863.870034
-18950629.812399
-29038396.494496
-28435845.102976
-43083878.373531
-2493342.368372
-8008383.377991
-7330337.877164
-2235917.763118
-25739495.368561
-7971038.014557
-23429808.387538
-29632910.568009
-6108649.404127
-11159455.083300
-5414801.344965
-11476031.883989
-20596932.602378
-28671012.529992
493426.110044
-31115739.112655
-16486086.524170
-31304055.893745
-25023127.048385
-16500887.986386
-29872320.899735
1047154.796428
-21916858.212494
-9547972.344488
-14635547.757777
-1323609.378806
-22313311.582744
-10423868.119351
-6376184.316458
-13595908.832877
-31491748.124776
-23545413.844657
-27146137.697344
-6890161.557662
-24242121.494466
-41815427.365529
-41128972.389719
2924381.885003
-21019775.855625
-20654296.788131
-32238924.108371
-6214454.955564
-28022580.122449
-28969834.635816
-32604179.875029
-9011594.810321
-19926506.930674
-27595250.259175
-14700446.813788
-31523781.445086
-16368163.031819
-9860822.267432
-13141003.370001
-7860608.787149
-36611164.279190
-19299697.757998
-22894715.505780
-761673.798861
-23054114.686052
-15513586.298392
-30306778.808165
-6657589.707339
-33539232.599040
-16176341.772790
-30141962.359785
-32394052.370244
-17940498.922127
-15982321.407351
-13989615.748997
-21544917.159590
-31315127.940188
-2692168.168180
-7774832.743357
-18476042.855937
-56922338.982317
-19518569.883075
-27891757.072061
-10858996.021720
-7281834.365308
-23755493.169463
-27888047.105465
-30724884.927794
-25886710.061714
-155475.703415
-20244036.335638
-8931035.044251
-23699777.536942
-17396010.003218
-26743909.875257
-29149209.186953
-19997957.763367
-21186535.905628
-2594257.217396
-8406243.083383
-27817588.492222
-22098785.245181
-12291299.018738
-10256478.616448
-18396923.571989
-10583360.103434
320197.176667
-22219850.617260
-32133885.403212
-15106488.777499
-5305800.831270
284613.784157
-24084805.342834
-5401725.400697
-17545491.536575
-13045463.337960
-2654834.918463
-11530321.823934
-13484759.364233
-5071527.776175
-17498048.279608
-30240696.706211
-59174353.215272
-14188136.529095
-17072631.663220
2468996.233463
-2058370.389441
-17883577.098904
-919421.680546
-31810542.540397
-13516124.845779
-18640382.227660
-5811947.853348
-27483330.890798
-7248869.156962
-26827395.396344
-25670479.197160
-22006837.749119
-9685467.983372
-16810648.126934
-18824338.224966
-46950928.709289
-35944725.093592
-21467121.990369
-7797752.531650
-29758789.232662
-28140971.988782
-15674612.432863
-2059543.442765
-11221703.080167
2776304.404799
2415294.337514
-4462335.258216
-481382.899051
-26576695.229877
-23343359.862434
-24480370.062878
-10328564.151605
-2218781.315409
-7103538.471698
-9507719.708084
-14841665.836572
-27305319.916852
-17041328.108153
-19468053.031324
-19910225.256419
-6604774.607175
-42386463.210427
-3692976.446377
-12737910.954039
-43210777.295486
-28799742.061981
-30666346.191276
-50014930.925003
-2516785.719355
-5760788.517188
-15333320.989022
-20200823.186568
-33217171.294010
-2403628.302685
-33282774.498011
-27035014.677344
-3409253.160525
-42481246.635874
-29621579.711004
-6539554.432485
-16913520.110848
-21961753.661230
-3010157.379061
-21689331.062918
-12859997.911680
-10900757.275945
-11761182.881701
-17334823.217478
-2955999.685491
-31580327.062670
3248791.326450
-41651781.241923
-19500441.057373
-31773604.537031
-57652718.759636
-7903245.786392
-21097864.039283
-23144811.307391
-32191101.621611
-7399372.017927
-8613643.119092
-32212955.242297
-11569845.679779
-34453021.255104
-25900712.914365
-24212936.286769
-28849215.189354
-46952217.612718
-37141338.901446
-26216826.365361
-8981376.876112
-15843299.227972
-28448610.797457
-2994744.014262
-14669800.352246
-24348752.768721
-19451267.232639
-1733401.767894
-19887201.212488
1751538.405460
-23552787.814251
-18578199.307187
-7143558.018821
-126663.659158
-17965332.382485
-33761516.506825
-12962662.167356
-25501403.295890
-19366164.579911
-32186248.006582
-15464059.031280
4264126.137202
-7961764.137479
-12161513.289387
-7552321.904747
-9501034.318690
-8862505.081438
-437715.683606
-9847215.623491
-2424497.904763
-19517876.326377
-29558074.014987
-33754603.222797
-21747998.785142
-26803651.950623
-18456541.068712
-911309.825401
3750133.887603
-12015931.190778
-2377839.623657
-15246005.773937
-9017418.717088
-32020633.362144
-27371941.264494
-29663677.299625
-27557693.884501
-19962303.845273
-12836117.771001
-13482432.902007
-3121530.988658
-2536617.810033
-30801848.639828
-16423401.283222
-22402959.522342
-12983022.181299
-9999341.511749
-15707693.995956
-53986368.336049
-7609352.437406
-6462960.506817
-29535549.328112
-32044912.142648
-28416839.346725
-12336947.806134
-28101240.524888
-2572791.481213
-14764441.471671
-29534174.525705
-31653498.350988
-32891694.950929
1554946.253036
-8387913.898850
-4301571.913814
-25530490.551539
-7300703.625062
-18599682.648193
-25063864.821475
-32385286.158850
-4160873.512084
-32200043.433670
-6003806.468485
-20174478.202363
1808810.978509
-14145080.072074
-51816159.237482
-53968543.392812
-9929575.796601
-18334262.019558
-24270739.055754
-6244899.060190
-7101644.372383
-32467491.133201
-30612814.684751
-20216801.373268
-26057114.806833
-2742419.720132
-24941588.045502
-2512106.444975
-10115359.992841
-3588600.439365
2612807.148552
-16757009.135218
-32619789.528791
-10128704.051058
-10582723.770481
-31722050.406787
-24573806.642471
-26406660.490882
3930292.690665
-18656653.972940
-11926463.848326
-12334875.052429
-24623651.856668
-7075973.400421
-9194677.830068
-8272638.315932
-5872212.013687
-21610820.680705
-14717544.554186
-5035648.907937
-28464312.607640
-15026921.824822
-20502506.787833
-11692352.803774
1459855.183069
-26614829.904666
-5807174.033667
-24943346.780427
-1577258.871603
-21411141.339640
-743829.175208
-31473522.870491
-11383491.931335
-16992890.383474
-225053.914943
-21313074.771246
-4069440.625622
-2079683.315682
-31187618.871859
-11065208.665539
-8504458.772679
-31394758.109229
-49757777.757732
-9099027.343248
-24372225.959768
-2104371.849780
-6356243.593256
-4033574.302415
-6642849.423470
-31835458.377923
-18038392.312175
-13397942.607080
1281997.624984
-12703722.426745
-20287944.845176
-19012383.107079
-1940821.983371
-34396208.051145
-30347006.411990
-25286583.828278
-55054728.515225
-30705504.046283
-22323043.467286
-3472140.950704
-8885188.560256
-28869582.384836
-5825962.989218
-26012333.612117
-13858508.503867
-18544144.411437
-41876741.795878
-37268108.885356
-27012819.761271
-2580104.836346
-14411333.702613
-31570998.628345
-26513234.560511
2529428.136506
-14926857.935487
-20447307.714448
-11207098.808182
-18317442.893924
-27250912.555396
-30604412.152272
-9515686.398186
-27681390.667929
-1186088.538927
-730390.568802
-9478394.810178
-43754803.412510
-60396086.896981
-12877285.669094
-61043685.018603
-31544412.207766
-2781839.763737
-7470602.126132
-31768922.030673
-24768760.500475
-14492453.975323
-14760247.399267
364496.649603
-1787060.523008
-17926329.134576
4542400.733661
-24200858.000435
-13572511.999854
-22755772.271752
-10219059.704987
-6468849.822843
-43815573.242305
-31839510.435116
-26299964.538290
-19031066.202249
-19563325.691986
598697.318336
-17869814.198933
-8693872.044997
-23764611.775578
-4903958.885596
-15586962.015492
-7258877.677689
-8424939.569992
-26969890.053702
5906133.955486
-22367901.550091
-43765311.766378
27378.391100
3250848.140093
-16383527.938676
-8514206.851117
793167.100460
-25806841.022980
-20970789.094596
-18695285.147128
-3539384.067780
-12585466.160322
-19836954.465701
-16462201.519408
-24400348.761163
-31348739.407744
-34484582.896576
1565055.555541
-13524943.178112
-32063667.010535
-52728564.670033
-14349819.650483
-25611794.166936
-28450298.211114
-26617319.980277
-28051593.754644
-27869807.644806
601184.121903
-3614630.204183
-30687054.768707
-16162679.530923
269022.259707
-15275715.588673
-15655493.626897
-61678869.181846
-28333657.005953
-3162366.938213
-21100242.890590
-30619783.067294
-13806319.916216
-38458761.136681
-11692789.532744
-30101819.278921
-30877803.641606
-10180437.312680
-13721013.569457
-25200073.992084
-22694485.533616
-11611227.750782
-2367940.860390
-32647212.348644
93499.046465
-277599.638460
-20228195.532097
-3702547.354407
-32647364.096417
-471003.783781
-16366739.348288
-26166620.955447
-18997961.623213
1124066.932327
-5594268.287862
-7806807.109595
-23608983.394320
-25840490.291065
-25525641.714200
-1413174.763851
-25154371.481015
-25995102.860616
-29821931.351074
-3178569.779150
-31217477.455598
-3851861.746781
-30489892.101576
-19097100.687966
-1977361.944831
-61166867.702075
-12718847.610336
-24494459.061961
571260.540471
-3422642.922758
-25935178.957663
-32227856.513945
-28887926.026028
1611715.081063
-25194736.451758
-31260056.756969
-42126161.994358
-28574962.292335
751141.961128
-17151779.052491
-6610741.555753
-7354055.222785
-7238720.541253
-12651976.409376
-29759985.678704
-31217495.319301
886496.251300
-27853296.394750
-14973571.516922
-13958303.188684
-31458871.572482
-31114866.218290
1406244.812152
-28731447.430219
-17182065.792770
-13645762.432826
-20863623.165213
-14532229.510295
-18170543.839766
-1088241.488716
-27719268.140678
-31101599.296074
-43477901.761126
-10589933.816807
-5686415.095865
-15176731.882868
-21737746.545432
-285065.270561
-31241135.664177
-31799952.818864
-18828882.532389
-30032734.269302
-6004099.090503
-3426511.946571
-27024334.590312
-43970129.269237
-23698536.289753
-7257774.118464
-24828828.543751
-30220712.319161
-25141629.736783
-30850704.082859
-3038578.701753
-35971770.982269
-51694243.667445
-20361726.171971
-7063810.300941
-2004642.522403
-13110485.001912
-6618299.285249
947693.946061
-22858327.798174
-28328334.532594
-18609223.938836
-11431544.498831
-9284892.320915
-7600528.293495
-13756747.857576
-16093005.521505
-26841076.719734
-4780334.745555
-41269612.115367
-13946041.924730
-4099896.293305
781473.701666
-29376462.385396
-3648997.844099
-42595944.957609
-3692376.363078
-11738454.887191
-25263477.971602
-10578162.740547
-15078703.960014
-52748471.393239
-16071594.489882
-22460878.608493
-18533256.491280
-9735729.591958
-10795374.617169
-40408293.750983
-22301065.729528
-16900268.029322
1004292.384084
-28457847.899474
-32831018.123786
-33906652.202523
-1447390.379746
-20104677.056239
-28768738.458110
-30779001.895514
-13138622.210108
-24140625.953386
-35396642.209788
-9989349.294401
-12562827.138811
-31451044.033215
-9255429.796643
-5264240.456621
-17880654.912620
-5319556.269502
-23950448.736903
-32921734.515505
-8684642.245512
673401.686401
-2770651.864936
-31403824.225601
-2849187.446315
-42699443.429354
-28050563.490952
-7710453.682771
2162230.305349
-13920930.329193
-3054122.924454
-59177549.897858
-28015613.383712
-32714642.065717
-17183462.069504
-112638.822038
-481710.674318
-25909041.141481
-15496788.718791
-15919567.462572
-19613090.372968
-2583645.445449
-7387130.205824
-23847666.522667
-31078979.396671
-1979199.778812
-38968048.810012
-50754611.431256
-28077601.671407
-31739884.470974
-11551904.793947
-31881399.006555
-30306566.292463
-32468180.042723
-12520056.513996
-9480273.491709
-60677560.673349
-14833668.719366
-31574197.387122
-24847824.833022
-72325.560781
-56288416.587579
-6678638.313110
-34816112.412934
-29896368.116489
-27447932.733823
-8950410.016237
-9670254.618269
-3837682.502942
-31166982.698210
-47147281.159179
-19083036.608669
-26995248.806593
-5565554.287342
-32191459.716950
-506250.381506
-25028709.282561
2034857.590717
-9332970.313000
-25539932.242475
-9873951.546223
5322505.868444
-12579940.547299
-27962035.752011
-30694137.895082
-5941651.331046
274255.469041
-33194425.288276
-38703709.646607
-15920701.214367
-8998308.333676
-40251647.635787
-19527587.711197
-8052098.644384
-38706142.035482
-19681945.642533
-2093111.045803
-30386202.195662
-4395322.598432
-29628923.105487
-25934476.900562
-8261605.570017
-28483293.914172
-23663116.081395
-4835620.663712
-24126483.374427
-23881859.614422
-30867826.742853
-27665728.201243
-25237502.460243
649788.486931
-20625355.322229
-982297.130651
-32496773.188143
-6905660.832767
-29718759.957779
-3116915.136903
-12224366.648830
-19772465.903929
-4167125.622424
-13633642.766112
-7285950.598896
-32149603.200066
-25574290.793693
-16463639.992870
-8438505.906645
-10850210.884220
-5237075.070223
-372503.562019
-2991679.901351
-15528911.686659
-14242940.147855
46511.964715
-2432736.336035
-8123467.941547
-26664577.778253
294978.397748
-27892110.971218
-27661173.682895
-33245837.243950
-16907670.437110
-21326246.143964
-31052322.439754
-5095024.797080
-31952200.143072
-12318008.747292
-7082853.763259
-29901135.586772
-1201285.742935
-25772340.987487
-31643672.144159
-15196097.357120
-1061328.198322
-20160270.838482
-2133770.527190
-14192235.278836
-2152386.274441
1035062.998508
-31174977.262027
-38010149.224179
-22729403.560646
-8357339.830472
513067.270168
-6435736.664142
-30429012.828083
-29881099.077071
-11192306.168700
-9409773.172555
-2435381.363251
-9322342.101996
-31214607.132668
-20653117.647800
-11853422.164373
-32283175.900518
-5963881.779508
-14157580.640942
-11524847.210493
-34167106.300707
-10472540.755154
-31417971.689089
-28655470.456403
247086.997213
-31283734.546490
-30427341.538727
-31988772.429459
-6968443.473964
-23850148.672607
-4393355.864785
-41063951.733713
-16263606.291256
-3036606.839891
-17101920.712037
-14011462.421876
-13795876.682912
-7135838.261590
-28950625.118084
-9679632.199646
-29796601.569571
-13500025.720153
-28522895.382469
-20499972.490804
1701798.847440
-37677256.413975
2262865.537552
-6021710.868684
-9317677.690467
-36742545.972416
-9386846.121726
-13902794.586251
-1934112.750242
-34453406.446988
-20562549.038266
-14033732.401649
-32464740.998575
-16080815.376504
-26262156.008079
-3672811.426567
-15890624.718603
-31796039.483611
-35352799.180027
-3149588.895603
-14118293.860163
-31755237.621986
-27315610.667503
-21143951.463299
-25649761.503384
-14722760.569702
-12080929.416666
-3632336.561486
-47662316.721489
-12143505.210920
-5237280.170298
-6685239.680335
-27333475.328682
-2663854.120333
-27830451.233877
-17450861.223395
-2817565.534656
-10983892.685065
-26393497.423872
-12970430.217843
-12120754.722761
-29467385.724161
1503284.084246
-3746170.202793
-5247771.910869
-1335976.614035
-62699650.658281
-2773291.423463
-30755329.788774
-18728077.896166
-459418.581455
-8206314.152320
-55056925.113933
-31292287.808869
-5957643.839783
-4803968.849917
-27699701.056672
-14370471.180851
-8437263.950862
-37978367.521116
-31953545.295617
-1246740.962407
-14808865.093719
-5460253.304462
2285990.778682
1688506.926095
-3050181.441553
272465.968389
-2060074.315633
-27941904.690680
-624915.652228
-25066660.459314
-25907820.883000
-8728099.903607
-31382773.367421
-9766455.032067
380645.607591
-13717173.850666
-32745991.011101
-19534770.780429
-27858082.928118
-20213355.284799
-23450900.461405
-15640430.486864
-11062589.692892
-29360135.348825
-15439018.898644
-2828287.903490
-29412827.125476
-15772446.518444
-57333050.372910
-21817783.064524
-10401574.107295
-43308937.202830
-15178330.764305
-30502768.665832
-16367052.293994
-26749730.850817
575977.958020
-25874450.553464
-18507269.717735
-41277436.228848
-19991042.311742
-15850558.850813
-1600850.803319
-26415470.548162
-29153650.813943
-29268307.870237
-7989083.551783
-11724343.390662
-23517583.981397
-17882688.861387
-18293379.580547
-21019959.199914
-20933932.682256
-18366818.367852
-19958773.881386
925333.668480
-27964555.232441
-17464166.091718
-15695452.888380
-8177986.811813
-30587441.433838
-12145565.966962
-447427.079681
-8457647.414264
-25908490.958805
-6474559.556303
-30033382.415965
-7168005.293447
-2175241.619550
-34439606.046549
-32706639.655268
-8900562.168930
-43892932.251752
-44874348.191496
-1506459.712633
-34884089.466998
-3944776.617383
-26351789.252802
-29303973.693952
-867894.873093
-5109172.631896
-30857100.325545
-32670378.508534
-9501208.473428
-31614950.096498
-10320963.353762
4354974.105341
-22105860.725777
-29511765.853978
-7030249.452314
-23828908.354993
-7011625.916660
-30329515.260662
-16952559.633897
-3210770.623879
-31772924.886683
-31331751.558200
-1015429.026730
-13903049.002205
-11658806.101689
-30547842.541947
-11674026.861283
-31965803.560683
-26082181.486363
-31968154.290105
-13923971.045280
-1005476.194658
-9078124.640036
-6281464.187656
-29543281.956410
-25507927.976690
-19354586.169287
-21361232.056128
-34671381.532855
-13691808.142196
-15722264.955674
-17909309.104305
-3035425.060538
-22306984.259211
-66639879.695483
-11274805.058686
-14322160.411857
441813.992062
-45254722.806257
-15826046.086424
-22839224.191417
-16783329.157583
-32558880.866162
-30761299.978708
-9409093.465629
-29318714.055621
-1328900.729105
-13967509.280839
-91920.499637
517383.753959
-26287326.753262
-42117995.418859
535888.149915
-32376416.142896
-32826047.485521
-24714075.019974
-743301.558385
-3006543.111981
-502073.779902
-13340449.596771
-13045825.148167
-9093792.167493
-10339727.806201
-65630784.721724
-21088221.403764
-29319947.624229
-12210063.240508
-19725142.300537
-27358647.357968
-14347878.185197
-1767472.108135
-6731489.623897
-31520957.000025
-26700109.476550
-29808931.254343
-25887866.116703
-37229160.920896
-4730689.548803
-16514866.833056
-12122380.206587
-23449665.698243
-29170472.196150
-14798364.100780
-17178465.269951
-11974222.409951
-11546814.618559
-55719089.492654
-9806813.334445
-15865770.482625
-7418704.055738
-7748719.596948
-7369646.295396
-25724044.649345
-9168993.904817
-13907152.464089
-857238.229433
-16540527.188903
-22315263.348064
-6409121.454363
-16744526.585504
-57797543.697379
-325064.922512
-31376837.396300
-18011955.851583
-23276179.130013
-19268602.735803
-9393145.857991
-12449603.075259
-20267290.479228
-31579573.785395
-22373547.582485
-12671470.856923
-6992625.862046
-30618887.413013
5734699.934425
-64123759.475762
-1423732.199842
386570.140337
-17589147.160365
-25727092.290972
-25815001.015260
-16747388.183753
-15406416.596457
-43372904.584391
-31095493.407688
-29963229.630305
-8418757.796826
-21859975.002542
-9768322.028927
-30816831.416811
-20787131.571339
-9831201.848393
-18457458.208437
-40649958.329582
-29447824.393156
-33616978.418931
-372302.520227
-67250468.711682
-24588483.378259
-22556162.966393
-7127361.547898
-13545990.507933
-30748350.165841
-20121750.979961
-18812434.318758
-8143513.760090
-18074451.507256
-40705808.965311
-18231292.575751
-27654165.102316
-14629100.040212
-30434826.665229
-4403623.054703
-39202793.355610
-28788533.528913
-30483794.441680
-41331226.180587
-30601719.012829
-21393111.407713
-29357998.044056
-29115310.037408
-3048170.976699
-50844679.090949
-313367.530396
-11571566.608381
-37885309.721467
526205.255783
-26273450.733410
-8718747.710260
-31444783.102975
-32328593.077960
-31468888.085169
-31018368.591855
-50344476.563481
-19753462.944998
-5710134.040539
-10026472.973408
-17689019.307263
-14002318.309028
-20608503.434844
-18085113.514622
-20377398.385583
-3424449.310820
-12147059.112545
-9682256.671516
-32095233.607242
4046429.059381
-31339539.951055
-13182436.534279
-30724984.398509
-27858922.871444
-23157403.906114
-14031490.212974
-25823279.488817
1730435.172858
-1275416.596708
-15061862.845730
-21517367.518784
-26666639.128147
-6629950.646100
-23084701.917581
-35791270.269044
-45742591.330448
-28678542.637806
-26653441.224817
-12140022.156715
-10311208.213989
50382.025327
-4299622.474400
-43666524.396326
-32440695.118197
-39522578.937282
266470.520690
-31131106.195353
-53351064.608995
-23066843.707535
-26816436.932568
-6317210.892951
-56175104.303105
-20535829.051136
-23741009.943537
1016343.185164
-11755812.987522
-12791874.408889
-25510416.733471
-27299645.906638
-43292797.114692
-18399101.839170
-42833694.492203
-26108663.879966
-20086543.068376
-6660922.362566
-15209200.027019
-11455535.892724
-15978000.043125
-11036780.802281
7283489.244757
-28225088.379293
4662881.912476
-23938013.053125
-20493971.200770
-19793848.971507
-26256918.459164
-29993643.813137
476127.140849
-23048715.374321
-20733060.943939
-21163906.041418
-15497357.729589
538855.657679
-31986423.436867
-55576316.371123
-2510282.840098
-13937855.970315
-2030150.098519
-10779900.069360
-49319612.542590
-27275254.656188
-4548320.840648
-21689220.707073
-14419869.302567
-6023634.617986
-3257468.600285
-16369641.107134
-22661618.597233
-7431212.763151
-38247891.942850
-3100671.409846
-31755139.591365
-31015001.084490
-6890792.546319
-18711646.936509
-22052785.467711
-2581984.188723
-6240432.314892
-30115810.901003
-21808375.824383
-36403892.239717
-22099615.940152
-33769156.010117
-10872922.770447
1912759.100171
-46828279.619836
-8704545.629450
-37028390.332381
-24331586.879828
-19299134.034091
-34098527.705650
-6893723.805885
-9164435.430001
-29463097.479336
157453.634722
-9415208.810144
-15712835.422054
-31988621.053521
-24195118.269795
-32708199.515794
-31529042.030058
-17822580.770939
-95814.785130
588070.324667
-14381487.856701
-31656852.071579
-38253608.463154
-1619158.195008
-41228995.796463
-30499979.349731
-19351704.705926
-31358954.152418
-27223053.905160
-30527648.212566
-7355283.788577
-12932986.602602
-19677301.100681
-19898760.339592
-24312291.954935
-4637287.718012
-10047993.843880
-14181209.670630
-14214017.776489
-35339918.118318
-28373553.553704
-13305982.636644
-12517847.503453
-19365173.105157
-12546021.800942
-13096031.632882
-15236503.517074
-6646831.391202
-19585346.820497
-8585000.910530
-28875014.946072
-19281874.964127
-18715492.406756
-20740049.943718
-2018484.685295
-13169620.647343
-1249968.065321
-27473717.885454
-23549257.973803
1225398.849953
-1457914.089770
-30860714.639406
-10933301.616524
-3689822.276377
-23871135.355799
-1445245.254622
-21671414.024607
-28705628.471802
-29451337.515073
-31300966.715299
-20297629.481344
-32885163.736730
-16797293.284873
-20601469.871546
-8598352.555170
-30059028.155846
1121920.919363
-17022240.528131
-11112034.153136
-31725704.256057
-31713966.050282
-2536336.791456
7040722.256931
-32386538.280306
-1597527.652923
-2184840.160839
-20299380.077083
2739063.996294
-13133559.936209
-3626849.418985
-31435147.249546
-10056205.784875
-25562084.127567
-20625285.506756
-29020646.379024
-44805569.219683
-33711417.456501
-17869110.279941
-29564351.448549
-25204005.743738
-28140121.197843
529378.707031
-2678926.190757
-15589190.774219
-34039632.078824
-5333585.843723
-6169497.941635
-962302.110975
-1542966.373984
-5303726.959676
-2715232.300860
-30368345.263094
3911024.123807
-42663703.403196
-22135241.077615
-3871556.297186
-17942959.798675
-20476408.357686
-23888090.631268
-12576912.794048
-28451990.385583
-11730533.679945
-32803383.134134
-23908537.100829
-30197200.615116
-20714669.946885
-12733831.965791
-19471492.214334
-3090321.069392
-10761027.674679
3910217.467219
-8167132.236679
-35896908.983549
-8204747.811368
-5235900.061030
3966191.486938
-12638313.535678
1901516.512353
-3576426.865632
-24786372.419716
-32602346.075905
-3078188.760865
-19345386.801015
-14714525.488078
-27503002.379996
-31403547.925564
-6048120.157546
-6679370.542998
-20469394.593363
-1857644.182745
-25023081.014005
-27626174.043330
-7490893.849404
-29393920.909774
4645946.254724
-8979802.601118
-24608021.340077
-28786485.525095
-18309312.878637
-31990237.575998
-30975372.097850
-2555817.631803
-32068305.405465
-825722.857761
-7666562.879197
-3938569.349733
-9516327.108681
-5473519.656375
-6776025.781818
-9281737.897021
-17772904.282611
-6783616.963039
-26177896.436921
-13734795.835113
-33275920.115031
-26464361.480998
-1180708.574800
4235901.929503
-11895354.354451
-11394105.410712
-20016303.212302
-31148201.447946
-13563170.940944
-13443034.553298
-22674298.922308
-11736106.072822
-1559375.208726
-13953460.084191
-36855143.547793
-30765547.362130
-19841713.231170
-2431564.909039
-19577573.352277
-3531031.665049
-21611632.287812
-30372796.520315
-22488374.751192
-6961355.260860
-6811191.016033
-32872891.297141
-30311986.247182
-15558225.492532
-29197333.757510
-10926087.170961
-12740622.342243
4756693.628975
-29587144.756979
7577718.693629
-10980175.547399
-2379868.184500
-14882840.807169
-13537524.058369
-13629731.139843
-14660806.251028
-32027948.596698
-7702687.548943
-266149.794295
-10230323.243024
-28232308.796559
-6769000.283183
-13082296.344582
-24435131.629043
-27813273.313932
-33541439.958670
-12733180.928765
-21352539.561160
-28436833.294848
-10194642.650466
-27585855.396417
-5180691.291117
1972939.304239
-947042.450285
-30499862.413113
-4830943.895697
-26143718.430303
-8010788.954222
-33949239.032150
-40878800.244623
-5689468.423978
-15115661.124375
4334180.531169
-33123245.310500
-29144982.180678
-3539874.792797
-4813092.812014
-43672737.146797
-12724337.425580
-427510.802082
-27815250.175054
-2188533.443661
-13963067.543408
-3765004.520574
-25601394.056831
-3565380.784808
-9837969.382984
-20409038.933233
-37500864.651891
-14996847.299772
-28104462.039773
-40415826.568188
-19115125.215179
-17300756.002424
5368383.912989
-27677424.137423
-9574280.171261
-26148275.904275
-31247785.896359
-8240287.572282
-26704301.461565
-7474494.868825
-23848432.894652
-28567745.776576
-17159864.247253
-9568699.335430
-30189107.723995
-31843422.370910
-1165780.919122
-13126584.049282
-10432846.676551
-24967630.771510
-4153501.465121
-11104404.802437
-37647708.403491
-25154354.877622
-4155628.447781
-33028774.514522
-43083033.045528
-23935892.267543
-3312520.458212
-30876498.932806
-28226933.665907
-10402338.156769
-9823412.507751
-23549466.767227
-2199094.146849
-19940625.004594
-818519.319012
4503897.637088
-6088291.162270
-31275403.976865
-3990161.420492
-25311563.742825
-19490146.624452
-35376821.687085
-9395199.582377
3239061.216142
-7219825.823415
-191395.926865
-16607759.105560
-25207770.689401
-7234445.829288
2064365.926731
-805369.463171
-7667724.329644
-7835502.579979
-18331851.980049
817060.406648
-13265119.783334
-7878862.858712
-22626712.807784
-19382090.632785
-936698.814880
-12636939.031724
-22487155.854115
-6354932.967176
-32481670.940342
-19367419.806929
-21478208.483722
-22107676.288552
-20034462.904252
-27519744.822517
-4839826.883681
-7876261.527994
-11918227.246201
-10581998.644970
-19966340.075824
-46045706.630179
-32441324.890915
-2537453.960527
-27223976.667722
-13142049.027081
-24722839.353352
-10971256.505614
-18716648.143095
2000241.368502
-1886329.981634
-13333918.716143
5281711.802251
-17261384.416347
-31653671.336278
-59703260.886811
-9188356.311949
-3196951.693699
-4944922.911512
-9707708.197371
-20819456.597660
-7274156.473183
-14458339.745507
-31865613.207567
-28241170.739500
-33122970.891531
-5140928.654826
-14318820.654555
-26873266.992269
-11064069.843250
-27664037.050954
-3240629.280997
-56340579.020988
-32255420.684308
-32528014.352563
-28309057.292388
6376492.796028
-30796728.263036
-33007303.088215
-9770279.756097
-12400710.678469
4408342.378199
2044164.988786
-24178566.807270
-22027044.982352
-7217062.113727
3148597.170559
-11221016.240323
-19624839.203283
-27485782.162793
-16848366.893242
-30066425.091854
-22893889.110012
-13255189.367787
-4099052.019473
-5227963.663633
-12282278.104032
-11034841.300844
-27301703.514543
-777920.403235
-17411208.097515
4017770.066167
-40180116.821256
1145033.214286
-5909081.993989
-32258124.103589
-14670212.051456
-26893533.046055
-26396571.212439
-6538100.068508
-18818038.170827
764152.164750
-31979291.348199
-13712583.223074
248831.945893
-31737048.178986
-21479818.735200
-32522816.333323
-32757717.356117
1417020.591607
-15205702.257435
-31621666.887949
-7736393.402454
-31865540.507748
-10378692.806133
-16343638.405920
-18376534.976565
-11569523.379244
-38364413.420171
-2747761.399479
686848.612655
7553121.401062
-1864853.265581
-25259135.717983
-24421763.572933
-29128189.324235
-32754703.406123
-8614149.666968
-14773118.531249
-5680854.781037
-24484508.093403
-28782675.193441
-27300580.236101
-30388375.843950
-23002706.717535
-42398393.229844
-1030798.501070
-3894341.888272
-24098159.539820
-18151823.897292
-25091725.734188
-11877951.440567
-13207613.711979
-4295748.978702
-28423076.322034
-31390041.478359
-27711735.402494
2957472.544067
7203359.138864
-23779291.318194
-21806537.619961
-3072389.490130
-19542963.190489
-6066128.009400
3753001.848452
-5989179.152738
-5811840.401249
-7181163.667090
-25883593.553930
-24468083.721349
-4259710.496532
-30201673.413589
-9463310.574573
1834074.815203
-15444990.397642
4986028.128660
-30598171.574110
-24443452.144270
-6789687.477580
-12578478.150783
-20997441.878051
-2470911.632668
-16157038.914140
889830.915198
3150221.706004
-18247169.606985
-15122381.727123
-12576037.937584
-28474344.182103
-25471838.231102
-19961330.015563
-19955823.728866
-4236302.231039
-7081609.957455
-32660392.569588
-22715141.504258
508924.837766
-25158842.002616
-17569268.188094
-11446680.275871
-31717462.772220
-39210164.592539
-15622961.127944
-7261092.808656
3456665.463645
-304818.374838
-3975471.652879
6819044.257194
-39796301.538732
-2483943.181946
-31825105.614657
2387866.739993
-13517100.006930
-5130370.545637
-3708928.705629
-25618743.129244
-29564567.766317
-2957107.460773
-20380083.220263
-24043762.032388
-7035171.570891
3300505.668037
-13792926.551693
-44069085.010708
-29470414.685494
-20113138.169550
-22656060.208263
-29203594.227404
-30543489.072455
-7333518.176650
-13203704.307863
-7869850.229207
-33382068.336133
-16063687.890355
-14842202.896017
4731139.728542
-34586868.669093
-29121808.986500
-24676882.735414
-26069188.114450
-29513358.221586
-25471311.317978
-8720335.877009
-23116830.578960
-4869427.077356
-23395612.808491
-98126.394455
-23075274.460933
-15148008.430733
1599497.551436
-35146457.378517
-24714253.963855
-6448436.112160
-67736.788653
-10184603.506735
-27574948.613842
2270846.056649
-7719719.832145
-40553934.688704
-20076635.126515
4346686.428419
4239387.062915
-9912281.751867
-4419903.969201
-21122497.282304
-28672897.209882
-30660222.171366
-31948404.160700
-17259414.025379
-21329092.268286
3679041.549516
-2852860.713131
-12204031.587743
-7209835.712069
-8935458.819252
-7166053.364914
-26982059.803960
-6418478.688411
-25934738.931360
-21158865.157257
-21754521.991973
-6218317.993768
-4683493.076890
-8003158.920163
-15341236.011688
-16065188.725352
-27152706.727229
-12544509.674730
3497863.928115
-10609139.675472
-4782539.419093
-30468474.212883
-14718201.213982
-48954307.099565
-27385658.018416
-32539308.357423
-1943672.860560
-4094836.460382
-8638644.669816
-32265411.054552
-3613979.131128
-3593511.318405
-7595776.707310
-1315700.928183
-3024913.588082
-28914839.368956
4077273.478195
-20572956.871241
-32076099.537384
-30535639.488878
-2334629.319763
-28912830.628864
-1899111.647428
-5706999.355183
-40630472.026416
-30782414.347654
-23269322.015094
3300485.811160
-21490436.889172
-11935651.371596
-33567265.125202
-6806389.170940
-26532184.016575
-5745089.761126
-27312930.455595
-20935545.301277
-17670018.097377
-2308644.374076
-33687993.079507
-61473131.607433
-18088554.740575
-31592527.108472
-16106753.122414
-23981222.164253
-30029186.439881
-1839823.181159
-17097770.367229
-36357216.598348
-2436918.070697
-23602217.100274
-18523653.488276
-5571657.851968
-28383110.761146
-7842525.265376
-1093597.034378
-19658560.823604
-24670404.545321
-16572648.164481
2682798.912667
-21563961.804322
-705219.003367
-19554161.526972
-20000126.980217
-20784017.784329
2212587.034023
-25152428.357002
-17592859.710567
-7824409.625913
-17500441.488262
-4143019.935393
1147200.296776
-60203286.932026
-7606342.275942
6527851.403705
-26081159.452937
-6656252.201178
-19469121.565899
-28460368.849252
-3566174.371972
-9870067.484495
-16493413.895292
4266098.899168
-8875814.924538
-28706894.817946
2533778.898191
-4702800.997648
-15200751.117442
-9672301.783504
-5694259.684109
-8466100.713139
-21620134.509864
-15192541.722537
-30067820.859743
-6033975.168238
-2197830.932204
4762349.073628
-28832736.489301
-6054941.850262
-4980582.443180
-2005474.711523
-24081616.885916
-7291420.769529
-20137425.651097
864257.149872
-8887794.158278
-2158623.505521
4172188.833597
-18177752.313169
1710287.259413
-4215745.818514
-2145635.227351
-15125985.187241
-4936479.175450
-10000621.336806
-31542548.716843
-3017885.452891
1086926.402121
-10866761.210085
2365947.093595
-8327255.031797
-15736323.156168
-11553733.239866
-10585568.601344
-54916025.570177
-1553013.938717
3778858.554928
-28850855.143277
-9015516.268073
-9557024.590746
-20324109.415736
-18216276.001378
-10036779.111569
4995894.826231
-14299988.477758
-1623489.490093
5515316.842012
3205746.046916
-10397363.361272
-22987218.970207
-15643178.706983
-1714724.114592
-8581634.999809
7656233.078188
-7038690.724073
-14376652.273593
-35190530.518425
-32203105.733471
1963400.006553
-29191056.917188
3356741.833159
-8265269.709382
-3979780.481182
-1580933.871379
-13710807.917355
-3227810.122509
-8233160.190726
-31671824.930580
-6583710.375338
2107547.761956
-5412522.863559
-15867820.930123
-9988698.994868
-6281475.415017
-31706703.706844
-31759450.416599
-502597.740561
-3324407.185110
-18926221.738156
-8174702.934527
-15275168.505025
-32137857.126014
-1727436.518640
-24093895.983330
-10477962.461959
-24015637.274340
5306975.521792
-17811269.736584
7031808.729929
-10247994.515924
-8864007.273095
-25695458.300377
-31301820.790675
-4514333.101778
-5383059.762423
-3858942.132071
-4538814.398797
-11532021.510522
-2316020.374406
5092441.618572
-3109080.882541
3236022.990407
-4643082.065472
-5000163.088347
1309559.550627
-16619636.463136
-7191715.310850
-7024626.671910
-10481578.570453
-37023062.057081
-1758990.558123
-33836716.797917
4025057.197759
-18240056.432928
-2731110.728323
-3075266.688372
3974769.522348
4318826.284204
3865302.443204
-15245449.734064
1426253.597904
3067442.515438
3586589.600330
-3345480.607085
-25786294.178147
-3362456.295020
1953244.426167
-40179236.919909
-10423384.626651
4867312.933618
-5924821.634977
-3384249.464873
3045297.300640
-21743557.955189
-6817520.454892
2171426.777694
-4163369.356147
-2484742.853740
-22812634.572669
5465674.274190
-3436827.045678
-1701653.398466
-31072380.366508
2682400.893227
-23093878.417560
4048470.897464
-3095005.397166
-28187048.965906
-26056051.453782
-15348012.940341
-13710068.874390
-2459305.800857
-2642891.852589
-10890175.573831
4336837.100131
-2676892.466262
-8199116.172858
2837735.971734
-7618599.842714
-4491328.692420
-896546.870315
5178234.386677
4885872.952806
2783803.468316
1045617.002068
-9357647.121084
-3536245.756131
4150282.211066
2290047.236338
-28197814.993041
-2235532.299780
7760583.552701
-1398167.136229
-14231514.942345
-5667309.044354
141046.055882
3450188.295443
3801186.271622
4552777.636733
2146303.088507
4966188.674354
332221.445703
-1164209.708613
-20861233.410968
686362.684662
-2753479.906869
-6280825.414262
4117556.721883
-2684864.211710
-1416263.798375
-7166672.979849
-23774831.226803
-364100.787162
-1788772.632551
-6858204.818288
-16009917.766673
-9623643.708804
-28608741.369017
-1450340.272729
2016449.659646
-10621120.943771
-6258321.520131
4975724.733758
-16490312.581510
-8665784.488664
-5963656.436430
-48895258.661526
-10773761.355283
1074790.239172
-6361482.079534
-4293457.994955
-30834770.263984
5585905.277877
-2462252.867755
-8800192.413535
2907152.098705
-2876559.842991
-2727370.838323
-10846499.406204
-7761723.506527
3672142.616770
-16273343.260226
4687211.083912
3272283.343725
-702963.434954
-24553937.117602
-2402089.393039
-62920174.125541
2741028.261711
-12363743.833366
-11648076.661775
1145226.770180
-9125324.615553
-1864106.084958
5665574.396973
1271667.075956
1986203.407482
-3804372.128080
-5482529.638922
-22136263.767968
-6764973.828480
5720195.933550
2369937.997312
-6521694.992511
1179274.119096
-77303.194274
-2282304.208586
1538884.074011
-14436793.132737
-27682909.597393
-7546050.599229
-3221183.422065
2088920.249578
-4189384.970656
-6821230.556604
-2461331.255442
-5607947.826272
-15690720.964751
-20775058.519737
-5388948.849515
-28646586.247924
-5896547.613487
-3910776.493325
329581.243528
-5657422.406607
-6763674.395663
-4801950.537528
-1954535.485349
-4276553.922563
-3694734.318344
-3443517.725336
-2843007.913574
-3581058.907312
-17162106.968617
-2895694.270900
-4447911.561669
-1360586.507750
-4668108.409003
-6493490.651715
-14137235.939175
-15709542.766863
-38845562.768809
-1511723.773746
-6108088.472313
-1641119.463292
-5055077.844944
3690637.822015
-8598493.362001
2719721.110432
-5420863.936428
-1074273.598245
-3747484.592907
-6818947.302025
-4477558.257220
1273815.201725
-2010382.752557
-2661080.616764
1428507.625080
4244769.219178
-6605316.442550
-4019846.316196
-1578399.955553
-3483009.378540
-5309114.325006
-2166888.886876
-5946591.100252
2526346.374337
-4379698.992996
-21082575.711302
1422267.095352
-1798536.557354
1248014.148148
-2256225.710428
-4303524.108589
-2135449.478736
-16146187.431070
-29251340.794391
-1516913.045207
1101181.951715
-3705137.231563
-7011380.215961
-7445798.521277
176344.949622
-7468215.468689
-12737584.716604
-2206163.702124
-1946052.113188
-2142141.597370
-1463473.956184
-2789215.970998
-2490792.144348
-1493082.826950
-1741081.271738
5928783.434907
-1941120.960197
3909417.766408
696850.285774
4301326.667883
298756.977201
-3409438.774261
-6913853.573239
-1622243.719956
1614256.214662
-2389136.732202
1597765.086467
-23422874.702773
675085.654486
-1941461.563806
-2856063.541651
-6602658.417448
-3706609.194342
-2484943.009430
-2097039.983628
-1742727.005207
1591049.404376
4952057.140837
2445187.313870
-8056564.621369
375222.769226
-2160737.324851
-2620756.443386
318705.844984
951525.532032
-1174248.372412
-4587560.982105
-11018018.468277
-1916543.918386
-1841434.919826
353729.759685
-836268.425373
-973019.519538
-864471.589245
-715551.271213
-592241.254007
-2093068.605625
-2564438.005712
987958.193624
-1821577.868683
-1574429.011625
704385.311884
-1662930.694867
-2049601.043821
-2444881.456054
-1458588.663846
-247464.836419
-582352.416921
3368331.651445
-1515795.725425
152825.983344
291234.641213
1141010.879570
-8090513.997562
-33934909.032112
-28349822.330794
-3437489.947649
-2354267.178048
-2018192.032857
980188.417129
532605.087599
-1138571.144389
-2496448.999353
-1986722.455566
-3335855.341475
1701294.996168
-126672.629518
-1376679.376375
4528651.672114
-2695406.969276
-526485.480913
-2167305.715752
-1609747.165885
5594114.996937
-735300.461916
1580530.347835
-2305572.810528
1529321.869519
93592.884698
-14932053.839105
-727389.498854
-2061669.583247
-2223199.620109
-2501365.824842
-3218749.528490
-3811654.393453
1500045.168269
1407809.202846
1246679.922189
-1900819.217388
-4653554.535555
-690082.586306
621262.344407
-1849758.249537
-458703.906675
-792753.220013
4303537.766789
-14111763.877310
-2006598.579767
-2369567.421445
-663741.000728
-32746802.460173
-2754822.027366
-2127576.408578
246946.079609
1658443.697414
-3064955.829356
1437694.125015
-3128831.047630
-32092702.003954
-1955237.154223
1378032.269980
-1616863.986969
-487804.244321
-1900231.594461
-8696275.524273
-24636120.945190
-2157386.447900
4039085.649639
-2530864.690649
-771140.136585
-864465.621442
-792367.168291
-805488.907325
-663074.700912
-488274.308187
-2768020.642438
-2251479.135483
-1661424.858671
-1628222.161964
-22639149.779073
-3044926.962404
-1736785.206511
815099.152700
-2985968.522934
-2266060.482240
-3982452.838594
-6303914.967273
-2740688.974989
-4586160.583146
-7506889.699199
1798083.562621
-2289498.001111
-6573966.474640
-7968682.241961
-1558390.106359
-2099415.615942
-2448533.632749
-2313659.522625
1420616.548885
1262375.512761
-2497141.682214
-3579823.127729
2889133.852851
-5681306.522078
-3922021.325821
-7170944.688281
-7767582.007554
-6717790.416835
-1871391.428835
4664310.460748
-586606.326311
-3068518.467018
-2937663.803729
-2684089.022787
1625602.319075
-823147.402559
901700.496780
5446312.569713
-6475555.010303
996018.989451
-518889.156027
-5730857.128414
-7906626.855250
-5656484.965740
-11878115.817792
781519.574032
-2816833.849277
-3998387.239523
-25029515.630215
306762.104589
2382995.201166
-6474712.641073
1614665.510544
4025342.141159
-83118.126767
-24328262.461634
1463556.476419
-7357702.921855
-5076231.497649
4394704.452735
-475321.262335
1187557.553073
-287125.221208
-4144270.866937
2872554.527511
-6812225.698457
1168350.542290
-1762908.552676
-3645245.611914
408302.103851
-1921735.848997
3187986.438255
-467008.902116
-2637567.019352
-3300964.971975
-32543192.614085
1130273.611246
5309180.054180
-6020745.580204
-2635170.213226
-7815531.327206
-809261.025495
-2549954.830062
-775675.464038
-2321037.206637
-7906229.784177
293624.516689
-4301183.270424
-937107.602808
-2401691.547042
-1760509.219336
-86842.746059
4058329.918451
-2221552.899274
-1453961.749460
-2673969.955735
-6891731.615124
-4743560.350203
1305082.038048
131237.331518
-12011651.608798
-6909746.755672
-3097850.061824
-3593561.448845
-5080705.924518
-3126059.933555
-6124181.352026
4147387.637475
-7126389.313735
4154834.920249
-8855950.862314
-395172.729801
-13427156.427789
-2660619.279419
-1910814.783871
-1890699.699872
3131035.805512
733667.719724
-1649741.757349
-13656692.285368
-16748666.972135
-4830239.883544
-1888854.984574
5108057.296209
5257395.198876
3563557.616102
-2450081.366710
1555446.226589
-8163054.097526
-726584.854647
-7628233.143031
-29387844.373504
-3500647.271661
1121204.842961
396581.530293
-2986161.858430
-6543411.413367
1337755.377786
-13568855.346781
-2043513.544873
-6501863.953246
-12578845.939402
-31784396.518057
-1762411.078782
-4244714.555544
-1719432.720612
-2913175.960899
-3955685.501671
-3769623.238474
1929948.604239
-8308299.394514
1476422.490465
-2095778.431390
-263378.551351
903149.117298
3162387.148113
-52191.850820
-19602225.038022
-4275258.990879
-14479892.504615
-31466710.941878
5642417.667901
4318071.843460
-14354488.880133
5225411.891145
896893.889288
-4124801.601991
-3650586.611274
2345314.186299
-4126250.779437
-13595156.502558
-6370992.732788
-8125080.426055
4189956.196911
-5008889.947841
-23403011.319260
3597901.595630
-24357425.011719
2623104.298986
-1054147.371517
-27066610.429862
-2957411.955598
1827384.641252
-3871594.345388
-12832231.322661
-16753429.431156
-2204915.409302
-8142699.034743
-6791508.541214
-5513856.632601
-6044398.988232
-17857948.247369
-2065423.104696
-11298756.829188
-1569447.956427
-11316898.246523
-20978723.006860
-11655401.251505
-8346071.810083
-9480786.692980
-5293885.074296
2344072.988278
-6740913.019992
3740116.194031
-147891.747029
-26169007.769479
3883204.819753
-3329437.216496
-29058945.095022
2979370.358290
-10508951.841803
-13167403.703398
-3479470.095266
-15987759.483414
-15332069.903646
-29496828.886178
-385470.405003
4382207.374149
-8976854.095026
-12460584.098779
-886521.573690
-33587071.886650
2724668.355430
-31899136.256695
-1959963.216667
-30501176.955057
-1347578.377770
-29049397.238287
-12015714.433909
-1438175.826121
4061840.604541
-14233764.762809
-5827846.684487
1591530.496649
1303894.956103
-29641012.842817
4101701.397535
-7984915.925394
-64159.337963
4846282.152778
-32445844.297451
4295670.134307
-9688796.875521
-3113488.349037
-12955407.424051
-19653009.173724
-11688061.887137
1117764.204660
-14786207.677416
-3452633.755532
-3157463.863350
-257558.686075
3580839.344884
3567511.511029
-1723412.185512
-8360649.329288
-2415854.884339
-14113177.827160
-7071678.895987
862554.756689
-8220042.169973
-21930486.571418
-31823887.814237
-4485213.645640
-4190479.824129
-11598181.157226
-669548.242566
-22829290.489856
1343439.009661
1332421.880249
-19416232.529442
488508.403712
-24073342.160257
-8081671.974315
-4505526.382891
-14417233.593642
-5043099.241286
-788234.246676
2740082.173672
-4911885.377359
-14880637.520877
-19204065.149762
-15099474.404318
-8558003.728343
-18218537.449457
-29807269.921121
-24740860.846925
-13375577.190635
-30597100.696432
-34306000.046376
-1261961.323380
851991.709968
4947098.446769
-868032.340120
-20377008.871512
-4134033.646208
-4148848.745105
-15836205.150645
-16236993.430462
2489284.482472
-30331828.336835
-25229968.691660
-2497304.976882
-16624070.892205
709391.708708
-15433494.278356
-2814381.707943
-14380655.897597
-32738455.999203
1896332.661378
-11029023.636096
-5595580.142206
-14237006.622928
-5715039.820065
-8368912.706890
-1791325.176520
-25930394.442847
7095847.749628
-5132773.958626
-31821590.978297
-15540642.081482
-14951784.317590
-32022378.667395
-24484228.353960
-19623722.117696
2787981.229499
-29250084.770784
487914.564853
-10151917.400662
-5837608.146809
-28549446.114423
991180.083836
-2290600.916788
5403596.533786
-29751297.309380
-10009782.830851
-178484.136431
-1517831.823703
1934837.353921
-8314923.872453
-13977873.334063
-13748381.501363
-10126143.561453
-2149363.773956
-16535223.300925
-18861307.477839
3299939.901274
-10472369.734564
1717597.255331
-12867504.839518
-31762079.623211
-14027463.797264
-32437085.978648
-1826353.385148
-4806128.885726
-8763536.578965
-6478665.969581
-8580857.539672
-31619702.960532
-3249658.736905
-7741900.453964
4091759.565480
-3698073.772622
7475953.419417
-8154930.281190
-31981530.246514
-19868430.815594
4114002.979569
-7421922.430081
-13122911.046430
-9414048.883029
-5275663.325485
-3220468.340421
-4488470.977570
-24775143.027535
6926053.618424
-8070661.386028
-31876210.922420
-35787200.461090
2421875.195265
-53388578.825886
-8204630.750806
-1955540.931613
-1883962.958416
-5541003.616263
-39842387.697008
2425515.140927
-19176960.977818
-35273275.047338
-20633993.495818
671310.799907
-1868156.961542
-1886640.156686
-5128493.202878
-3030340.757585
-21078555.664041
-28768950.781423
-7150918.586972
-15988745.088251
-1036583.905801
353102.008282
7057409.372305
-21460176.315356
4653820.864517
-26073085.052554
2189851.995560
-3106998.284906
-26715351.799230
4379471.603399
-20501199.146819
2446020.251213
5509427.457622
-14298294.659019
-17062447.402442
1365170.711055
-14151358.953777
-28180016.659874
4597091.493404
-11207429.680196
-946785.216194
-6351042.454647
-26700493.732206
-32675253.302353
-1832418.510917
2738382.126463
-4366772.819729
4968466.769186
-29691311.545445
5907187.798788
-34737048.109207
-1498808.350769
3322879.113850
-8764877.724587
-6552810.573004
-10261813.468876
-7769953.037666
-4618480.524458
3083365.383293
-20407338.516314
-15785609.058972
-5886415.439665
-5019414.706846
3504889.283271
2272579.236894
208764.354336
-583074.583747
5299001.710135
-7431040.745557
-30807991.137573
-3125674.802455
-10882929.797368
-13202337.047716
-10733315.491498
-42336732.491262
4721128.660537
-1338841.261645
-29626979.020536
2503488.557850
-13814853.801665
-32675074.705240
-1817399.172389
4181224.821600
-31499432.316953
-25623122.048334
-24753035.005818
-30338718.109762
-13858865.196249
-5035263.575149
-32644846.580519
-981771.201073
-4669198.867450
-3758917.586515
-18271525.510586
-5346428.765237
-2624880.905427
-9419816.835136
7095990.355094
-31799925.319680
2731655.740384
-2328701.655538
-1126515.313742
-28921028.442244
-9339090.809986
-8000321.703538
-634879.367823
-22506235.995699
-22072117.514394
-13637313.261025
-11246587.793470
-6267419.396854
3940034.323895
-22132688.339057
-7120386.844592
2818891.095400
-24843154.227282
-22479068.822530
-5367358.940931
-8259686.397067
-7927788.812838
5383121.396080
-31290803.643021
5885166.336156
7174626.294621
-1454049.613539
3378823.841297
-1365991.477459
-1871131.661792
-29188106.252242
-12297126.576123
587498.607889
-3289193.335150
-6129458.361004
-17259459.633417
-6629861.750595
-32293097.745684
-15829555.899790
-20549510.568745
-13125620.222641
-26524870.044692
-30976505.349749
-7884072.871533
3077729.248846
-19724665.388171
-16268224.701561
-8477214.341138
-1045590.421097
-26092115.289082
-17955615.467788
-23726529.136698
-11898048.646549
-61092444.718855
-3412290.198857
-10448965.774400
-20129931.995102
-11408852.877309
-17546267.661744
-30873951.806676
-9944585.154982
1181930.588406
-5205497.107929
-3151894.811973
-9587816.453579
-40470624.486670
-10101141.907745
4157937.808338
-5463356.481252
-21787698.942803
-19086451.764634
-9702655.773507
4607017.537344
-4260502.241467
-7714489.622523
-28529363.218960
-23263788.990672
-38828746.656680
-1302931.725141
-20701758.984738
-32553976.267581
-26861828.835070
-12988155.607920
-24286109.481205
-30876426.498767
-5764824.236055
-4922260.962654
-18203132.470686
-32554367.461051
-9902387.416669
-31210656.273819
-29937631.039677
-13507781.469407
-2474077.386344
-26799853.944073
-8397064.985927
-11885135.124114
-13759928.487321
1233604.166608
-5149351.692823
-18983418.114315
-24233226.464678
1053329.306461
-2225410.386674
3184027.336018
-3063679.708906
754605.016727
-20750819.710580
-11896489.136327
-2906439.093126
-21719782.741476
1227062.754526
-2943285.820506
-32911643.652530
-891069.116282
-19345403.272761
-7199526.107084
-371319.571527
-32077692.195703
466468.065104
-9962301.243080
992377.962109
576528.382729
-31638648.408996
-38628844.246412
-660127.275911
-6444379.489026
-16787919.920774
6299953.075493
-21308591.822678
910123.908091
-30829184.817476
-30330669.386840
-5969168.035460
-6909963.249976
-17389479.311142
-4059471.738541
6402606.030448
-27465406.129357
-1289543.593999
-9154241.393158
-23962609.909378
-57845573.373706
-11456572.948276
-30183253.778084
-1434243.382936
-11669748.066047
-27097230.613389
-20146040.248876
-30556588.720376
-23678142.390332
-9101964.993969
-20365132.078446
-6249968.172789
-39547118.321625
-2317434.057296
-5310660.442461
-11154825.162498
-26124342.740606
-14745436.582746
1338824.001079
1530953.005570
851948.661801
-16248437.138407
-1997752.314480
-21204631.583175
-6647524.028582
-7543318.807088
-4713743.632428
-13126643.390101
-8958132.304538
4630465.272206
3977502.419436
-32699687.447063
-20088656.307473
-30463918.539180
-23262433.132977
-19878510.597596
1689812.781745
-25488842.659008
-39335586.443372
-24805365.924989
-3087411.625088
5463197.888540
-46495769.060755
-6950627.221670
-32653601.397553
-5302582.656759
-29218148.615578
-31216690.513885
-5148115.064348
-26949034.189592
-31923806.170725
1380398.016751
6213357.187445
-26513538.794984
2925282.412897
-9348659.987280
-13726995.783613
-27365580.983426
-7943007.159917
-27546324.584520
-24661926.403004
-27752287.970751
-50606106.160149
-27761376.146005
-8015385.309331
-59354170.666067
5977322.028466
-12214819.014940
-30155241.123887
-8576999.144941
-28166775.041251
-24348770.520686
-10101762.815701
-31672611.720960
-27503767.813513
5210389.972200
-25365814.180608
602465.934800
-9331745.659381
-7263811.744056
-57666048.033374
-7863826.480616
449707.041346
-12509838.898930
-9389884.584170
-3252710.777324
-32860443.386847
-31280773.952524
-3178250.614361
-20588784.611974
-6017257.619051
-20285712.685382
-7762479.109647
-16419938.000881
-53124987.735370
-18277523.433616
-3443302.703590
-44082069.665425
1268965.260284
-10420226.649112
-21328639.785646
-32020298.285632
-67223793.737828
-48279287.150136
-11669787.790518
-22236963.264934
-31852803.189706
177083.707982
-20994476.819445
-30060329.372228
-29118427.645140
-13290362.165043
-32822636.088094
1434589.363671
1057072.728856
-15498978.312673
-12182281.076450
-5438704.061538
-25039757.874006
-25292903.858647
-23170283.543067
3411681.480856
-22318398.084345
-13051455.096001
-15037670.394488
-30091669.490502
-16247414.916675
-19229084.963427
-21635596.951728
-1138659.769165
-29789773.165461
-32249312.559945
-29789048.140736
-31139716.007603
-22496257.927255
6771263.126921
-6100615.004699
-9829366.127216
-27925383.923519
-38815018.473559
-5576631.344482
-12310206.172274
-25853722.724699
7770935.145743
863610.067938
-16694847.393266
-13153254.315020
-16373761.598978
1758823.758875
-28596200.468554
-6431935.447136
-25017655.431703
-6075142.943293
-41709339.784414
-30737155.002342
-1364232.184669
-3578670.531088
-39527355.393693
-24330313.354506
-10916259.798688
-9804417.054290
-25184669.253047
-11015710.470177
-31258316.607099
-27137105.584248
2141678.931246
-17045038.638390
-508910.905695
-24816469.704809
-11219502.692192
-15231733.576299
4524201.643991
-10280919.111293
-13731382.245955
-26824852.660124
-433603.715211
-11806712.585061
-16754584.487706
-502779.902923
-11311246.721515
-13384161.021149
-25054451.243330
-33954638.726313
-20012444.847651
-5054685.631718
-1841193.646689
-16211177.079825
-15815678.473035
5343752.953089
-5625110.449455
-27494535.692314
-10358712.577249
-33103263.635454
-28391946.587925
-35838750.803825
-26673774.083492
-20884910.821704
-23250678.657419
-1052945.217822
-22945389.191563
-19135520.010323
-33398122.997445
-24832430.115960
-4783728.187348
-18184187.131979
-17579252.846870
-11492970.471017
6685481.653301
-14621796.104154
-38720656.450699
-31545543.573263
-2492626.132850
-30192484.683993
6558090.022907
-40946377.251766
-22062552.383811
-3659627.490323
-4712309.633068
-23759218.612496
-32167666.316544
-23729793.741679
-21135896.714220
-10236324.105688
-30001817.632783
783503.620173
-28742650.736375
-34050683.223536
-19106150.284368
-20782556.083191
-32610891.937105
-19340158.194336
-6603240.695243
-5541123.879317
-37915041.860487
-19866540.207350
-30336783.310445
-1016624.320524
-16238988.548434
-18603512.154178
-14333161.211037
-6498956.984836
-13052963.706406
-27805174.522528
-26265628.193790
3727173.698890
-778861.348784
-8777197.811579
-14402002.718077
-6707387.575766
-17650314.684646
-14134908.132755
-18077187.615238
-24437150.751511
-27168200.808466
-32455652.541958
-11899354.567370
-30210354.537695
-7370014.220028
-23374771.695613
-17067268.259571
-7857413.821810
-48878297.825765
-11759559.585213
-8453739.089526
-16605591.557542
-11138409.174969
892018.489654
-4701873.025100
1284532.384940
-8625395.283496
-13452282.277078
-34434760.869245
-17665087.963710
-4612043.556359
-10805174.972566
-4243576.057619
-10471258.318653
-22262723.109549
-4407143.193375
-4089511.510563
-4619167.655051
-26342008.376513
-28099157.432895
-22720706.246218
-12386130.207359
-12991981.017111
-8648040.429759
-16406154.209359
-22652528.124159
-27119924.004243
-35034363.016217
-31988678.184918
-31712460.234955
-24187686.955264
-29507586.045213
-68179415.935403
-14735728.327359
4942296.165302
-28757031.615155
-36602483.898509
-39852650.161423
-3719115.531416
-26944014.078287
-10516264.849515
-19395062.245161
-5252522.169209
804705.284181
-15264028.009313
-22482229.437765
793169.059086
-5059505.587066
-16948928.673429
-334105.379047
-22669049.008032
-1637001.909404
-16860330.078122
-7377020.903640
-29871217.495904
-8755592.828943
-28997075.784932
-18238931.010591
-5242879.003252
-36883959.289503
-31364037.827934
-37407465.511756
-16443441.101344
-72824.740122
-31912232.752953
-19658999.351585
-9192541.888113
5263782.800144
-30009810.061584
-16674532.575108
5151842.699293
-13415095.554245
-37098989.862434
-24053549.618686
-1954381.633259
-30352373.356749
-10269684.510061
-12975494.319619
-1785706.233045
637244.968198
-16543819.100055
-3944659.619941
-8724550.071814
-5644463.365020
-6843746.772503
-7864224.431977
317616.777061
-6635931.073325
-21412839.541345
-19989639.049963
-17650873.510636
-15917161.636745
7902656.447367
-7559216.147713
-19467718.645264
-7778219.544263
-16025722.738405
-27704044.561771
-20320309.137663
-11815144.989595
-10419631.856935
-37123353.537352
-31174257.067041
-30326645.738745
-2293399.763170
-305144.114478
-9640464.336839
-11976255.202432
-6589584.047715
-6385766.242644
-22941699.689927
-31874967.832622
-10503338.965289
-35735271.767869
-28265177.405778
-39421683.364286
-42086435.291297
-18461113.009585
4834291.751866
-1346864.079564
-4267003.757765
-12975925.809695
-31354388.975562
-17821749.827638
-1788573.577159
-1529542.174920
-13059699.036765
-6012427.527686
-8369958.762047
-27520385.245768
-3559799.622564
-14416687.183579
-2268828.505154
-26989047.535464
-11872398.043126
-33786355.233026
-17736518.257589
-26968778.996190
-5149006.859245
-5985751.084492
-30403186.977599
-1400634.841987
-4368947.019516
-45326355.796333
-573852.769138
-5927010.555630
-9174358.810031
-10082757.159763
-16962928.714026
-897869.357378
-6052620.939903
-27128116.152241
-3998473.188296
-7656623.957351
-26932948.426292
-39894283.746299
-18118277.169595
-27279734.192177
-40103785.792414
-2062201.267395
-5326044.289131
6789144.753073
-9829416.195020
-28886581.822306
461228.388379
-5171882.056198
-28683377.795701
-379400.307353
596747.296352
-17531412.192358
-42317228.875885
-13700450.849808
-7758579.128019
-8351395.163589
-4602131.739089
-39660189.373751
-20815109.514617
-15964124.742846
-30581581.984116
366117.051439
-6232150.653124
-8431089.770436
-15399537.081317
-13621992.571500
-7857073.407459
-12053611.597581
-25728485.790487
-32923346.470971
-13577848.688629
-1437762.029742
-18660808.995637
-22756095.159465
-29299330.738787
-23144707.215407
-19577823.227845
-25379672.289672
7106801.173692
-37316909.368836
-4999356.873540
-8223921.748586
-31578766.270905
-31973049.935663
-953682.124882
6084170.196525
-32754083.453403
-734183.693683
-13491187.170369
-9627618.556149
-15443063.860401
-1449829.795663
602308.144045
-8103083.477861
-91523.264227
6346064.513804
-8788655.059172
-13745079.701314
-39785783.659043
-32221345.487622
-13669801.445491
-31393419.253812
-26207446.691869
-32022026.936011
-5747997.241162
3247115.290588
-21762060.299299
-34869676.102817
-4510256.421635
-12922485.037247
-1105477.127324
-8034496.539242
-29828629.256843
-31287418.226763
-29001636.545122
-3975204.948541
-7196782.800481
-18186748.675051
-13638919.722806
392479.023292
-42770563.406578
-3431574.126014
4261506.026879
-11095132.027828
-1121498.160624
964416.416189
-35897538.931697
-32530816.097230
-7195075.271441
7210031.916572
-18569646.931018
-30928395.670922
-18539667.048613
-1729749.357653
-14583283.403404
-23787944.717777
-5795051.458652
-13257905.031539
-17566020.305156
-1110200.848891
-5210472.731760
-41482597.329120
-20122651.088612
-44153543.105933
-31321571.349409
-996902.717553
-13166682.337076
-13747528.081997
-8076460.811358
-41375616.217341
-29517052.504706
-25834296.372018
-7502425.861809
-40800170.671475
-1628827.312617
-223561.881101
-24869445.346484
-23384501.611155
-28615330.264731
-9566725.172581
-28470734.001528
7336752.728668
-35731844.478588
-55606.448954
-4899490.989655
-15865719.719429
-30385677.621163
-25255851.254582
-4167241.798947
-594098.431345
-33402725.334767
2072642.452436
-10057518.283069
-12355400.379361
-17853838.671591
-2095021.873861
-8290663.241876
-25270072.420832
-13163231.262483
-6081051.227567
-8613474.476894
-28145757.320927
-25913334.728365
-15203892.583161
-25420769.084060
-23216608.022126
-25770333.409945
-30837539.276638
-32944172.803129
-24408936.766309
-15809683.031846
-4080562.933857
-31206421.322615
-17444675.175092
-11444807.523493
-27948401.044882
-18764796.976071
-3627273.369839
-17714472.619789
-3282381.072298
-26716765.000118
-17488811.158617
832138.030010
-34624979.973268
-20480984.091951
-30717010.530758
-28532423.554772
-3014121.956070
-42223050.486211
-39880195.844131
-27516829.954835
-31257234.526162
-28584760.781438
-23649308.214950
-4857255.974497
-9107649.890731
-2499750.731390
683835.389184
-3850628.418772
-715102.546841
-31921604.357161
-387371.453351
-21821103.779087
-490503.888553
1184118.947275
-38393306.662248
-27113506.901260
-22047013.201988
-619362.504646
-26841355.701148
-19426387.077931
-7967003.636650
1229949.516616
-4504604.890673
-14018441.156954
-5328282.513974
-28374993.536373
-51899980.028233
-5933234.332216
-4330430.542415
-25561843.239107
-4715138.910139
-1580814.039769
-17293304.392266
-1587332.867319
-52668203.320716
-16121452.600120
-54600829.981619
-26659971.581205
-1679174.304299
-7905122.122862
-16249741.624642
-4127681.144835
-10230226.735253
-31162913.070897
-30991005.736417
-19650712.518788
-16979508.037867
-12993976.747804
-18098351.001523
-21027933.826568
-8233366.812117
-10179769.465189
-18719103.036986
1116688.804625
-2506443.152564
-30831181.572887
-22061002.381827
-24219334.852518
-24456930.853357
-5413272.678878
-12955409.830479
-26426045.245226
-31325938.394652
215696.997483
-33184182.506431
-28162419.326447
-39751614.537790
-34847417.112496
-15048316.520109
-15939427.068348
-23408097.210648
-27468316.349310
-33948391.744974
-11243479.203938
-48792466.398827
-20981785.332405
-12961312.217983
-13020955.520810
-25796850.292806
-34072290.433337
-32555254.405244
-46344295.704796
-31553035.320828
-32177062.046936
-33847991.348956
-40371669.973922
-35315628.802121
-28836639.678454
-7996261.143446
-26380922.879097
-9158695.605413
-2954092.909982
-11428291.084105
-14818647.091124
444048.158424
-4656903.493792
-30844845.727246
1891004.010643
2646519.365418
-886683.972172
-14003056.822113
-31528813.319137
-21849751.832067
-15947667.678362
-3461952.773830
-15151379.520396
-24813091.068304
-4925020.997377
-35023043.055212
-13554873.834753
-28843549.321801
-4164474.540827
-1364785.783891
-30873328.336429
-30960469.860380
-4397996.373055
-1612395.630379
-28034958.089673
-56494506.999372
-6474304.852682
-4701047.650803
-29605325.428464
-2341446.755957
-9619188.050041
-3882125.323881
-5612924.167260
-39017531.199929
-26240470.509949
-14107367.081241
-29379517.080973
-17569385.170122
-14826123.807935
-49390063.720376
-25112967.211322
-63974099.167680
-19141514.933740
-16296856.669738
-9079762.640958
-2484412.034544
-21200749.994221
-17871915.230895
-17183311.949561
-5850998.900145
-28071341.019847
-12362503.148094
-5558903.135392
-1625283.449533
-2081157.204602
-32790392.594951
-19973583.904323
-28618442.635637
-19929084.514159
-22635536.914361
222446.687951
-27567882.544847
-32476109.175039
-8515015.337009
-18985052.013073
-34409835.755175
-23735805.317592
-2393207.197893
-43705939.657165
-533729.856286
-2281549.924177
-32232643.260103
-17043073.922507
-12243003.874189
-4881169.673793
-10508843.931292
-1272213.905246
-30040436.201704
-27223720.362416
-8627549.607353
-8512266.905727
1908024.554906
-31288675.696469
-784546.350745
-21371452.679677
-3925277.208898
-2533703.177745
-18150644.837399
2529363.709432
-26909346.905751
-1300208.174753
-44986213.805179
-1562287.045575
-8464596.818081
-22470084.422234
-13804539.645710
-31575334.148508
-18624164.852696
-6515651.096555
-17703557.754007
-27592693.756325
-15563683.330156
-12006231.738883
-25557315.387298
-19719223.440390
-4009117.148942
-21837430.715794
-43064360.998739
-13083406.752578
-23676507.554120
-19320785.502048
-18759750.682654
-31680438.161764
-1357446.992698
-18586686.495608
-2380871.190367
-30375199.453882
-21860517.096254
4713073.012740
-21908710.008906
-21779112.123308
1287574.970598
-8529507.654773
-1861256.618377
-25624341.710514
-12107780.542344
-160233.749619
-12698191.657682
-9791613.893116
-13398682.275546
-29220985.246363
-181910.422528
196897.786290
-13703257.532767
-1774256.256242
-15939986.674674
-8631282.890654
-24305354.587710
-12445014.556157
-31764839.028880
-3571320.194926
-8002066.412502
-17123640.990455
-2698602.885094
-39317798.075676
-6657942.806164
-20340111.459516
-22476136.804350
-59090632.763379
-36647518.420383
-12664954.186418
-1211152.893733
-4426448.048236
-24595616.283029
-23454585.997631
-11411555.290026
-10783568.191820
-17977553.000897
-9222982.773778
-36556334.466030
-14676920.802562
-32774924.189054
-27754626.280402
-11943760.474391
-26449729.836564
-28029386.017106
-858084.278686
-13118782.692714
-5679747.238116
-31127003.278330
-25758647.125289
-30570829.684529
-24671402.187509
-27569514.232534
-26050326.286178
-31243063.752873
-37319310.159519
-21733443.760908
-2521298.944434
-25059093.176872
378508.236104
-15771003.564998
742687.746636
-3351635.851477
-789679.404408
-2692586.040078
-28861711.205885
-24509888.960553
-11813507.407820
-12809781.803181
-25704557.867950
-15874812.812399
-17098201.842073
-7836180.151173
-22828352.575142
-22318766.183369
-11888656.147558
-36754244.402580
-9416536.230157
-25986355.340069
-9941885.450183
-7074488.098187
-52742.528990
559478.434486
-30972995.317922
-51173529.701525
-8692303.793374
-24754899.477804
-13716652.645394
-10320978.101590
-32612405.180498
-6368027.064695
-6364563.874913
-20021900.418141
-8723179.862322
-30501205.744412
-32165040.404563
-14860541.485915
-12273266.880338
-15020684.442183
-4878081.217159
1177527.219573
-3597127.073017
-728956.292735
-17631588.795743
-32022082.652056
-1093037.636456
-6337897.117531
-21464648.242169
-32354860.990751
-37951361.246684
-28926701.751607
-2412342.313805
-25519268.713851
-23669240.910981
-24211932.506146
-13351203.574933
-10465417.749296
-26467118.918106
-17938325.742938
-16987205.974490
-29578432.705442
-1707309.390019
-25119959.838814
-3401814.836005
-3433256.271293
-23133922.653769
-2051768.604905
-5571368.041501
-5071214.804851
-31727651.686303
-20786493.247160
-31724628.105595
-16996451.738680
-13049477.668967
-14086470.737170
-32580790.834118
-17601499.622661
-39922173.417528
-17155752.071840
-31665361.441439
-24447714.739630
-48021250.891126
-29924509.219356
-25205238.773606
-34967147.781860
-20550924.302911
-25909038.655584
-53844928.172767
-18929030.802629
-18262823.763543
-27189423.157528
-30114159.989780
-17158954.902254
-31336787.954112
-9902822.078424
-5706142.701845
-2979712.753811
-7199017.860064
4513239.622898
-8741176.195382
-2073939.246320
-27363192.112813
-31050224.139017
-11781571.896430
-14908830.321347
-19429686.458017
-9767684.321565
-30036850.611905
-25482580.947440
169815.448004
-18336771.981170
-9047132.655905
-25793152.458991
-22307494.216267
-30688390.189077
-23232093.863634
-12244396.778602
-9263848.460585
-10817017.093922
-17778464.688867
-2051760.267589
-10443441.639106
-30089069.203448
-19908991.541380
-31558262.139536
-5835488.524983
-57785959.627240
-29473020.878368
-6847173.223315
-26736268.453161
-21191332.194243
-171433.172126
731800.824038
-31601031.752184
-3312960.969414
-30827894.382615
-7465141.407818
-12218726.087612
-25287533.693093
-29720745.996670
-21593460.256743
3655383.669932
-2386909.571968
-2524753.471312
-25240838.764847
-450572.008590
-2817041.610904
-26743085.756991
-20207786.559142
-21739243.360909
-32757538.011939
-32303978.925872
-133169.022750
-20989543.189601
-3344659.057402
-20816929.899893
-18590691.523898
-54501296.697096
-7626927.883717
-27686187.170839
-10154814.331393
120043.563063
-31330601.434568
-18850352.639924
-3090982.847210
5987772.726689
-28439556.497676
-28555686.454602
-9524555.447406
-14787611.922810
-5025211.991022
-7262730.693903
-33732199.133226
-21748447.206410
-31397377.038198
-10007635.018614
-40320376.210333
-1069884.918634
-61408810.191154
-46090973.638483
-7725631.101405
-10153318.531277
-24191557.324057
-4023199.337563
-1768158.444082
-19512437.873356
-28430631.091375
-934798.762119
-31534443.324493
-28203396.846905
-7353077.924054
-17188633.880801
277677.494219
-24463450.103533
-10689876.206609
-5054682.536957
-12498422.713967
-2640683.143494
-25084798.290348
-17603602.490454
-10712475.576909
-28223699.121832
-24083879.008328
-23025675.392202
-25370021.355390
-19875568.513264
-29023123.855798
-15203650.859252
-30296714.036767
-10971316.861412
-3998352.084233
-27883915.365682
-32491870.106482
-7764046.705693
-5290205.424927
-31130363.723689
-1332628.049380
-31479404.574388
-4948403.448831
-20035840.399921
-18086502.272718
-8825039.732403
-6396966.699470
-29067458.234831
-11248141.596945
-26556441.928352
-50958539.672516
-4071952.297194
-10941696.694201
-28108228.762117
-32823030.834717
-14650325.495106
-14044936.779534
-8858262.896779
-17650679.057967
-8594488.648995
-589207.986037
-21743606.910727
-4674155.026454
-3899790.524720
6240251.273395
-29919819.241048
-29038771.207342
-13612449.750463
-29723533.445955
-25834377.660752
-5948087.233345
-14591680.384508
-31456934.963756
-10932222.058919
-15656210.091767
-635549.487121
-18001041.215649
-31442741.900651
-16836795.612888
-3108324.782984
-16664755.068136
-24211652.107589
-18840549.059595
-23719815.842006
-32219219.532060
-27605454.921126
-26966456.625770
-38056894.768381
-35307776.093673
-9326348.812379
-23765935.716817
-30962077.183786
-19568808.515177
-38367218.003099
-4277338.538319
-9077945.819385
-31800563.760692
-3275167.941805
-23686168.811330
-3369571.499930
7303492.790432
6663299.131179
-16301144.266375
-30189795.055762
-34266088.253861
-9815158.336736
-14649483.676863
-20002987.245240
-19916459.349254
4493742.889756
-32038452.237599
-29840210.127061
-2982184.995535
-31357199.494311
-8407444.185912
-13096906.031326
-8961976.915717
-3610169.817018
312382.884814
5630438.487997
-19160146.915704
-8260702.476263
-25218636.898116
-30990305.664237
-5875063.480807
-9539305.117967
-7402455.299800
-18737289.349648
1653662.892666
-31206707.491185
-21606966.521252
-14052878.891179
-13134468.824354
-29976866.423832
-11372452.626109
579001.920264
1997786.840021
-17825997.272714
-30009835.506049
-24281442.280485
-7471642.141431
-10053530.886422
1391515.849913
-27419690.832913
-13728847.463408
-3216390.019316
-17867599.394869
-27677491.806955
-821244.593019
-237398.084961
-25692640.323437
-25554827.028723
-66608881.109553
-26812308.325719
-9456598.159200
-17482934.504239
-14587636.189855
-23719532.675488
-30195006.565521
-18467107.165285
-18918931.059395
-31650554.539303
728369.061013
-28325537.798783
-22140274.548494
-32591195.079804
-8863639.845755
-19051298.377877
-3346907.692296
-1927307.959827
-11704091.768283
-46713177.261120
-22093090.465717
-14651609.011227
-18126248.779251
-13388163.180120
-31388490.259301
-32026177.067381
-13548090.812179
-28784462.511276
-7576099.337192
-40309181.083238
-24908751.051758
-2507916.266583
-22878264.888591
-2163203.499877
1372543.715999
-10454167.838916
-15857717.624151
2088787.291787
-5509430.058873
677614.090511
-14142564.718551
-1221738.321416
-46313317.689117
-28386563.794516
3107123.721367
-29474069.311690
-6436768.989916
-15527884.682686
-29271780.196124
-28066800.418374
-21023080.164950
-26685526.341540
-28541320.587277
-12715127.679407
-10018330.494362
-32753338.175994
-12247059.418262
-30747640.273321
-29218832.647767
-26699212.145116
-32569240.892848
-11898464.913703
-30393550.324417
-5475390.364459
-2552037.582110
-24928883.151480
-15024395.894511
-4416141.675889
-7686283.122108
-32917882.263937
-5056798.987433
-16076371.380805
-22721229.061782
-14731168.627737
-2538215.546109
-7070725.910387
-1670558.293675
-17305045.407743
-18066389.101095
-26469072.823241
-32881899.223013
-15750968.581255
-26605833.394715
-9593173.995628
-29074953.954517
-62687303.305607
-26109370.707523
-4924404.993672
-1427614.602097
-23321320.743852
-24139901.932971
-28725662.043851
-1752212.337386
-15795658.792872
-25128081.491989
-41802727.449231
-35052563.155750
-29153508.118166
-25166264.944779
-30453444.292255
-1945529.214716
-2893910.001662
2927841.772451
-30239317.357968
-26966204.518256
-1554697.751946
-29508841.990211
-15340846.311301
-3436981.849396
-19519580.061974
-18817436.115126
-31185809.559722
-32172734.677986
-3729958.233157
-21285951.871568
-2441714.975015
-20119150.396758
-2080816.430262
3364847.232053
-14261787.330445
-15699337.365867
-26420363.324057
-62002718.102888
-10780842.304702
-16427708.341833
-1828762.571343
-15028901.910410
-7660865.669901
-17835809.343268
-28415823.972956
-45398154.551758
-38622553.343625
-22737966.606241
-12631794.555839
-14639287.828555
-17139349.396657
-24124907.540831
-27317576.624392
-31703995.404621
-3896117.737943
-11395559.166782
-12555789.272793
-21365607.481085
-15709603.983243
-10858684.875475
-1419048.874046
-21753205.632730
-30642573.860683
-10048671.140564
1021660.988189
2001467.794221
-10008788.240101
-30931975.849663
-10622841.934790
-8950191.208254
-13360398.732529
-20625841.388840
-11483275.476994
-28011537.490510
-29998489.903268
-9854933.624692
-31605752.221704
-24128890.366074
-20483772.705015
-20516193.735691
-30476511.679977
-2166459.196632
-24714146.155879
-24183397.489807
-12271338.542472
-989521.844463
-9057478.640174
-54133180.860968
-10478618.194265
-9940323.476622
-6858991.602345
-4210523.886483
-31003232.981887
-32627386.797396
-50844895.901312
-5698303.645431
-5095998.838262
2235080.688714
-23198904.855775
-31431804.137586
-131061.853542
-10081321.387306
1396274.462734
-42206885.947307
-26939995.333667
-11359559.116148
-7796473.573021
-29428087.259242
-13949356.002268
-3639660.548560
-21692797.294063
-27525523.897553
-31173947.137645
-3653497.393654
-17192783.985156
-31019429.995427
-23704478.668152
-199868.642736
-32706811.371773
-18440466.235900
-20160543.781698
-9609710.339889
-36686184.494580
-6744467.748550
-16166916.504905
-11883387.851362
-28539987.375368
-8845930.652458
-31623577.294052
-6991976.603734
-30734075.718548
-15168182.119442
-18159080.073087
261787.152588
-29862780.692861
-31739501.394441
-26739934.347123
1056678.277243
-30216050.604438
-5951838.413603
-31099392.766266
-31695504.873439
-20608965.188808
-33674887.822869
-31815338.545740
-13597525.974050
-24843061.233603
-13803538.888890
-8930366.257887
-1195628.272043
-11309155.123242
-27706035.588112
-30962280.374728
-21956324.892875
-25467132.970373
-7422062.524932
-27544245.468023
-18959974.882237
-12134760.263233
-6027315.455744
-4742473.379540
-2337019.493716
-566792.313442
1024552.449264
-19213556.282318
544472.342948
-2841807.756806
-13711419.024336
-23547485.926164
1556789.086623
-16110207.950049
2651493.571512
-13398025.414087
-1627359.448033
-2805718.447194
-55486352.765077
-16982224.985462
-30513154.436538
-7015121.589563
-1045940.727600
-15928588.159199
-31862518.332120
-25436020.564810
440719.518334
-31966134.333252
-31867822.216183
-9039927.876153
-31946724.619774
-6366920.686432
-8743584.260494
-35089038.853456
2437079.337923
-15757076.534389
-31303623.886548
-2162214.363650
-9995143.489503
-22159946.832105
-8800890.231168
-4091928.876424
-32656911.358980
-14566811.152616
343111.546266
-23785704.128588
-5564576.514367
-32070132.582363
-27520018.278720
-6784780.706712
-23143967.964170
-28444300.866140
-33058507.987036
-1449368.751454
-8471774.986606
-26578185.083340
-60573719.232626
-11848742.060038
-4498933.791868
-6701071.120526
-982321.119306
-22814520.584558
2079250.214786
-6666886.236005
-19661366.317173
-12574882.502751
-26330686.822767
-16314860.983845
-9349613.140002
-9685981.383860
-17411242.711692
-23359487.349350
-29155541.057829
-17620402.602008
-20492498.030230
-9520690.060903
-32192702.521903
-2207756.643598
-24650689.995977
-7733437.490707
-10385044.934017
-33813783.560018
-27125731.628255
-32349526.057128
-1169537.776956
-107304.095909
2821006.057958
-6327622.759893
-34161244.485164
-19143230.611838
-31829344.400600
-10881062.427802
1082042.323209
426740.849042
-10504113.010204
-30582815.869138
-32765995.869048
-8884133.500478
-12327534.192353
-12168865.617657
-8658052.108509
-28983459.430109
-66002606.961496
-7643707.048509
-18538903.947616
-31211694.834863
-25777890.987995
-29352204.992270
-32450891.759977
-2985513.533137
-10359597.317234
136724.777913
-30681736.504334
-22884573.424092
-11443295.029366
-30197312.536128
-4242637.223399
-8102739.045107
-18200970.328115
-22161736.231326
-13982210.658893
-22691610.086318
-17768340.579868
-27089604.749430
-33770410.775669
-32531564.123429
-2328550.291931
-17433761.781593
-14897257.729738
-16570992.921400
-12380993.215076
-5699878.589242
-2258834.997609
-44672894.988609
-20151814.014034
-8577165.491090
-800974.237300
-17075814.368386
-11510498.763153
-22469399.788398
-8908231.430973
1479943.673071
-12589925.084565
-9402933.116963
-30953418.274209
-23598464.769567
-15578496.850035
-39478989.139915
-14130002.641692
-31040691.466667
-35485817.095152
-2647424.965375
-35978188.072206
-29678756.671891
-31419405.013206
-27568673.541077
-30375229.293535
-11877209.487908
-32160942.063793
-29971251.611302
-32177083.770867
-57109461.420913
-1391636.723229
-59111578.928186
679466.252042
-12262934.598064
-19386713.957054
-31651119.360269
-2037969.699777
1461524.919517
-31653190.198629
-32009139.133598
-47211806.564124
-30771071.405210
-31545321.836479
-795616.584406
122019.615934
-29935001.934023
-32242036.209022
-31122916.043411
-30251869.128010
-23040173.905278
-15150117.429090
-21073915.704653
-17897351.404667
-32368310.633162
-30933433.638153
-27753137.273554
5973712.225533
-36449273.565006
-10615375.856007
-27536095.120794
-2978729.333440
-20134994.848007
-7948795.585133
7174725.879543
-4923330.876645
-32359515.128354
-39413351.407361
-5229214.563198
-5396028.020641
-14789385.394182
-12170099.857397
-52953441.018737
-4223087.439979
-30909741.939268
-22199995.496880
-2148492.373304
-7717560.760911
-23823092.500072
-5753661.863473
-7936478.266876
-31610397.107839
-1574963.047441
-26744628.002111
-10783115.174840
-1814044.569128
-4333082.075626
-9043697.904810
-5725305.545254
-1846888.812782
-9218077.054096
-28508723.417981
-11892949.786234
-11268286.485543
-5450362.119646
-5196356.141571
-1284166.623842
-23821380.825708
-24894747.422357
-26549730.255486
-20827788.985802
-269701.542525
-31834414.571532
-24607087.826201
-19039536.051978
-8260800.794976
-25329795.339791
-551331.188074
-31021463.454243
-30897121.045329
-24913128.656546
-1834553.589849
556547.075238
-14309869.202864
-11759898.447220
-25575389.398433
-319443.580935
1741958.190669
-27398212.948265
-5760800.453919
-7910470.365800
-8628931.167772
-3974616.748358
-31186954.493119
-30981800.285783
-23605254.714086
-55911572.701517
698716.435470
-11121473.013529
-27650255.967540
-4406049.738721
-21686284.683172
-32492642.926000
-10261080.122453
-15906012.047769
-30025103.445275
-27210490.703581
-32329608.386179
-4733324.333931
-44035369.991383
-22405483.390656
-4913533.495449
-8075814.078172
-20516539.520366
-31366855.664730
-28917462.392148
-29853638.683736
-22372472.680985
-20335525.909540
-30380176.468784
-29401293.675041
-30098339.053892
-18895317.008633
-10497794.686622
-8935812.234373
-30562882.180406
-30049637.095822
-5713358.298957
-32406666.359652
-27137698.164834
-36922226.079041
-22164995.671306
-31412617.285821
-15747170.307631
-16506364.921592
1210447.555982
-30009380.569981
-31800378.730036
-22177738.613390
-19426545.404937
-15329371.611219
-39543010.250641
-7824919.080115
-7271703.069169
-14707485.977055
-3107356.450453
-20907516.339011
-13890224.064151
-23361319.715959
-10979923.529300
-9426371.781660
-11472732.394221
-9167865.596977
-37136544.487255
-31984318.015050
-21759435.708318
-53141377.068649
-4162135.409154
-12951560.392989
-30313547.026259
-4303506.495638
-12441078.817145
-11848845.866249
-427246.081147
-8216662.988786
-17157396.547768
-31572919.991152
-10932617.944596
-12406172.157708
-3864361.138547
-6585556.507397
-8946925.767852
-9416618.773176
-33033976.627789
-25373630.960815
-8913568.585390
-17208611.872111
-29503840.266125
-20083433.979519
-7355028.801756
-5815650.143475
-1387002.902385
-19851694.022265
-21576723.009794
-32559750.637593
-30275183.565189
-4139553.664592
-10685908.785928
-4226769.613264
-12546069.217141
-15418499.812015
2648437.675929
-32719062.398012
-31927751.198684
-9759955.462792
-2241661.198890
124371.692103
-20238235.344383
-18647847.769035
-37648184.291791
-9809200.634719
-30974055.626020
-21081308.256958
-26717047.696559
-26155741.915965
-23835749.863030
-3650851.657462
-16350399.479942
-12808162.566625
-25444946.221222
-27391273.757382
-20048708.044059
-44282655.266231
-24354937.383308
-28911846.487720
-31371220.389115
-3561398.004729
-31947742.419171
-7573606.749572
-15215088.740820
136949.497731
-30772215.172110
2178886.528344
-9987082.160793
-24825176.267205
-7679771.059883
-4296125.116877
-6270939.003134
-3841772.763343
-24782742.341194
-6677425.699756
-28922251.765928
-15171186.209250
-25371813.234718
-24076136.041035
-32162662.749318
-24692864.396023
-1376731.985585
-51210516.096116
-14996946.935044
-9819435.118370
-16924886.678207
-11775544.123968
-16752233.539705
-31052513.243211
-19888094.907254
-27209279.580947
-27754578.375158
-31088113.449557
-26954286.711139
-27172212.622881
-26142518.347236
-29112657.247602
-30984419.046755
-27840593.186420
-3140514.775411
-29786852.901620
179705.081728
-35790350.462730
-3258821.556956
-18530924.067184
-38158129.296279
-551673.017413
-3758955.000638
-4242277.994325
-15445073.769743
-32869914.155487
-19893702.872391
-30615894.158613
-9418286.820823
-26789202.717456
-9315696.232632
5436286.983752
6405285.198832
-48335044.084335
-9386073.563282
30693.862659
-35836405.388653
1817443.596323
-19926213.724663
-6273215.622210
-9807591.698675
4395922.777781
-20721455.669202
-31608859.930327
-14147067.602414
-23290353.566344
-30156263.721453
-17318673.617293
3887275.545334
-4983185.012607
-15154376.418393
-4214866.095642
-11867520.711649
-32418555.139910
-5450260.100391
-30447832.096422
-2977376.834785
-5931347.382416
-21191934.765262
-35204989.373451
-6488023.254968
-12630475.924936
-24206262.609851
-50560521.453917
-11667090.306177
-19055997.156750
-22909796.908881
-12013254.907064
-29594681.795692
-4180355.377319
7583670.196421
-9418070.888577
-29371628.415041
-26927195.327467
-7930040.631796
-17470920.663717
-12850826.364749
-8467216.356548
-10591992.252324
-18702332.786550
-36446719.982960
-1102669.090949
6864921.578393
-16651133.050115
-46085685.686251
2439954.748282
-28599523.546385
6076418.814061
-32836014.545720
-16371551.306368
1002876.326251
-22977913.704145
-9840800.906022
-12056697.456710
-23149482.895271
-10836923.071627
-3096154.184802
144274.047537
-12325791.252628
1485004.254012
-31225941.209715
-5532971.756324
-54367057.312825
-11039859.964713
-16722583.529176
973316.901891
-33058231.392534
-8687417.240367
-31705771.150350
-33081313.114594
-16722610.413472
-22211275.835288
-7053023.629415
-29744628.593858
-3020364.870164
-20193442.998291
-5362619.697863
-25660676.014670
-31243318.455108
-19071071.375313
-27480140.518829
-6347906.355063
-39133254.749299
-22477357.272025
-8186441.824940
-36286778.196991
-39749371.655769
-25687087.022394
-21946229.031027
-23981510.861267
-4879873.500846
1743713.694599
-9599060.895730
-31057062.141377
-6068006.374717
-5489033.011569
-2019041.331291
-28217689.898417
-20813215.132119
-32996291.209868
-9723280.320923
-977148.102696
-6412175.611166
243366.786987
-32218799.201099
-3273050.999149
-28955705.596118
-21853748.620521
-4768163.119907
-29722369.619350
-16660521.602485
-2679435.018789
-27844425.663660
-10323634.063509
-5647370.044936
-7749421.999698
-8883136.073832
-27331395.436643
-17912651.023568
-7922619.634171
-32117094.496052
-28006128.344382
-25378446.609425
-15592697.322769
-5447402.885916
-6114337.924169
-15893964.247577
-1022932.252934
-50668145.493817
-31605833.959466
-34223382.045370
-14900714.591452
-29339331.196430
-30828181.875082
-15360871.310021
-14320438.830893
-4230511.563537
-16259337.694102
-7469275.632079
-7297803.637145
-10696373.650301
-31853267.824189
-51438426.349396
-28166580.371501
-35824060.454469
-4910836.024609
-43585311.448809
-3708263.160258
-30274997.712101
-36183073.362265
-8684692.503843
-8162000.668061
-18229357.432219
-53059033.298239
-20188077.380961
-28383752.740322
-46003282.624750
-26474666.391150
-21177293.188014
-18552801.462544
-32889835.495598
-3921044.794270
-55852530.649106
-175686.377934
-804603.348143
-18775757.615271
-8342045.627475
-2952917.135315
-15704073.145661
-14729343.388658
-29417567.058395
-10019881.188492
-31068467.028003
-15854147.548817
-47272664.575920
-14847732.276103
-7527179.994687
329916.971155
-5636667.300392
-17444912.167552
-57457807.109101
-15459513.044048
-13113842.914802
-19468215.318796
-9932627.490984
-7610369.937557
-5167218.977815
-8295892.502866
130549.744171
-25291607.539439
-22581483.822021
-20811265.897889
-36346764.040930
-12648274.348937
-27059349.897493
-25873870.492517
-15525930.387250
-8411736.111026
-29419148.065609
-16865909.039351
-35530633.243069
-13612817.842307
-49741965.061116
-19542037.554209
-20016287.381286
-24087917.782761
-7050427.309890
-10729851.857504
-13091079.860120
-16327412.898104
-29054036.244818
-11231527.063034
403084.379467
-30392919.873065
-17079703.405515
-30815088.825846
-12162238.103615
-8357008.604431
-30458567.416543
-12804435.670551
-19049837.828641
640793.520619
-18420780.715167
-32057951.906276
-19596947.322745
-26749278.605112
-232346.420744
-18434858.003837
-30159280.346456
-5535220.177328
-17131560.312386
-18988948.756381
-6114659.100207
-12901279.753372
-30152846.061169
-13906506.937990
-12814742.005304
-9915009.054818
-1379220.902324
-3482787.695880
-17306470.972022
-31231221.819575
-43981296.854000
-31008089.449240
-2817785.159788
657641.982758
-2649069.888270
905731.990646
-609142.911531
-12711428.532357
-3013178.111549
-31241378.309102
-13245635.521543
-32047078.856951
-9882285.243177
-7110341.584432
-42104851.601132
-14853214.634034
-15950907.127362
1473665.857996
-18091137.505364
-9501144.060889
-22479766.313631
-18007700.054186
-9031728.559882
-2487471.191203
-30394327.216873
-35178644.873980
-12849244.938281
-10405553.491990
-12107607.544720
-48189493.895060
-21374672.135136
-49055020.226986
-15746294.369248
-47112481.355052
-37631910.788131
-43102897.460689
-30614236.942998
-53110324.123333
-34558802.809547
-7727125.481758
-32921457.007213
-31287887.711698
-27380860.641630
-22957474.567360
-15193256.983946
-16196808.655458
-24955669.411964
-3291542.775076
-14599772.261950
-29906087.228129
-4762182.773957
-18480523.462179
-39003877.687259
-4353892.129305
-26329962.800664
-23450745.932915
-13523478.864270
-11889593.907367
-17569842.003741
-4567118.892587
-8445351.384243
-6680277.498085
-23841993.173277
-7295664.167479
-19284196.732899
-30549263.445483
-31954602.750673
-30596584.671559
-5466058.423238
-4960672.144866
-29921970.037720
-46573964.250359
-43590626.539975
-32222034.982181
-30840797.861733
3734831.963752
-167132.232765
-20460152.902298
-22809933.642427
-18273451.418022
-16947648.495084
-4609988.655722
-28322786.109728
-26026063.241813
-4602248.759582
-31844387.013408
-27347092.294117
-12904011.682050
-17373425.525585
-35710045.323812
-11840270.537908
-17694075.559241
-41322943.666670
-30891520.206155
-29699121.957083
-26147277.940008
-11234654.678048
-34178006.590996
-25095398.332605
-28781400.263187
-6353745.572514
-43944856.615086
-7706897.122447
-6396840.819526
-9175652.482932
-8432253.544043
-12740927.697890
-4870635.984419
355740.956554
-16865768.509582
-18735965.787118
-25433530.911285
-19024354.389709
-18565344.658582
-4302462.394240
-15617786.360881
-10152507.225577
-577612.534837
820390.677346
-19956582.686961
-27886080.713401
-34339020.122059
-30635500.906840
-46936088.933898
-22307268.939910
-18064633.884205
-12404732.050284
-17902271.781037
-13408983.462716
-178524.638066
-31012105.854824
-28500042.595676
1888175.624551
-16097871.351981
-581134.127098
-7187215.691440
-32804602.113004
-22813499.739623
-26807871.821397
-7977584.456680
-24083545.125646
-21445071.915556
-8589822.295278
-22439139.477443
-19002966.656441
-10705378.273333
-41195573.943825
-28576182.393494
-3648774.458542
-22817936.717069
-28893392.828277
-17941710.659537
-60690616.551552
-21252711.036009
-40285675.118267
-27864230.494623
-19786345.435623
-31017311.027292
-27890346.945327
-725936.635848
-6089438.898150
-14606626.072226
-37252385.934498
-18408124.097938
-18565870.761324
-23758937.580688
-17479066.662039
-20549669.446986
-30713783.047054
-22611193.082719
-32542639.899932
-54161.087106
-29832193.294319
-11094911.195590
-27541863.355190
-5635344.642526
-15085678.658764
-31130592.923225
-24173382.003412
-31900905.858375
-4097615.610243
-29531268.636266
-17046933.421036
-28032228.362438
-6777477.132780
-35544545.106164
-15915228.216531
-834643.718623
-16446998.243101
-49613983.140126
-5133860.738484
-16822149.488099
-37784445.727442
-2588579.828595
-31923474.847658
-28739202.502177
-30062139.731085
-7703509.164506
-24071734.206942
-2425828.149401
-9553910.112910
-18318243.785740
-31340077.573344
-20870597.746319
-55876913.826446
-1417307.063265
-36597625.488943
1878737.766205
-14181652.427590
-22813855.173394
-11385250.020177
-35297518.769607
-12944556.216257
-18414823.625238
-38490735.958798
-55190272.564247
-16631330.908913
-10528500.116941
-22504006.209817
-36461606.988180
-2010296.909814
-18996346.367953
-39906314.594391
-12268591.457419
-19368225.414496
-26473830.832906
-10782475.172146
-28303088.719525
-19129017.868892
-6071925.249353
-33694346.811786
-664693.203906
-11343289.508358
-27197614.557805
-4974995.750572
-45858582.069274
-36021307.409744
-8274702.366030
-27039010.745392
-15455109.728552
-11454655.988483
-16306456.719425
-16653237.205261
-14193854.781157
-40201964.157979
-10117561.671246
-25147005.276817
-28200887.200636
-3133404.229156
-46576458.222866
-24772885.231545
-25919501.855202
-7470769.366513
-9939804.137655
-1473000.890091
-804308.717517
-12562026.726158
-22411580.120306
-44230167.105971
-31378548.997546
-4947550.335500
-27742015.996513
-13651234.911329
-23488543.046229
-36994528.445953
-28349097.208017
-35123519.915153
-21663052.265565
-29249285.212520
-32274528.000144
-36639473.662088
-31498551.878288
-3487993.432470
2246977.117331
-2938132.313215
-5758898.566354
-28136149.353789
-15266423.819794
-21578001.895957
-25909944.796750
-37963024.423122
-14319224.992933
-50054904.997357
-19300050.762931
-12878253.917421
-31193249.459282
-29033110.808487
-49946089.751373
-12898734.588464
-11163836.652288
-20524952.237508
-19843097.555024
-15399659.998987
-30437647.052159
2533566.154478
-46159210.189951
-29736276.560271
-429520.270709
-31785702.884021
-10847329.800353
-32951035.092843
-14338052.277893
-3670091.060005
-7668409.664699
-44385784.219574
-22424484.945102
-36702718.903557
-14429581.320291
-32360216.012393
-18710299.283864
-2499061.359987
-24672849.382443
-239327.985214
-4897507.243918
-28319758.606674
-31957719.223014
-47744553.792891
-14023294.730521
-10944446.180862
-5856182.071321
-12181871.995268
-5914848.261797
-31020843.581009
-35065144.832381
1550858.030038
-28037176.513497
-17550668.095888
-31375908.950692
-32242604.948072
-26539530.240709
-29168343.610506
-10540068.820726
-29777029.874056
-31890147.612515
-5972204.209708
-19113835.750095
-24738103.069424
-19066996.395150
-44996528.754110
-18618312.235757
84006.275494
-13547574.044102
-18614127.787561
-28225879.878927
-38125681.149316
-27080701.230333
-3338454.532910
-21877943.343272
-23614444.035970
-35015382.120660
-23236801.749255
-29791587.171660
-30046241.935836
-28571391.356919
-16126749.883957
-19880437.297613
-28555316.429517
-19163464.982713
-40587523.947837
-10730012.332422
-5555784.966471
2482147.028000
-28065458.483617
-31157233.898401
-32948371.868497
-28356312.301586
264382.076637
-20777881.285470
-10479461.738580
-26766719.552785
-20255869.227889
-57209722.353130
-21640422.859804
-24524093.001914
-31754145.943690
-12020418.250956
1540563.842687
-12536777.206146
-10084141.899700
-9775135.955883
-32228309.575684
-11775281.641054
-5043331.356535
-17515046.701928
-44733458.992295
-21242757.285650
-5495386.047961
-9529371.527083
-8080220.758578
-45679402.890332
-22069663.411355
-3856228.616436
1326089.103454
-30723629.825356
-19080745.230930
-29508554.769861
-29039164.140291
-6773083.496872
-18777060.161221
-14333877.597796
-4974996.247032
-7414077.779787
1405882.848992
-29881218.309454
-51637786.019988
-8395125.195961
-30396523.830565
-24797449.170074
-16530357.583373
-31659817.764641
-25638527.968831
-20900149.912030
-57044359.398386
-43584278.317851
-50142704.062748
-21529006.509548
-21356341.697933
-9117708.774794
-5406126.615375
-10147190.652956
-289732.171446
2554038.119187
-23758417.701373
-19037250.051234
-1194196.539798
-30757733.974851
-8498302.345576
-37353594.557355
-18207402.613216
-20378535.655949
-27657208.038501
-25089698.404112
-47091987.061876
-20354402.272394
-1051130.918621
3619520.345030
-18211780.467881
-32197599.324588
-12401040.111302
-30850073.363785
-18111394.119532
-28389049.912557
-30704031.873905
-26593922.735505
-26284716.727332
1260107.470181
1764818.325016
-2096002.404096
-24112195.123627
-18534994.582769
-12088076.099471
-32132468.374062
-40238709.390102
-50870958.065526
-32947955.716537
-18934427.104955
-33855887.802331
-11238289.924708
-25861259.888154
-17186961.856492
-6462752.887846
-24123325.884729
-23730242.593362
-11814711.579599
-22487060.174320
-17406558.360993
-15671283.621497
-47389163.121459
-12374273.375509
-18476654.048611
-39477728.709614
-24152903.362787
-4240174.128382
-13438881.863358
-4824552.675446
-13881336.360556
-25310024.227421
-24928996.662919
-29949692.054520
-6865627.922880
-14789676.324787
-2682328.773535
-10341563.561418
-4945131.083582
-18743384.631102
-4895828.271829
-20250870.812476
-7050212.842492
1105810.847070
-10941416.409884
779318.678684
-20488578.360938
-20430211.813851
-33704553.073897
-22796527.155287
-27437865.333699
-16351139.859896
-4891275.578881
-17041151.394385
-61984799.936901
-11566549.876468
-16491220.928528
-15823875.119119
-26627440.485651
-25939379.538759
-3771240.675516
-28204405.337486
-10252147.741316
-31157003.108309
-47158120.649234
-50986095.723846
-17737054.288202
-17278775.082375
-13986069.262072
-48915377.339928
-42710636.699368
-22724233.417630
-618036.190877
-18119256.296515
-34909347.368954
-3190821.473597
-18325525.877176
-27737495.493787
-45158037.707723
-5239673.980323
-52761070.233485
-32290627.028102
-10465741.357538
-31531750.125839
1211192.787103
-8398783.264795
-31804972.589694
-18429435.951286
-11644804.035752
-42423449.708292
-16577715.609757
1400164.077016
-35570420.363243
-19404049.710399
-31478825.333102
-4311351.968366
-31401200.499471
-24928491.378731
-5503269.438286
6532889.275995
-3166677.120175
-1960774.223530
6939028.141563
-6212140.271359
-26496367.067405
-51411080.568506
-29853211.274977
-11896734.257377
-8128226.892407
-27700748.758938
-22930484.239922
-5489116.714654
-47887139.263342
-21852900.183218
-11963086.314981
-28305222.379510
-11092494.971312
-31587296.994582
-21705893.552901
-4529522.199442
-32698842.149205
-1618349.967888
-46393420.207952
-16167893.902586
-16409978.780829
-10820367.016406
-10075387.089353
-30382348.364058
-30824671.707152
-47794798.939744
-44053578.177779
-27868019.062921
2987541.749678
-32187822.040840
-18887027.516318
11253.102118
-17750375.670383
-3671893.577713
-11717973.071198
4758618.406864
-37795195.434127
3931143.515621
-3490743.797965
-37662677.808259
-22339699.757519
6053278.945591
-28563446.076152
-28875494.216657
-6167228.613568
4016330.325398
-37047736.466098
-17559119.407354
-31674225.700880
-31425829.185061
-46759379.780890
-6737764.512009
-4725340.257323
-654063.126216
-30849064.601643
-1734300.983353
-26621589.040471
-4181744.963757
-6454815.568299
-31455961.245696
-24578727.784304
-2308642.858858
-18521536.207173
-23013361.604215
-20870646.416542
-31434541.504869
-10282188.324999
-21114093.104114
-29859453.461863
-31835679.835832
-23429227.992415
-24099471.616895
-23969873.689431
-38206749.202168
-912998.593467
-28341852.353557
-24685095.606230
666341.407466
-6059546.609009
-4557476.729806
-21463897.075895
-16014246.234931
-10777164.248128
-11577031.493643
-31662086.281852
2884651.826801
-43248545.513207
-19326792.688018
-14471306.358724
-31979686.617533
-26869331.788958
-12273426.855502
-6977298.626281
-3481984.467984
-34361234.524998
-4107252.666033
-18033863.530369
-3696595.291732
-5000400.395062
-45832240.940120
-29192347.269606
-24166251.015739
-7427342.462696
-25720569.475843
-28521119.419001
-26252055.166254
-38658766.248544
-4746728.448702
-1957285.390133
-28831103.528581
-7048240.308913
-32753762.978143
-23183057.342104
-21987565.584871
-25609834.339833
-11369140.879579
-18988651.557542
-12145589.351631
-30626854.981419
-28322999.021273
-866653.748103
-10334993.226464
-16364628.161110
-42764756.150320
-54364531.563298
-15532557.802987
-12536087.186198
-2874006.604866
-16037487.725529
-16952806.919976
-2701128.398893
-27562763.362228
-27203606.194210
-22461509.208093
-52566370.188242
-23182153.284488
-5739094.752474
-31697647.758471
-12673566.556631
-7293072.218285
-23319913.705128
-5479305.342333
-34751628.351354
-831650.548207
-19298328.092587
-1792159.495210
-3090712.684265
-21896275.885235
-22170081.150703
-4399605.937846
-27011594.505503
-26372590.209882
-8949783.820493
-22669765.918517
-23904059.316281
-16123023.142084
-3035997.816226
-44678463.589693
-19263034.814784
-15059279.876758
-15428357.877821
-29727879.791301
-6146632.871998
-6665241.396953
-27921454.607117
-31015561.406982
81688.074653
-10885744.326417
-49910554.235739
-13680652.634395
-13885553.826931
-52205419.908154
-2215931.541962
-51319356.821128
-30791814.289947
-46835083.837654
-5543192.534001
-48306655.883135
-11858182.134968
-22996196.407255
-10678743.335088
-31569708.091676
-6268862.902899
-25721637.372901
-7857911.965564
-40176308.539890
-17990232.159732
-17379477.843882
-27582225.344803
-16798630.926912
-4955277.591805
2573976.131928
-6807244.457691
-19274659.529985
823244.754435
31680.032219
-32734480.851184
-41806653.314256
-19352523.588539
-6942436.212535
-29504209.575909
-10407518.841260
-32457818.409798
-16028943.295014
-21552660.116773
-42231144.617254
-20966966.513219
-28719031.654119
-5153583.396568
-15851140.786161
-14805126.921270
-7640697.193188
-14634445.638010
-31995392.291317
-32578963.619720
-32645868.928314
-26295295.862733
-23777161.744022
-10874249.991475
-29720692.495760
-169768.434435
-23126004.893849
-10473094.908021
-32347926.872931
-4340386.767309
-13295699.835850
-2601339.815166
-11683731.492521
-39067719.399318
-14433319.273429
-24019081.313371
-55704316.157937
-19077503.927336
-5476977.404605
-24203200.239129
-16267995.260919
-29930876.713627
-19083026.534961
-44407284.483335
-30644344.997501
-31227456.341098
-30755752.714443
-14169119.659894
-18642154.713956
-5074421.738589
-22377465.667266
-13337563.197192
-45155044.189827
-38148037.294604
-53216368.471513
-25463731.208435
-25947246.198378
2122222.284639
-30610216.289150
-7140649.113103
-47976825.931819
-28641963.627985
-23461190.042287
-31696361.392161
-4870396.911351
-4605579.716285
-2212614.767770
-24519952.193361
-5450083.890005
-69621.433420
-2483151.001447
742155.717309
487816.441129
-437554.830081
-19582154.828841
-11984279.613405
-9986006.638673
-11375912.365715
-7583631.409122
-20235864.556661
-30133493.697662
-16855915.300157
-24223451.645149
-8537009.489118
-24685882.542718
-31993378.639826
-7172104.671264
-22723370.194567
-26124742.306502
-36129400.241344
-35677588.393394
-31280282.729272
-30661088.464614
-2595130.588308
-32323090.563928
-28788381.054713
-8947213.849772
-413398.299047
-4351299.654137
-25759210.133203
-29964042.530866
-14147433.500668
-20487766.690846
-3343750.912103
-40156361.273552
-21679866.646671
-20671707.461238
-10331934.127498
-5019204.732319
-34383881.086900
-14632550.264826
-4206069.624874
-13521617.763031
-3494912.152142
-17155276.269618
-6388386.808499
-13977966.037576
-19449098.345177
-19402136.174865
-21280713.933464
-15071419.004951
-9120120.722600
-3825684.437846
-47394971.066779
-31450628.010908
-22289615.523359
-2072004.780920
-9740453.610874
-16217994.391880
-31281406.641367
-40887048.707523
-4023952.054373
-23805083.909416
-8252901.084628
-5631145.819193
-27113661.233978
-51297331.565430
-31224414.298188
-31788009.941023
-703212.482066
-21538059.827759
-31038115.233052
-26644779.125200
-4590219.875506
-28999406.543866
-27112822.972525
-24122481.164167
-56666150.412532
-7805174.409152
-20366741.477156
-7617087.284674
-18335155.566966
-23120924.800756
-17482144.419336
-27185747.927735
-26719526.598746
-50432306.087696
-29622735.556786
-4777678.903030
-11490345.870643
-29412974.702105
-5365200.531959
-1314509.612000
-32440576.776830
-25123255.903489
-337090.641910
-22303198.385485
-20542073.902584
-19718763.082493
-26959267.726244
-25144166.618400
-13144339.595315
-10987351.775188
-5349619.353630
-16353157.134570
-6161230.712242
-27308762.376784
-24744040.154903
-26860486.688579
-32833485.878616
-2857103.093105
-4317997.299097
-23106511.110427
-23791203.892234
-27067056.150684
-16902639.334923
196258.714918
-32580577.457213
-23489433.228882
-13389488.091715
-29487695.430425
-5383194.255529
-16600418.541948
-11367661.599904
-26371039.650446
-4847066.746179
-24550580.029284
-11061144.387674
-20436341.509216
-22788345.864361
-32063554.849160
-26850805.580727
-4457454.178924
-24490231.766835
-20912514.394149
-8093890.785583
-20956526.529617
-26499229.249847
-7543969.971836
-13794568.189619
-4918651.996950
-31434285.337888
-16741823.934612
-16730375.201395
-3489055.276118
-23825947.615543
-26218319.739860
-9250703.398798
-32788416.409878
-28623281.189616
-26327556.419744
-6547281.412944
-52477931.357556
-4043342.988717
-15222385.148689
-5526533.893983
-15886393.895648
-24465242.594772
-18652916.333005
-32133367.858347
-12864001.428497
4575642.949367
512434.225408
-12660547.776653
-4519675.119299
-29568184.799902
-17621865.217963
-33908159.617572
-31253158.844627
-17512800.709749
-31642969.957009
-24746267.147364
-9855329.060124
-3742911.566098
-62537196.489707
-6886481.886314
-5673745.004090
-24868123.920843
-6135508.169644
-17361289.712820
-6038568.466361
-5155905.126903
-6217166.072541
-5973823.069717
-34040840.257395
-19311148.309731
-32165448.268619
5355991.919137
-25553244.048510
-6459445.178559
5574954.190618
1091480.971105
-3215628.978654
-4477651.438753
-30122257.133773
-12027001.501658
-17983967.878046
-48287560.562552
-9631079.590667
-7296724.684760
-25200065.411863
-2293628.137888
-5368073.587156
-12483928.798524
-6852312.797810
-9191967.531955
-7604137.322822
-18220066.347092
-31365776.721575
-10264630.278823
-16532316.491886
-19230628.528415
-30477411.580661
-9727249.124575
-4033241.182301
-11289252.346614
-25175228.397281
-32864388.949353
-30692767.789387
-9612427.878191
-29796797.080803
-26103450.675074
-32695348.440044
-24802805.896000
-30987270.877325
-6150129.550704
-21521336.731354
-6457497.788111
-13328261.853781
-4241774.357766
-18689251.654127
-10311803.565234
-8149799.612420
-32518235.122515
-13382881.778734
-9891144.340187
-12272254.653549
-18755582.493330
1424545.451993
891537.436640
-5018071.860913
-30351267.716985
1873222.884361
-7149369.197182
-5528027.978644
-23648985.509144
-31673311.299413
-6020049.510620
-27868636.414047
-30949926.118982
-23656766.965190
-11083164.166049
-31838518.042698
-8524315.500323
-34014478.592290
-24258111.419489
-32647472.739440
-18083529.649576
-17280540.021324
-31915928.504317
-6225201.569195
-27351646.059099
-4291379.024726
-21027629.758859
-8338229.194485
-8926235.315192
-28442702.882104
-5918336.331609
-32655803.935763
-30951752.068339
-20435972.147218
-12686806.232483
-10455335.373705
-12197662.147130
-32796264.744755
-8941642.094864
-12980883.823670
-2304119.016902
-27477087.024420
-21009148.098242
-3567292.846778
-7377653.058645
-2063998.021149
-25001887.134630
-21058188.703854
-9070745.117496
-24159677.096767
-5903929.887874
-8311422.542707
-21620351.096086
-20991571.771890
-18445381.615798
-3141224.502311
-11774958.166745
-6041609.498540
-22807672.507777
-16888829.512502
-9506806.032609
-11102236.247558
-12642620.875973
-30746419.389887
-30559165.893028
-25650007.394274
-4904431.729708
-8050442.212932
-17871236.921184
-21609668.730212
-8605060.743468
-6961706.862672
-32056603.439625
-5101789.638733
-15872374.646940
-6197919.351298
-10169944.384366
-26858332.319575
-7086343.375923
5922954.560221
5352693.552613
-3603587.518774
-26036124.954946
-21528530.029817
-32170032.991785
-17063705.263357
-17389754.798591
-29195147.695336
-6073280.424749
5431601.495854
-31771502.045749
2720647.398244
3444974.113597
-4323124.392567
3342512.109551
-5281522.747699
-9100704.867807
-5770534.881134
-18738438.168569
-8792897.918290
-30496861.647117
-23241623.620995
-26366609.494156
-17025743.607859
961835.558821
-28335650.818796
-3868406.263796
-24270771.658809
-31333962.641325
-17747356.114137
-8045110.569722
-22181149.636361
-12928217.786334
-9867787.779963
-25434186.896578
-4196443.323928
-19792255.773927
-32782291.963003
-24747386.277517
-26963316.725844
-27557029.935416
-25536106.871098
-31614787.628840
-31178041.136144
-32861315.778368
-7629182.067218
-6101953.689329
-32144540.330105
-22714304.847027
-6391630.057905
-31713198.643206
-27651157.293921
-28059480.109024
-9552761.334302
-9766007.102028
-23498388.281431
-26486924.263026
-6497756.284278
-15752048.834659
-10374932.296543
-32112970.248952
-30939937.713190
-17820253.422275
-21541292.128946
-32088629.398054
-7051088.078619
-22092449.201036
-25744253.107385
-25234208.424654
-10882193.619712
-4703375.282975
-22740720.027007
-22647030.988276
-29655569.082385
-31393995.035739
-16378660.210402
-22084077.675723
-32690297.430421
-21484946.424248
-23287130.002180
-22172801.725104
-14502384.261200
-29157280.171075
-7978819.905584
-29132126.041551
-22322167.554586
-25738678.953062
-31964531.632694
1155236.425437
-9231492.385786
-15496769.681178
-31612962.466946
-14222507.168967
-28738463.905793
-17248115.716077
-16541911.883701
-8463972.740917
-38881.363785
-2213430.102830
-460796.612114
-1675344.942246
605948.257180
-32293862.483890
-31889473.380097
-32468342.595211
-8023248.207938
-4775005.915225
-24580160.505197
-6563043.674142
-19278235.736570
-9007767.041026
-12317278.452021
-32161277.832500
-22618646.901387
-32758568.183504
124369.008669
-17405170.953536
-31167204.702811
-7927257.560473
-32442425.398283
-23723247.649079
-13281003.849093
-7602791.861414
-25051404.017956
-10279682.348888
-23143723.450770
-13347335.256645
-28003507.602988
-8378276.794636
-12505874.391396
-29975842.886616
-10607381.675758
-25551993.959491
-23191084.873929
-12936002.538272
-26478837.020501
-20141369.677775
-17695674.977830
-21932701.813442
-30864391.635214
-8688257.826849
-29976178.853912
-16843576.830040
-10936851.275558
-16612457.470221
-26267090.266702
-25240630.158206
-29424454.853355
-26584504.118479
-6672394.860586
-17474214.050083
-26691635.245545
-23657879.843121
-28739479.011395
-31341631.790917
-17367241.643269
-31891155.412246
-26194897.283422
-32156040.095013
-31647949.937905
-6986319.361600
-32527675.140093
-27483950.049825
-31337194.777851
-6406034.591451
-30293837.315050
-26431025.294327
-23433544.991521
-30778524.738161
-31365959.397152
-20065057.466029
-17112536.885872
-29182863.593390
-25579863.965399
-22791877.828649
-10579982.417365
-12496647.556664
-13616220.313961
-28027816.989229
-12743898.930228
-30311865.005823
-5895429.808493
-15125040.210461
-13920638.748838
-14872093.365924
-30652780.597234
-13645332.349927
-28954156.843659
-28189810.963558
-29656332.485681
-16983530.491108
-29779493.125496
-27366388.221490
-27257396.380413
6472543.113037
-28523935.453828
-21917875.198434
3541727.804128
3443385.274609
4441570.594892
5680818.180352
-28714310.279308
-26228752.876485
-30071303.312550
-29389711.056777
-27804678.770046
-26518495.691256
-27939465.916042
-32660583.511373
-25867782.446371
-31716516.458655
-31211734.791816
-32224188.745864
-27027415.528653
-27943184.770005
-21923047.165703
-18330260.485254
-25662258.984718
-263986.053769
-529867.250980
-1456603.182299
394812.190119
-1998195.048527
-20497305.148406
-20565003.427834
-20090624.601656
-6204221.444780
-7002925.156725
-7966075.270508
-20907390.286802
-21682941.582486
-9380901.338023
-31839265.001770
-31844504.707938
-9850748.434774
-18564718.487183
-12585923.757552
-10689737.078446
18107.159023
5192584.038204
5778696.695997
4991605.937608
2659887.591754
3747603.267881
-7482699.101910
-7052929.871387
117488.993943
-26400820.477465
-1653993.781204
-256870.924266
203666.771208
-6490291.590611
-5708274.947278
-5961560.112868
-21278931.827576
228934.828032
-11468102.310291
-12616547.771371
6361748.845945
4844239.760978
2393412.213647
3870581.109417
-26883460.930971
-26843377.017298
-43018.546103
-1342671.282947
-1446086.518673
-4682040.476342
-5415481.181022
-21283393.277587
-22116687.760364
-9370599.190922
-11565610.859092
-12523986.726037
5540512.430816
4116343.288711
2433032.847492
-24910107.940558
-9435806.345370
-1198470.588973
-1017301.010903
-5002.154093
-4913107.565525
-21697466.788751
-12445731.721200
-3788011.882652
-2739157.134408
6369793.678180
6130039.605393
5613059.485090
4268571.181212
2430809.942502
3351799.710443
4633512.441960
-25432600.884732
-23396092.968306
-698582.617768
-315638.201729
-682047.959673
-3787379.817177
-3225949.063082
-21865264.683224
-22565785.786314
-12109531.065919
-765132.869250
5201305.365444
4460959.019249
3793230.103289
2283965.855531
1035821.870462
3474499.820723
-23452678.439365
-23049137.150838
-358995.613568
357710.751946
-3306212.978042
-2726651.226116
-22098600.425199
-22443600.148688
-13042518.072286
-14272880.607560
-12234977.029962
5870488.113526
4129100.596961
-2209319.724304
2046945.329111
3577506.759140
-5160547.736932
-3842900.008036
-23934681.305368
-21782409.729856
-3482311.955693
-3351725.298300
-18084.939730
-749555.665840
-2134300.695546
-1736914.751898
-22986304.145774
-5473716.116658
-2832392.494427
-13755588.563156
-12480264.365805
-3361255.923121
4735356.139087
3300440.532655
738133.052485
2703765.917636
2101752.579785
2994788.889347
1162484.794819
-21489002.901899
-3182326.821125
-283250.718464
97039.179988
-1688380.217243
-329459.744722
-23371990.405788
-23832700.692915
713072.854489
-1148577.367330
-1616317.581157
-10949242.936424
-13462941.991068
-10228770.178446
-9548957.794484
5394086.083210
5847062.170773
4748610.295538
2748928.031344
1820103.207095
610819.855600
2850727.981015
-22157668.857370
-698296.503060
-917326.173906
-10059678.982873
-8419300.322252
985682.758813
399218.248995
103389.444688
-303122.385736
-478389.528174
4631606.071647
4503558.359452
5252803.073085
-25119323.259101
-24283618.682561
4254853.466910
-9489678.696076
-9239934.927614
-10111484.959760
-12539886.519704
-11076130.717347
6373375.556015
-20285704.381159
-9090521.637552
5565757.867670
8039198.976468
3512072.004746
9645961.248764
4627459.360074
4734010.359985
4072640.174542
11159397.375228
-36665555.301267
1786909.403073
-409093.161757
2154143.441412
-670994.917767
14942.747560
-19576705.555077
3264262.167330
-9261741.053122
-58727238.007785
-7887075.841565
2497895.967981
1254915.868126
578034.966232
-93172.504667
-17627127.406620
3007395.004029
5751374.345842
-24486809.879041
2441703.318582
-7056822.472006
13645725.232004
-46673856.880001
-5055457.453864
-9764019.128337
-13490786.490756
-11834841.833892
15601154.618867
-55706066.109500
12471287.401844
-3976746.651335
-9193998.814176
-8912480.336964
-27367314.934674
5338726.791033
-316222.692406
1064326.911867
1459489.592632
-369932.608092
-3671.424092
-7368183.907878
3180034.518552
1133062.881440
-20253232.399511
1462756.663942
-820753.901876
145434.405975
10323.619608
3509559.187002
56393.198021
1137.008965
-38017185.131812
-22363921.359178
-58655827.067791
-24905145.752416
-68811449.697007
-21360988.439566
-23382562.868098
886758.247778
1156593.996148
-22584177.752941
129845.281589
13196501.282380
1345720.429042
-47520212.666253
-25781278.232892
-16552761.948945
-16839959.421855
2544925.619181
44781.899755
77440.139388
-5436717.429369
243507.933062
544741.871085
204921.633092
182621.507439
-64193242.138247
16730953.655093
1382532.109807
-14687886.615318
-7859905.754523
-20685540.680815
2913400.260999
3411665.978466
-58133.393497
-76129.021718
-19965514.413879
-19612647.830832
-12204617.362263
340681.044735
-482555.893714
-23406127.758876
-526227.192738
-64563773.986566
-22920127.131716
-22644472.785517
-6875779.022095
-55798737.169630
-23325044.925483
219459.283538
-7360492.361391
-8376914.810834
-309203.812842
-847200.423861
225745.086138
-22418289.635321
-205639.982529
-4616310.161526
-990332.250032
-1346706.370604
14822782.392948
2936747.562492
2345049.048199
335745.204262
3930789.128621
386943.578687
141651.701560
269724.271815
304021.609321
670533.281870
-906845.595113
-1538969.849050
-73508936.127348
16837306.476874
-17246532.258333
-22990449.291698
-28610.298335
-12434368.367673
-783722.387215
354484.157026
371941.813471
-763917.801204
-774012.588714
-812218.311846
-784885.014486
347298.556729
327530.123529
434303.239892
393637.290392
649356.421169
302163.485769
333605.526870
-226255.018770
-181306.518608
-362979.909462
188279.049854
-627834.727021
-727671.702352
128286.044070
450270.882619
631597.172257
234971.404776
-202817.663505
-981909.475075
673352.524455
-268415.129287
-729389.541704
-712488.724438
-803187.758661
-827617.317287
-654934.342629
164172.077979
-2479278.026568
-3354410.275997
3541011.754119
5939319.636751
-297.410154
-1192400.655383
-24986112.921411
7005810.324707
-19305760.387052
-74932614.321384
-22421338.701984
-61425688.083672
-77301635.914192
-69337020.281172
3428769.956178
-22667921.531681
264880.731271
-23296595.816222
-1166803.883891
-8969616.267870
2122801.872559
-8262992.729530
-78802609.525489
-75672824.598202
15332050.761365
-4545801.506693
-85328298.713375
-57010699.029179
-53300314.251881
-45848563.722949
1173327.400612
-49286319.706746
-85891700.067264
-14732681.128246
3820115.354907
-77826685.218327
-85267671.753614
-85164540.493147
-85782505.859873
14569722.790288
-67112838.559667
-26129273.775685
16976194.263316
-33687741.430874
-81658266.773344
-84633965.555203
-22154965.067648
-1813002.257174
6184009.803560
11947196.655521
8166884.418222
-8117377.072628
-84381369.568514
1114819.949701
1459374.775166
3254785.101574
-22821364.330194
5572940.451990
2388015.978278
-12226189.031025
-11905300.341311
-23902393.896328
3453934.816362
-23579778.595870
-222777.604326
-1048726.241637
6327780.223745
-721708.645129
-367544.234592
-2776165.129790
-1909755.564618
-86010.464129
-21030604.048732
-64176029.765211
-81643325.742317
-31986722.014353
-72711184.179016
7541432.257096
-14149323.426625
-79006681.880873
2499392.039271
-26251400.207304
-25677066.411369
-104116.090980
-17627726.775245
202178.119284
-59374323.785290
-25025054.614532
-23771367.504740
-11044.363779
23299.863236
-364108.412622
-10946457.007583
4560582.228657
-7508773.302667
-262983.109045
-89060.216470
2142725.948373
15313742.241028
-72685686.483294
-8370989.131890
-900539.748037
-30664592.193737
26062.573848
35890.192769
-16082553.381482
3102871.822876
-29521996.931836
-30325745.961623
285101.393992
-14945656.855933
-754016.060800
-219848.902190
-474946.194699
-437459.080914
-250549.519834
-275603.146038
-170073.998931
501881.701297
-786352.493549
-286912.397198
-221324.146195
171127.566418
-365528.362817
-237319.778408
237663.275694
212034.957511
-433930.602018
-884965.583473
-410993.502730
-189088.452187
75825.465330
-5258417.651945
-3344885.223098
-221838.938752
-498320.530333
-64031160.778129
-255988.794786
15008.333542
-14274771.683083
-12100965.990509
6645635.485480
-10239138.053932
6505065.057885
6839709.227581
7224609.534024
-22506452.977778
-13018122.396894
-11012376.695428
9977467.078253
2162209.948540
-3409200.297264
-9344756.796775
2503369.432357
-199549.836926
-4378505.914467
-12649280.649708
2510080.067794
-262226.284903
108652.416901
-22981910.547163
-234501.534418
-20375243.031720
760514.775219
649061.718599
2271388.665886
-12572771.461890
-1065703.576439
-6079012.954916
-26684242.669843
2747427.511129
-12312839.001877
464018.646530
196570.264169
-407738.411022
-554384.144755
-766924.247028
5109194.444125
3179221.558965
-144191.245892
-60867948.098330
-53010828.165215
673568.858961
-384315.214770
3919457.254512
4264991.588491
-345290.635693
1950721.849641
-27033.847408
-7220378.146457
-3341998.444018
379865.372934
-1117222.360714
-65968.047130
3182895.296211
-2030.769223
-2669927.982935
167713.651246
-248534.475138
34493.179576
6581672.259183
-39298.267039
-37743173.241729
-411390.391651
127336.375393
-6024.638455
-17781727.524908
218677.857209
-342678.740142
158833.580218
-4323013.056995
3644945.081632
-52310773.968404
3304415.357408
420975.158938
-24408039.175393
-9141127.031361
-282709.163760
206363.825661
-14305909.940802
-14469480.300605
202306.184472
-1125130.417195
-40745.765076
-232502.205123
-8017062.438979
64553.342363
271733.694476
-32134509.460882
-671624.264674
-12506514.297752
-250967.180941
390995.251373
6713138.015561
-237027.988201
2876013.448380
307300.102984
-25518073.229897
-24830349.065866
6610094.143526
420576.767204
-59171.484615
255030.238851
-73880316.594214
-1577548.043376
-2198477.213706
158915.966610
-14310150.379556
-9917214.468511
4115504.511795
1910079.069403
-315688.672920
-566252.672946
-10190435.180454
-70789.697153
-50037.424494
-1441296.693867
-333007.727013
174909.288989
-55940.481379
-1032822.486638
276122.130481
906824.983076
239490.975660
-23278.621428
5692394.070455
-361718.977390
-14350594.401782
5768236.435685
6053158.480853
159805.965074
-1188945.849540
3059853.036090
-225506.286031
-648276.129493
1223737.389821
6283882.597749
-4431486.845624
1307553.242510
-281239.572012
-200250.996040
-300621.288211
-299702.174873
-23982722.517836
-6846431.143502
-116806.294783
222554.644636
103188.336625
-72200.238144
562431.485098
-7876164.084903
2079717.061083
-17498604.693651
-16438969.361243
6119324.563494
215008.967465
130228.462123
233195.871298
-769190.490438
1463172.324846
125831.722614
282568.860701
85596.660867
3141848.435845
2916012.333541
-2096622.858072
-4976941.870077
1128404.551994
-1245677.612640
255020.720852
-72176.411870
-30960737.692219
-300568.489172
198857.199792
-28770332.723719
-28663454.629688
170092.557979
-680758.110712
273814.040088
-30350484.647192
-30639309.305539
-211549.355169
-3253402.677832
218956.096439
-402085.062141
-29664216.437032
-382092.953459
-717431.186874
-20115583.836907
-250172.195325
-222320.740518
-66931.511640
-611130.625935
-18346.235383
-15220495.450983
-506066.491944
-38103.960772
-60356.924025
167234.026991
2430223.589738
235349.752192
-9269951.225808
-292204.941289
-179305.705677
-245701.294051
-237448.641162
2392012.793749
302036.796342
22341.822481
-172555.837435
-66572.423960
7262902.448329
-23591792.413548
-72196611.299837
306728.882566
-105820.203653
127108.365715
-430674.589248
1459832.856598
1955263.210923
-1313001.776186
-30027642.360970
-30042273.208927
-14559553.993834
763701.636964
362980.227302
65059.394263
-659679.852540
2237726.939919
2300721.151610
-58024.828755
2665269.454624
-162963.445092
-65769.747194
497491.119983
-1434338.836573
-242510.190360
75708.273242
-458811.538087
-472899.905325
-547367.847910
-41333.760167
-26711056.682014
-27275661.449511
-2895641.592995
3801156.644527
-18214428.793142
10721515.787941
967227.832830
-56565.584388
249712.009819
295223.413605
-161668.294846
-18327436.681339
-253647.371111
-501116.322110
1465818.155462
-607413.338395
294416.816813
1321905.256310
-441388.482284
-232369.714038
-514966.080829
-90488.380585
-583358.424798
207975.438662
-68085081.554764
-175864.065875
-42472143.020261
-9619979.333385
-155033.473117
8372612.595404
3683415.103931
1569996.395527
-86524.673589
6801784.629685
-172233.699385
-10590343.905129
148454.023767
-1531215.945417
-28771.908224
-164381.262225
473003.379396
206277.403405
-303752.854854
-595065.850979
7603698.529052
-23617601.445198
-23592092.878990
-584361.186774
-21306150.611630
-8207082.048828
-489314.580985
-43307.626751
-589819.644634
-3831198.086311
1494269.934678
-9517399.304891
1386386.047707
-7012.893113
-328829.110326
-8283439.060070
-632869.972119
-55922.214254
-340417.480260
-551994.881375
-563889.868512
-5335802.573680
-49187417.833411
-46702324.358683
132740.189985
-143647.654684
1591560.344508
-22307717.723705
1631814.874205
364690.141068
256624.592096
272248.664947
-21459432.398954
-179185.712212
-4108981.909434
-7230815.869563
-498753.132994
-3099104.968811
7695431.061392
-25236889.748746
-20385078.218370
295221.522808
-30382666.635892
-30475193.640721
-336894.395995
-5297019.628419
-6862989.457923
-513679.784044
-7878251.800269
-270368.667876
205941.765812
3079762.693075
-323957.587417
-154564.794499
-216575.693734
-131232.719716
247810.735712
-436399.817645
-3045443.254907
-14690597.650279
-340078.771843
2732513.343707
491165.923809
-2941381.003539
-620899.189045
-157986.656601
246776.929088
61638.930749
-14911069.913612
-309144.310117
14960014.318421
14252334.508022
-742008.362558
-30182953.744295
-14792253.345253
195009.097617
-16339118.608972
17516.604338
241242.426774
-102182.773065
-213632.547476
3657430.402937
-17261476.570632
-11379362.497798
-39357.402586
-265315.934814
-474040.728026
-301692.607861
3209812.048953
1278192.085393
-1301470.201475
194176.565836
7334129.013487
181965.059218
-40287457.037451
1176843.987000
178851.631433
6761177.982578
1675.869325
4021395.831964
4523933.688161
-14667554.887671
-296639.086084
-24680071.479366
-143197.649887
1462125.075590
1705150.758493
-167424.431755
-252497.951843
5229675.662685
-475749.076598
1248871.106100
-192084.535551
-30212015.951456
570902.193264
-1887169.164902
2924408.400686
-30497482.554435
3194517.393889
1682756.979734
292777.489224
-1484474.158088
2384155.559148
-5294740.741131
-7277.793972
-286374.357872
-1662608.570168
-112505.015502
3217002.645865
-261966.748451
-101447.971492
-582481.927243
-684497.265246
156863.042747
-49522610.237901
5825377.520056
-697690.979457
-493302.877812
-11379683.935419
-212315.025807
-146057.194072
-188249.345630
-37417.241820
-41123.277509
-2482983.547080
-4320839.584294
-27012971.045473
-146911.692718
-6271717.415569
1378864.475882
1826279.861373
-464026.558209
-2944498.946701
-546021.057655
1965947.572513
-129107.299611
-30343946.116492
4385120.717870
-987587.976192
-878430.045472
39413.424590
-1394240.229506
3055828.542767
-4403874.758512
-30131897.869689
-17160183.975330
1538267.759060
5433270.311326
-82697486.045932
-23287086.930572
-22101536.853564
417947.783292
510723.049945
1882608.006502
1958417.604621
6533851.897944
-1175906.256798
262098.820191
-6295767.330551
263860.037139
-5037977.287179
-12873124.145093
3359834.385505
-7295969.951462
487490.424230
227053.590528
-96375.853340
-21941155.594220
-61976015.148415
-30916938.487138
-31156700.222441
-14804561.855261
2723928.351449
-456511.002859
-1581034.596334
-25181195.299935
-24727455.484023
5714384.470460
-6235425.567600
-28395899.458561
-166849.231920
-34464616.342177
-20023849.757096
-18805060.127796
-6663880.693251
-7434908.694782
-8249802.554412
-31037165.223333
3216598.823596
-21057124.856132
-20819039.267729
-11210556.981700
-11774741.986811
1679393.705811
3998834.244235
-7915925.976437
202918.108149
5444329.296312
-187947.900609
-405448.347952
-1255497.752386
-1292559.238815
-13350765.880821
618925.226205
-29854613.259535
207476.606511
-66328672.996108
23631.027012
111737.119602
-3114849.694371
-1014465.079456
-1481916.864976
3337974.001582
566905.693049
746774.883680
6831394.440206
262559.741009
-14995146.375578
45261.178862
-81617.563800
-2000611.988217
3269097.515380
726037.570688
2188701.393376
1803540.722819
-30191808.788453
1689277.979574
-70714025.153518
-57379673.515399
-26410699.176369
7044178.573025
6019486.138132
3376583.579154
5310824.734324
5370531.038248
-20801355.764300
28412.586855
-937171.392908
-33589.676282
-5198896.701716
293135.266993
-656733.571952
-833869.009618
-484461.084357
-3366639.077390
520006.600631
663829.762098
1606722.175954
4769367.868467
4012789.352789
-445080.860382
-203642.205190
-414022.951313
-6478039.758935
1693170.560541
-7702659.453073
1013599.774030
335606.344034
7633714.857895
-106856.295606
-1105335.584409
6567856.554562
-935664.639541
-20877073.519200
-301509.512981
-29411634.112176
-17097931.673889
-9846233.540836
-5422602.870426
-29372712.189827
-26263152.778891
502893.464749
-387620.930456
286591.038944
-73160874.954754
-12135414.992991
-2952599.733566
-1595104.643061
-103364.321521
-469647.844445
-661169.643114
-23390837.471882
-1147407.374095
-153581.660839
281188.113469
-74590757.710046
3912221.167118
-15116850.815141
912635.954800
-12569524.347328
-1093992.351950
775982.822800
-10390016.000416
-11767928.815244
-9629516.964028
-335402.338323
1106236.850796
-4486116.353760
-18492417.078649
-67041062.510923
7138626.929376
2431836.140614
-1334891.455633
-45965449.320504
-41409082.776312
146820.521735
206803.230713
1361700.830753
33758.808374
-882194.420356
-45105830.150877
1247.521227
2366883.413618
487674.211546
-152442.666461
2876936.183997
-14845264.137697
-7796407.291081
714428.433016
-840451.985733
-516300.133505
-38872866.824356
-59891772.548207
-1564667.253552
-3911265.620452
527889.814447
1970155.021843
-6687417.757501
-309464.930828
-24298434.893324
4879392.019691
295253.001386
-400041.516832
-67149811.140196
922625.497021
575727.936988
-138880.143578
-35504406.213259
822646.499847
-606838.756288
173955.347359
-27976713.561144
175617.589411
3815392.538315
-1333028.198661
559716.386024
-231689.172430
-93236.689040
100741.206884
-333166.909378
-1335090.786406
273592.719207
-48528648.565154
-91344.090487
-1100129.589859
-3477649.686558
-30995582.612284
-1320891.567304
105199.775826
-211147.127178
-3455094.744981
-845700.816557
-7814419.675807
2224151.366963
-2141511.526446
-184260.650804
-30260072.203963
-736094.686551
-52408755.898048
-10455438.591783
11257.461933
-67285747.538600
3665760.072978
-185320.826548
-18692067.310129
-30088669.342178
491117.420157
-7808098.991934
-5293017.024920
-685060.066195
1090844.021784
-29858288.594451
31938.872326
2582641.332436
-49641182.664847
-922523.485374
993783.095415
-30509720.970308
263490.323517
-29595661.283264
-581878.489093
-29980949.004270
-185198.325717
-171924.187228
-651835.041019
47196.095859
-3874848.995325
-2681247.516590
-5349395.439208
1564849.348202
465619.072549
-3094503.619785
-570635.407883
-1657305.262987
-1642061.599962
-30585816.792864
-1783153.968575
-53213207.118940
5692961.591436
6068023.779631
-1087735.423331
-1025539.372194
368848.011527
-1941146.849486
-29563282.979698
3896205.778028
-30987.196674
-13779800.488226
-995262.876057
236727.684614
-10328279.606880
-14790825.115511
-431497.072521
-436200.699823
-834248.145760
2390640.164156
-15141.304437
-5913009.427726
-21307444.111692
-729464.902670
-22204056.223443
161123.193077
-13623109.545041
715096.327462
-422168.714104
-498469.473242
1339287.252918
3465637.918614
-226965.217580
-32873794.181412
6203834.318754
-8247893.182505
-15045792.981637
-223240.692725
1440628.243889
-182968.016582
1025533.896535
-207547.211118
562438.802811
-993355.608116
-1024694.529234
-20563973.725558
-15354949.398536
5148355.007413
-1288725.277888
-226738.366232
-1015268.450686
-6000890.037384
-10576697.376284
-57899.114912
-12914840.205319
-39064302.780697
-7134220.563123
-13811268.585922
-8536696.268581
2851369.742390
-5083293.157212
-4605735.009554
993012.224146
-198608.219620
2955090.863418
-3160623.520824
2200253.389842
-1348440.183792
507682.096956
-299248.921009
1620559.729213
-1347190.685488
12061233.748590
12115431.582869
-564215.308076
-3415824.488957
471679.354251
-371102.648609
66091.025451
-11823496.364918
-1170382.985481
-3179684.406307
-18163385.896736
5779811.886332
567061.508708
93944.630729
-63813511.167994
-63762952.607014
591899.829700
6938079.097694
-8542895.205457
-7560776.247933
-53096.289243
-2797879.139344
465502.217871
132646.756235
-22649306.219514
77252.026942
-20092361.676667
2362821.693054
-4259.260838
-7378306.586474
1866387.566610
2300934.213163
-497990.155765
-2354592.063834
868960.538020
-9654576.268557
308069.246449
434825.496206
-9813011.451227
-21750679.058446
1905102.721867
-5773921.062827
-4640346.739463
-7423.634302
147388.192228
-1854735.403877
-484257.035883
-1060389.889278
3590985.703472
4438438.222528
3338829.485411
-3154945.890755
2904795.985487
2053476.690346
-6839900.939054
-22529698.472034
-27789587.806133
-25935247.440948
-15397649.206516
143502.515435
-77843779.860941
16407815.304271
-54672060.509887
-15554420.677268
-43899319.603393
-76905421.494848
-3757734.228633
-14711650.056133
-15845205.613738
-3032628.708912
-30758818.852145
412759.475701
-14091877.983264
2282690.491124
-7858.081044
-22200450.235181
-432342.419599
87913.094800
-11221161.532032
-18143836.117226
3304256.376850
1658097.274464
-4034267.336300
-31166903.972641
-60025828.810197
-5289566.032067
7393750.974742
-71527674.452614
648152.240931
-19767194.490889
-74883293.016314
-29155459.144526
6648257.851771
916689.221477
-22587798.965717
-1615767.649899
-324551.846686
972010.687569
1623340.072609
4620446.122022
3512817.316140
-1549163.959093
-12974824.965891
-4399115.467593
1762115.734964
-2319322.810504
124188.712694
-30002712.036548
-30689305.768502
-57075941.801035
800.666999
28796.073570
780.002154
46357.570028
105030.521509
-7108380.174825
6560423.415704
-20380.385446
-201644.198831
4904913.396281
-14242079.200378
275116.804185
-25313061.251972
-207182.493468
-26575381.052556
7273830.139699
-3568916.312663
-12081607.077781
-15481560.697138
-1060389.497010
-38338033.746028
-1496238.894656
-19297085.672686
1219531.551912
-549689.987497
-7932809.656172
-487188.644755
381145.319035
-23965238.196548
2563492.192301
-2780130.958870
-21645871.284340
774522.884221
-13276156.075376
-14277280.407563
-109042.891816
-870928.021013
-10872428.510291
-11757844.516053
-20145642.368458
-19884255.348338
-64160.692719
-60789040.412852
-5087367.710893
2714350.194423
3405173.422703
-6326293.160750
129189.744832
4507454.018758
346291.815499
101962.377348
4027917.684448
-26372193.945296
-17085137.058149
5026288.054304
4693681.048647
-43577097.529921
-3412925.551220
52472.951122
-8046187.270187
-17540122.926899
1257755.706320
-68130726.291349
-782269.505154
-70819.326389
-6614399.204612
4783779.784538
2323607.735930
-14552685.768141
-580528.889745
-568498.517779
-679232.727380
-5875478.881565
1560326.073396
-3982895.536708
-71773463.769233
-180580.229879
-123353.877196
128925.334651
-2321600.211481
38458.474836
-11358068.973023
-81175252.493982
-68268463.444616
-21793491.487736
2782641.066949
-26676084.640528
361772.971388
-2972723.458782
1218482.677913
-3838296.270271
4830939.866289
4525999.696375
-29322975.305806
-245754.091596
1198524.674441
-18769453.464794
1086602.608068
-5649536.395645
-14840398.431339
-30729753.655996
-6853714.540817
-69835237.984056
-20648.395041
-56618757.544419
-25840132.622937
-6484193.923502
226254.647136
-394707.017457
7865146.774408
-880945.551987
-14760370.960942
-2099506.752614
-28960300.535786
-7852736.316302
-14029509.395402
4732139.074044
-24969.911260
-3403151.261374
-22909525.414788
-871041.486023
-76610968.777261
61027.394814
-9337331.657309
6681.172178
6217659.451631
-650653.814000
-15600345.440510
165604.024119
-20948609.942714
-1533046.345577
-25161951.431790
-5173073.401090
-70064218.222844
-5946420.740622
-1779542.249001
333558.627183
4619648.415535
1025474.899612
-25976322.985198
-575356.904534
-4785479.094045
-72468.247890
-17607879.191397
-150710.182366
3460117.407401
-7354207.069512
-23392354.817367
-6579465.880596
-3419747.145145
1024732.271985
60891.051991
-44561.364511
-5777902.079838
-6148302.998948
5284959.062831
441865.737919
-21349119.775054
4234096.092694
-43501878.106040
-9225186.215786
7091.015851
-6882.688100
-50050.032409
-30871235.472150
39013.388764
-9914955.593592
-18089424.422540
588906.441629
-1422031.039652
49510.227036
628605.525716
-72287.559790
6012901.629097
-1464925.876622
-22865095.665558
-21994121.578847
-188288.148599
-7446240.832967
1820204.148543
-11866374.653024
-5881292.077828
766365.362739
6730879.364816
-48863.560700
-1487328.449668
-14503456.925898
-16492645.661462
7574419.941886
-655010.801226
194047.995454
-15498319.101189
5424833.058757
-17308446.466425
-400733.854872
-1328900.620557
59486.036516
372179.692742
-66498013.040066
-65998579.641072
6364582.854532
-16002187.199319
12329963.797820
-438653.217074
-28333355.424921
-23456491.164731
-1340213.001421
592500.890187
353744.242592
3416423.498383
6758467.211285
936137.954605
1254251.702949
1623.154586
1536.597774
-8868959.136697
-3249387.419171
-29609988.432600
-30967781.110867
-323479.532616
4371945.865805
-6430757.534728
5463322.901450
1613625.782369
1974543.712193
-20762824.927754
-16661820.621134
-1021823.628287
2106880.054249
-22104640.422414
-23013452.108153
-19356644.465032
-69649270.849589
-5703911.553080
-3476587.393704
6684368.565207
1092096.153173
152118.176851
-7363433.590430
-2945282.175243
4262220.545455
531385.489622
-28182276.564407
-68586084.376123
-1514268.287122
-2713080.579727
-6529020.712649
346070.262520
-803803.277996
-1627734.857998
-1701019.345242
-7044293.188671
-23278657.185619
-1284386.759955
-1446351.670331
-6267066.665934
-28421824.066829
-48817339.647719
-53123378.884157
934502.961794
2563912.131467
1707595.127283
-7536432.721978
1740826.149597
-68619.276381
-21581444.228637
-145945.155794
5436395.968319
-11239814.578761
-3595511.537529
430485.077037
-81323034.583894
2000854.911329
-11375058.702949
3577188.139659
316855.185260
554790.311916
-957433.355526
474021.506357
-651338.466111
-20295786.260132
-12423886.779479
-8246181.245013
-41600746.607161
1082102.983962
-9653314.774986
-9862471.147782
-6406069.436202
-566643.939848
-34186115.636656
771113.924084
-5865369.879975
166589.585630
490410.554964
-8377588.868038
-11352936.589035
-818953.761489
-468824.551886
138082.140507
-1020079.054786
-22411725.973241
-11228981.227328
7181614.905095
-4388736.363417
-1514722.877526
-73067437.948442
355335.823727
396249.461547
-421287.175253
-122403.983889
-19374871.992068
-384894.099047
-572178.790404
-7177123.184165
-7574071.196852
608118.773541
-1588734.510210
-371255.977974
-15689080.631751
3179148.870414
967304.617373
101827.001499
7755222.491100
491651.421919
-536106.303847
320384.419566
-13075115.380553
202383.228156
-19291597.963422
514393.311174
-292717.017639
-12106295.361572
4440262.030314
-12553518.194299
5366877.690279
-14608529.019823
-12106992.099475
-63570541.420852
-10296577.705443
535376.438288
1738016.375240
493389.912755
-17685738.546165
-938872.673804
-27154613.277321
3674481.351332
5903760.887269
-1239217.719015
469782.714520
1729035.758627
-5009600.981571
-12154916.204292
6167481.542944
-512154.505761
109068.029958
-136045.721716
-33736856.769596
-236916.623229
3389995.225156
-19619483.714830
48496.550424
-201658.371528
-4820366.107828
-188540.293184
205299.330703
628419.239898
744334.757548
3937455.801669
-14764990.541741
-38244.424143
304034.858773
-7878662.871514
-5781679.010833
-30444129.497666
-13850405.105745
11716370.035840
3423380.753282
4360101.377242
-8733869.440176
3058027.806740
-20194078.800497
-56433.682227
-773942.959066
2702258.818751
-2076642.098415
-49487234.886918
655847.557941
-698970.140238
-6700885.967621
308506.397491
54942.273623
-329631.427818
157050.131747
-13862537.847161
-519319.091098
-911671.269730
-51834993.543327
3532701.783408
1021613.592700
3161712.720360
-7137553.878678
-6945035.651015
314428.127128
-3557203.657268
-592873.737125
5923149.136096
40088.119893
-437951.834096
8313310.406136
-18974629.519924
247352.489004
-125211.269082
-1066743.874929
-1887619.198317
-15114636.381591
3615921.788547
-470965.696546
-14028186.952617
-1254690.200585
621027.495097
-2879900.522016
-2640957.384999
-1744565.248372
-1532547.942545
-58470.927656
66365.241140
2234768.178621
841309.877261
892406.337961
7466972.022442
-1061177.820349
36024.286916
-72175980.463682
-7023971.533599
-64904.368021
-705227.592205
-7420504.009413
-147349.788976
-1276694.070119
2015570.785489
-19038153.271735
-35770868.409654
-17852163.774455
-2976796.192403
400120.752601
-163461.529119
986408.956839
-36062717.666227
5657704.560080
-24367028.964690
544241.685387
-16048124.401684
-1040732.013145
-10793490.848474
-5936706.661731
-76997096.007066
658355.143651
3075164.210493
-5750171.246083
-40462583.588265
-30248251.306952
1042448.918284
-15643293.286875
-1164773.968902
-464454.253077
3410768.762903
3926146.785781
1028353.853846
-59439265.933107
-491438.542483
-11916996.349654
-8348612.624877
-3783911.805653
-2421760.048658
-14024094.560238
-77291602.058533
473160.216175
1681572.407646
-14912920.874123
7425251.279438
-8650639.673136
3291994.401234
-920995.257826
-2594804.252570
-21151922.005901
-1344876.927675
89154.571068
8177299.071162
-66753885.422989
481808.420984
-20079374.687359
-9669907.909667
1524614.707336
-9365802.690205
169794.360033
-29140718.933178
-5389846.562987
-1365493.364798
-26703660.855148
-17387062.258193
108214.513442
-29323197.702945
-2741949.416698
-16724604.034665
-74142049.021939
-280309.187428
711934.631315
847048.380653
-509810.859545
-2083449.970857
-482417.369400
159297.772759
-13389353.772637
-1581445.563052
-2949963.200232
-17418627.971202
-8994849.393854
-10592128.680436
2708600.181705
264260.308744
186643.058307
3302138.182642
-4248.442188
-3284436.928554
-3653003.766143
874486.971058
-31458812.688530
-1819734.643697
-3849163.609124
-145981.851116
-1025226.201751
-83480.641717
90939.130268
-4309647.274870
4378526.559616
-4623.664363
-1010830.282114
36321.096394
-50708644.859467
-1373025.877326
631986.112514
-11147789.180450
-62641361.361298
-50175523.180579
-9439888.189721
483836.079505
-1027836.256226
-5185881.672662
-31067846.287462
-62912711.247355
-1562191.605207
-17071017.496838
-1478835.776538
-10461190.827659
120651.198629
-351327.627068
80509.312534
-31111768.024335
-75300253.057756
-5253106.745303
3400909.770132
-21235925.401240
-3561372.831306
5205170.013603
-76227833.760583
2483450.064828
-7307352.246712
522396.937360
-2636878.976780
721289.959379
4515917.978423
-1337068.424477
-8449169.266639
-5415128.309671
-613184.144071
972788.642255
-25446.506251
164787.735228
-995641.660238
-16082856.171510
-7493733.714080
108265.351534
24646.973096
-28875193.444799
-10519784.702458
-13557495.703332
104274.279071
-12983314.287451
5736916.124700
321521.367997
2501791.071120
-596990.787756
-12631889.379374
-571826.363381
-273588.295708
-2179688.392098
9441503.312664
-1027843.898666
-3371944.574824
-3812673.425587
-22495333.901681
-235026.557427
-13862430.369594
2203629.057226
-531155.654846
135466.098258
13755725.214121
-3151561.104259
1559865.171974
-2188119.139620
-10056585.919878
660258.197200
-29068607.054479
711036.297604
862225.190191
-20829815.778486
-20386304.424167
976306.870163
725190.255906
-516099.033921
887742.612553
-3925409.471671
-3144232.036279
-6400147.744005
-14510195.082985
654716.845946
-16647662.165542
-2028349.459554
-1893684.371051
-4940570.437493
1121530.899915
10294244.940210
-130413.615376
2428708.923627
-8449949.730897
-21132206.855794
-17010194.954871
-1624123.190083
845478.119192
-14527870.828332
-1281707.003584
-3674524.267113
-30690511.781429
170764.386997
-3066451.481270
-73593744.685740
-341896.102231
-885847.066313
-6402780.452793
257252.165008
-265073.898838
-46798784.220636
-76566693.275589
-3474798.449832
-2525917.485703
286413.140340
-15497201.316614
-3886977.918004
-65767841.410930
-17988493.161312
-25512094.998647
-8133470.962831
342799.036796
-449336.083014
-19149905.314458
-2928664.873662
-64014807.480867
1129754.888845
1894408.431002
-65520481.861947
138748.788963
-510932.261027
-616393.938433
1404433.920683
-4066519.431508
-23228296.253975
-9268203.850638
-23837055.189918
-4174479.125019
-1711981.172552
-9366002.292254
-389267.040311
-3552533.633667
-2613053.357798
-2779602.629217
-8035251.464309
-29785084.503829
-704888.200303
-429593.960957
838011.161611
-67528.287702
1072686.212130
4133069.314341
-1949808.620233
-6027737.259338
948.357813
-1561673.746675
972239.903969
570161.129466
-38962068.045733
-28589123.946318
-1280151.369625
-56519905.424820
42767.517424
-782483.356433
-43020098.340175
5774453.320656
-11847681.911140
6608317.132353
7114648.970201
-951857.455350
-11566227.501254
-2009332.262768
2041840.003069
-2669239.338128
174581.803673
-1811892.887556
1576201.923173
431079.917921
2095017.147265
5734603.455546
207123.033362
740153.156605
-1447503.921931
-24064080.648839
-1119436.228057
-253826.620503
761110.322484
-5767479.214697
-11009217.975865
-26568358.783470
-3818736.256362
-1410734.842836
-1406316.430063
-8225111.149885
-11351763.919615
-19567572.082197
-3971449.717754
-551975.139830
-4051085.825021
4473207.037670
19868.129506
1469644.787232
-3812947.264339
-879862.436809
1181115.920069
2055657.351817
-6265152.921500
2482662.983588
-7958553.431938
835938.612518
293242.048844
-60211665.196586
-510160.896959
35537.076117
-1647953.204441
4850949.723647
-20145.844535
-49668.887001
2855406.926438
-37264.790126
-1815208.345617
-2627562.382196
-19414.835083
802768.470487
-17584739.802781
3955722.817175
236287.034642
-76316122.460541
-30979615.118846
-30605360.506545
-238634.676509
58083.419107
642789.252554
154566.514810
2467469.450770
3519603.222208
-86728.983186
518954.128440
-19483428.624262
-4891566.816128
-490385.648630
1432927.202094
227190.949868
57275.029327
-64980005.682108
-52171979.975463
-28957371.060791
-21000335.315210
4336516.120413
7207775.244212
49503.099787
-8829106.816565
-12255901.995970
-6506139.609797
1010856.163207
75632.805672
-67283169.267489
-34454.550994
-717625.541317
-682877.954267
263182.127954
-423295.925386
3138174.161153
-2363665.500768
1441777.229896
-569284.655997
-455472.394874
-5730359.868991
-503989.667717
2282229.269217
206337.963727
513704.376203
5889574.131871
-363252.633879
3036426.790991
-2679561.448321
4166880.402290
-21993.715732
-1441923.626811
-62239547.851014
-3013506.015971
223362.277459
487798.753638
-325893.132782
-41857599.455475
-296534.728655
769624.145168
-3449133.010710
4836096.475456
-2828376.993815
1385725.640492
5910240.462259
-1671738.914113
-29536010.902172
-142238.179403
3911650.376714
-535630.424050
-11633258.742893
-11406734.254889
-1108757.838514
-1828491.443446
-834763.700047
-43139571.063670
-1733698.940849
3035047.893906
122249.199297
-2190799.369304
987697.225215
1003145.704335
4638101.645216
-27234730.424958
-2986084.588937
-2899472.856080
-1982746.211231
803068.585447
-1053831.353734
-8940200.639249
-16873.852540
-4791326.415651
-23995594.995563
-2850671.441566
-4509232.189860
1079362.896485
532364.357308
-61581331.315278
-14337698.543122
-97905.546364
1836.627289
857370.147328
-14649456.828829
209403.935765
531377.520546
3198436.620499
-378830.444896
-1229071.598845
-15212.321863
-3824801.190167
-248537.461163
897419.971285
-10254866.682291
-1445919.795078
2679620.084431
-1170789.224005
2934000.787741
3038934.192397
-49623058.468045
-423808.199760
-3362743.550201
6515433.370766
-100147.718746
712901.882599
130270.091849
1519529.199713
-4784.794069
-78247596.007873
399398.472016
1023915.430697
-796143.379604
5574283.572933
-75121.358791
-10046297.213766
-7133225.587394
3977197.969614
-22771981.392879
-108833.094504
-2035676.543182
446593.467690
-1108334.217250
-5989972.094716
2776140.232514
-3459214.160880
-9995627.326014
-10162199.898926
-1155649.393485
-24088099.685652
-21904525.240440
-2048063.168215
-529826.292221
-22814528.862081
-14609520.790446
-13536329.872462
144173.698436
680398.381773
-1346519.135390
2133767.611541
-2943394.064241
-1489372.140430
-77813462.385698
927635.842886
-10321.454168
2246972.780800
-17189863.685088
4796395.638006
-29350326.857759
-18423107.903912
-8315624.756184
-551158.891373
3720564.207362
-17371324.114991
-1617184.154565
-8239.728038
-6952555.757490
-23073012.312092
151526.530816
-242617.676382
-326539.942984
-6937308.180619
-7010338.124429
-1889652.930143
-29748.286979
-65114372.628988
2635380.985984
-8429971.030319
7234691.173804
-666419.357242
-10174255.196200
1891963.038948
-5984016.226539
-762254.339310
-78774029.347183
487810.896671
-821574.713157
-3029479.282392
95423.364842
121849.040335
93410.437349
3055523.145959
3094543.386287
4628664.527826
112522.893699
-16326498.130133
-3487226.013030
-1267306.464431
-20994538.659939
-17423147.482184
107283.971821
-15111286.408609
-20556421.387046
-27604.291577
19017.191311
-9129465.463135
474957.745693
-897722.944409
-9238520.491289
-122346.642899
-63015700.102493
-10242448.984327
-5785046.995502
-5436705.017694
2936291.833263
1854624.854805
-27723659.306996
2153.620116
-34459.898396
-2520824.029994
11268919.338761
577418.318261
-32187852.125828
-12480021.703928
-64208111.415023
-20274047.245510
-853798.090691
-3660551.990389
-865949.027018
-6238222.607044
2706573.704592
-1878779.521706
-11195541.618445
-73163579.055363
-3129041.778600
-79408831.649629
7356571.901367
46807.810990
7019576.309067
-9038286.044008
-246111.463178
1249620.553561
-1781149.289922
6243588.004353
-17059940.737363
-21495918.636292
-79619945.697526
4459646.785048
-17355607.388562
624984.572643
-16509958.799862
-344581.372652
-1703885.345994
-13391378.906361
-22015443.931477
-18701566.260977
2585849.000436
-68905480.086709
-113563.046393
-3477021.036720
2958312.907279
-15506369.323757
-257146.790795
1072366.081788
945703.436058
-26871435.439241
-24912135.709643
5144931.477657
37623.027733
-48151836.486097
-17330378.580061
-27918139.051737
5206589.540795
2370422.183130
-16999276.122046
1330993.999096
105308.242230
3133146.672484
-4212736.805296
8518620.963909
3049327.336497
-2606475.719863
-367447.663992
-30777804.922001
-368571.495875
-16404194.893394
-71422807.255554
-7396188.455586
-6015574.767573
-6107705.119526
-582374.368613
4312152.895487
12283217.076043
-28327955.602721
-5718882.253518
10686321.193503
-11463785.046823
-15515894.670089
-16409511.036128
-118749.444371
-617856.104666
1262281.725150
-13250553.147622
1127813.463577
-15460460.281516
-11190473.884307
94041.649451
-29959028.071585
122959.449263
-1756583.829628
-1937828.481018
-7882280.797540
7423600.490974
-784711.447164
2463176.561258
-3382023.372666
-21503178.352047
-66119404.387109
6283730.487255
-17948415.517380
-70562053.969050
2481412.027522
7722390.816003
-11134609.840114
-2295074.863770
5671819.048207
-97045.989152
7900682.104344
-38760085.540558
-448716.557783
-231112.261934
3122200.014106
-29925830.408252
2973016.441644
-3388783.760049
1437091.339002
-4920241.946116
-40931151.976997
-4538490.975420
2807554.708952
465012.522906
-72639333.925571
142388.939072
930551.586681
-69844.919218
-1215765.229874
-48508710.768336
-5897941.209300
-892254.653622
-6063860.121615
-16124107.780513
2198488.681606
1397706.721659
-1390581.832026
-24090943.390705
-54268767.665323
-15946339.008146
-1749840.808453
4836136.159917
2189956.273306
86783.465991
-2545979.100571
-5791820.403986
-71646883.500354
-1454221.174100
-636661.696106
-1174844.486279
-28696600.795936
-66288730.655452
-12100015.101087
-2756039.760198
-7653345.574696
1131680.578935
-10698414.919297
-10781715.058642
1509381.151445
-24148261.956597
-65243478.490233
-2517995.818624
644926.005419
3701306.631858
-36486201.922049
-3778738.074269
-534901.340234
1512378.351719
-17952233.910760
-67749.935089
-1802382.335062
-28855411.574286
-27825509.181442
-1670495.112995
-7341837.076831
-14884155.517455
-1223783.703013
-29595063.486915
-15060681.784380
1654.993167
-1135157.249857
-278508.412265
-726881.946602
46741.164583
5324837.437799
-1654343.084519
-30249731.189530
70281.563527
2015688.234195
-12437363.134702
-16590558.911491
-903754.779098
200230.401186
447276.477607
-7705480.751712
-84253.930324
772852.610586
-19580041.799170
630130.118044
-19166778.452440
1481929.884867
-3113223.707323
2603263.207400
-13552277.710215
-13719823.241872
-5216199.461021
7132097.401012
-7092184.983225
-1427517.182913
159430.072294
-5174892.628032
-21608128.999048
-4201066.830775
-24392457.365116
-23670466.965106
-15137647.301498
-5940798.481815
4722181.687403
4642468.657408
220581.366879
-8582730.791873
1330344.868389
-3637830.979771
-27519092.232197
238776.105330
6488800.515742
-4008376.232694
944644.555187
950112.769967
-1716496.716865
563455.701140
-4022996.589042
1624894.330981
-1177740.776942
-30189400.133861
-6929307.686743
2451246.590152
3165424.747997
304178.464490
-13075024.679264
2040158.990191
3629412.906492
-4997543.333472
-18078899.809954
-52737377.992611
-283500.072421
1210361.665204
6180915.380162
-2248959.701095
-5394324.465696
-29663820.344820
-64248430.523608
5811513.208221
1257860.504985
-11135427.180456
-1461249.846409
-20504829.433362
-3073595.798668
537079.089324
-29322916.554213
-30213284.626743
433960.846393
-33823305.861525
-29742869.484046
1942140.113755
438641.441024
-17560870.238737
-24792565.285072
1251618.463965
-1557405.517592
3174645.788623
483342.524311
4178374.484994
5637475.915891
-797085.204032
90681.751147
1824157.345516
7223685.764793
841018.986692
892490.438223
-1399871.000722
1979355.135041
-14119906.418355
-178233.823083
3153185.042676
417170.223265
2892565.215229
1124960.191489
-66917565.377608
570826.571333
1413895.704368
-21979691.178218
-1059207.688161
3078076.552367
1234911.234002
-8373817.682362
646064.698017
-1604827.662355
2485008.458835
-29022280.365673
-15424549.139118
3494805.051242
-2242676.375660
-12819987.017663
-13143111.606502
939298.740842
-11228230.400191
246709.088368
-6838186.714185
-10801116.273243
1471911.643581
-7254382.007339
-8336511.088667
-30704965.978912
-12700921.582073
-2497033.907381
1678079.266231
406087.937174
-16885353.817811
-1875983.785427
-765448.205916
-13203928.776470
-2501584.876306
-3798123.561336
5236933.411860
783112.522941
-14788931.493495
-15415372.487972
63183.525908
-708796.172705
-11747517.815224
-10750780.356974
2323692.923621
-17312185.899975
-16939021.468219
199812.956896
498316.126560
3311666.869825
-10991779.579034
-1701623.973479
-2631444.194771
-2753500.499736
-19820676.124802
-15244308.501832
-3055000.257629
-28121263.123524
-16468583.842220
-3368332.621918
-29123080.782463
-1654192.105313
3133645.417596
-22430960.442710
-49587559.134309
488216.935130
-3766471.318761
2055207.429076
-10562021.218920
-3495164.791744
3405772.022531
-1575272.961176
6434435.758552
5855671.384408
-666408.981582
3779635.056990
-1690923.482526
-21633372.330711
4534318.068777
3245613.853050
2731798.909633
-10947773.924015
3450401.997351
-41791864.290784
-12558515.693624
-18443626.875908
-3543520.447118
-10460897.003535
-6444891.932494
-329450.469060
72395.709254
137035.758676
1575405.074608
-18195791.952372
-30187654.520806
234918.785866
-16860307.432055
-16516480.462948
-13636536.733990
-16072619.921640
-14348739.001509
134939.268966
4319098.617258
1421228.596242
2539192.110576
521999.367135
-11020604.501887
1119525.866156
3054120.378977
2008057.758330
-16958582.758703
-29718235.170081
-346030.137928
-8406128.943714
2748608.250806
3049784.948960
-26115205.656541
3100589.866208
-19759107.158531
589017.405441
2383244.665134
-10752596.907012
5610477.142435
-119627.058978
-16575845.799340
-28363660.551948
480540.101778
1443848.483800
1812984.235039
1268743.561530
2170033.871778
1868857.249831
-4808110.295449
-25247733.541382
-5878232.901460
-5674966.646025
74040.628606
-359644.865083
-17359253.816216
-5118678.039321
-303035.563876
-16118462.914379
3862155.341905
-5067283.451215
-16391717.863143
1523496.581103
-30638909.846313
-27619166.255783
6213830.717891
-23911416.854315
-679712.197956
-628065.650118
620831.638408
879569.893789
-29875402.314819
2373656.240809
-11947228.817924
2884663.008253
-24703627.180647
-24650574.252783
5238753.516954
-19110814.480671
4190163.995543
-29653269.221412
-1479570.908875
-9715135.370140
438009.614656
3589443.961436
3658727.707247
-10076886.910485
-29258803.389496
3204722.522829
-4346070.247254
-1889217.565393
-28321629.186243
-7928744.823323
-12196682.073812
-1576876.421838
-9404070.912667
-6916533.785000
-20877149.774358
-1526089.530095
-30367368.016526
-16076866.148327
-19801051.693361
-10607240.752157
-2652609.762674
-2796490.502137
-12364082.914582
2642732.319427
2750123.149877
-1879129.452362
-1767136.270481
3528944.067055
-8807631.497896
2565328.292567
3604686.804516
-395949.558183
1345834.679512
-1387372.329962
-15583450.338849
-27167543.074711
-1058952.599526
-14398059.406816
-10547805.460818
-9008827.569206
-15835903.617447
-10164955.212019
-601177.309016
2635606.886234
-30236004.646791
-2942278.453254
-30188566.475953
3527517.627121
-5662573.803545
-4854600.229765
-29224763.457962
-8544152.233801
-27321942.726119
-3950613.506636
-4451977.322693
-6107389.255605
-6917941.681229
-11245020.323642
-3635939.598537
-15349099.383743
-20338222.696394
-21149698.629752
-1127410.882278
3216533.208696
1420944.818630
-904068.880453
455958.703080
-1791942.747265
-6850481.691969
-6362808.583599
-22618689.409830
-22242750.659489
-22231376.414104
-8081614.227802
-7875536.927686
-7129055.083812
-1207968.955433
-16335272.677494
-16661679.337051
-3763317.498686
-5492384.207652
7415225.399270
7890644.463951
7387651.938915
-26749124.506402
-27299655.472764
-11653920.003868
3152753.594358
-18604133.963947
-9902300.568223
-2653775.445893
6613577.397441
7329860.141713
-6335311.397857
2186991.341769
2425437.480522
-21872720.906672
-20874455.106984
-8959518.680376
-14634170.617362
-14210638.382726
-8732641.109242
6524654.832649
-19955453.369731
3079703.159848
2178165.704034
-11198133.460191
1921923.458411
-21561650.912241
