# vtk DataFile Version 2.0
MATLAB FEM Results
ASCII
DATASET UNSTRUCTURED_GRID
POINTS 11827 float
0.000000 0.000000 0.000000
1.000000 0.000000 0.000000
1.000000 1.000000 0.000000
0.000000 1.000000 0.000000
0.010000 0.000000 0.000000
0.020000 0.000000 0.000000
0.030000 0.000000 0.000000
0.040000 0.000000 0.000000
0.050000 0.000000 0.000000
0.060000 0.000000 0.000000
0.070000 0.000000 0.000000
0.080000 0.000000 0.000000
0.090000 0.000000 0.000000
0.100000 0.000000 0.000000
0.110000 0.000000 0.000000
0.120000 0.000000 0.000000
0.130000 0.000000 0.000000
0.140000 0.000000 0.000000
0.150000 0.000000 0.000000
0.160000 0.000000 0.000000
0.170000 0.000000 0.000000
0.180000 0.000000 0.000000
0.190000 0.000000 0.000000
0.200000 0.000000 0.000000
0.210000 0.000000 0.000000
0.220000 0.000000 0.000000
0.230000 0.000000 0.000000
0.240000 0.000000 0.000000
0.250000 0.000000 0.000000
0.260000 0.000000 0.000000
0.270000 0.000000 0.000000
0.280000 0.000000 0.000000
0.290000 0.000000 0.000000
0.300000 0.000000 0.000000
0.310000 0.000000 0.000000
0.320000 0.000000 0.000000
0.330000 0.000000 0.000000
0.340000 0.000000 0.000000
0.350000 0.000000 0.000000
0.360000 0.000000 0.000000
0.370000 0.000000 0.000000
0.380000 0.000000 0.000000
0.390000 0.000000 0.000000
0.400000 0.000000 0.000000
0.410000 0.000000 0.000000
0.420000 0.000000 0.000000
0.430000 0.000000 0.000000
0.440000 0.000000 0.000000
0.450000 0.000000 0.000000
0.460000 0.000000 0.000000
0.470000 0.000000 0.000000
0.480000 0.000000 0.000000
0.490000 0.000000 0.000000
0.500000 0.000000 0.000000
0.510000 0.000000 0.000000
0.520000 0.000000 0.000000
0.530000 0.000000 0.000000
0.540000 0.000000 0.000000
0.550000 0.000000 0.000000
0.560000 0.000000 0.000000
0.570000 0.000000 0.000000
0.580000 0.000000 0.000000
0.590000 0.000000 0.000000
0.600000 0.000000 0.000000
0.610000 0.000000 0.000000
0.620000 0.000000 0.000000
0.630000 0.000000 0.000000
0.640000 0.000000 0.000000
0.650000 0.000000 0.000000
0.660000 0.000000 0.000000
0.670000 0.000000 0.000000
0.680000 0.000000 0.000000
0.690000 0.000000 0.000000
0.700000 0.000000 0.000000
0.710000 0.000000 0.000000
0.720000 0.000000 0.000000
0.730000 0.000000 0.000000
0.740000 0.000000 0.000000
0.750000 0.000000 0.000000
0.760000 0.000000 0.000000
0.770000 0.000000 0.000000
0.780000 0.000000 0.000000
0.790000 0.000000 0.000000
0.800000 0.000000 0.000000
0.810000 0.000000 0.000000
0.820000 0.000000 0.000000
0.830000 0.000000 0.000000
0.840000 0.000000 0.000000
0.850000 0.000000 0.000000
0.860000 0.000000 0.000000
0.870000 0.000000 0.000000
0.880000 0.000000 0.000000
0.890000 0.000000 0.000000
0.900000 0.000000 0.000000
0.910000 0.000000 0.000000
0.920000 0.000000 0.000000
0.930000 0.000000 0.000000
0.940000 0.000000 0.000000
0.950000 0.000000 0.000000
0.960000 0.000000 0.000000
0.970000 0.000000 0.000000
0.980000 0.000000 0.000000
0.990000 0.000000 0.000000
1.000000 0.010000 0.000000
1.000000 0.020000 0.000000
1.000000 0.030000 0.000000
1.000000 0.040000 0.000000
1.000000 0.050000 0.000000
1.000000 0.060000 0.000000
1.000000 0.070000 0.000000
1.000000 0.080000 0.000000
1.000000 0.090000 0.000000
1.000000 0.100000 0.000000
1.000000 0.110000 0.000000
1.000000 0.120000 0.000000
1.000000 0.130000 0.000000
1.000000 0.140000 0.000000
1.000000 0.150000 0.000000
1.000000 0.160000 0.000000
1.000000 0.170000 0.000000
1.000000 0.180000 0.000000
1.000000 0.190000 0.000000
1.000000 0.200000 0.000000
1.000000 0.210000 0.000000
1.000000 0.220000 0.000000
1.000000 0.230000 0.000000
1.000000 0.240000 0.000000
1.000000 0.250000 0.000000
1.000000 0.260000 0.000000
1.000000 0.270000 0.000000
1.000000 0.280000 0.000000
1.000000 0.290000 0.000000
1.000000 0.300000 0.000000
1.000000 0.310000 0.000000
1.000000 0.320000 0.000000
1.000000 0.330000 0.000000
1.000000 0.340000 0.000000
1.000000 0.350000 0.000000
1.000000 0.360000 0.000000
1.000000 0.370000 0.000000
1.000000 0.380000 0.000000
1.000000 0.390000 0.000000
1.000000 0.400000 0.000000
1.000000 0.410000 0.000000
1.000000 0.420000 0.000000
1.000000 0.430000 0.000000
1.000000 0.440000 0.000000
1.000000 0.450000 0.000000
1.000000 0.460000 0.000000
1.000000 0.470000 0.000000
1.000000 0.480000 0.000000
1.000000 0.490000 0.000000
1.000000 0.500000 0.000000
1.000000 0.510000 0.000000
1.000000 0.520000 0.000000
1.000000 0.530000 0.000000
1.000000 0.540000 0.000000
1.000000 0.550000 0.000000
1.000000 0.560000 0.000000
1.000000 0.570000 0.000000
1.000000 0.580000 0.000000
1.000000 0.590000 0.000000
1.000000 0.600000 0.000000
1.000000 0.610000 0.000000
1.000000 0.620000 0.000000
1.000000 0.630000 0.000000
1.000000 0.640000 0.000000
1.000000 0.650000 0.000000
1.000000 0.660000 0.000000
1.000000 0.670000 0.000000
1.000000 0.680000 0.000000
1.000000 0.690000 0.000000
1.000000 0.700000 0.000000
1.000000 0.710000 0.000000
1.000000 0.720000 0.000000
1.000000 0.730000 0.000000
1.000000 0.740000 0.000000
1.000000 0.750000 0.000000
1.000000 0.760000 0.000000
1.000000 0.770000 0.000000
1.000000 0.780000 0.000000
1.000000 0.790000 0.000000
1.000000 0.800000 0.000000
1.000000 0.810000 0.000000
1.000000 0.820000 0.000000
1.000000 0.830000 0.000000
1.000000 0.840000 0.000000
1.000000 0.850000 0.000000
1.000000 0.860000 0.000000
1.000000 0.870000 0.000000
1.000000 0.880000 0.000000
1.000000 0.890000 0.000000
1.000000 0.900000 0.000000
1.000000 0.910000 0.000000
1.000000 0.920000 0.000000
1.000000 0.930000 0.000000
1.000000 0.940000 0.000000
1.000000 0.950000 0.000000
1.000000 0.960000 0.000000
1.000000 0.970000 0.000000
1.000000 0.980000 0.000000
1.000000 0.990000 0.000000
0.990000 1.000000 0.000000
0.980000 1.000000 0.000000
0.970000 1.000000 0.000000
0.960000 1.000000 0.000000
0.950000 1.000000 0.000000
0.940000 1.000000 0.000000
0.930000 1.000000 0.000000
0.920000 1.000000 0.000000
0.910000 1.000000 0.000000
0.900000 1.000000 0.000000
0.890000 1.000000 0.000000
0.880000 1.000000 0.000000
0.870000 1.000000 0.000000
0.860000 1.000000 0.000000
0.850000 1.000000 0.000000
0.840000 1.000000 0.000000
0.830000 1.000000 0.000000
0.820000 1.000000 0.000000
0.810000 1.000000 0.000000
0.800000 1.000000 0.000000
0.790000 1.000000 0.000000
0.780000 1.000000 0.000000
0.770000 1.000000 0.000000
0.760000 1.000000 0.000000
0.750000 1.000000 0.000000
0.740000 1.000000 0.000000
0.730000 1.000000 0.000000
0.720000 1.000000 0.000000
0.710000 1.000000 0.000000
0.700000 1.000000 0.000000
0.690000 1.000000 0.000000
0.680000 1.000000 0.000000
0.670000 1.000000 0.000000
0.660000 1.000000 0.000000
0.650000 1.000000 0.000000
0.640000 1.000000 0.000000
0.630000 1.000000 0.000000
0.620000 1.000000 0.000000
0.610000 1.000000 0.000000
0.600000 1.000000 0.000000
0.590000 1.000000 0.000000
0.580000 1.000000 0.000000
0.570000 1.000000 0.000000
0.560000 1.000000 0.000000
0.550000 1.000000 0.000000
0.540000 1.000000 0.000000
0.530000 1.000000 0.000000
0.520000 1.000000 0.000000
0.510000 1.000000 0.000000
0.500000 1.000000 0.000000
0.490000 1.000000 0.000000
0.480000 1.000000 0.000000
0.470000 1.000000 0.000000
0.460000 1.000000 0.000000
0.450000 1.000000 0.000000
0.440000 1.000000 0.000000
0.430000 1.000000 0.000000
0.420000 1.000000 0.000000
0.410000 1.000000 0.000000
0.400000 1.000000 0.000000
0.390000 1.000000 0.000000
0.380000 1.000000 0.000000
0.370000 1.000000 0.000000
0.360000 1.000000 0.000000
0.350000 1.000000 0.000000
0.340000 1.000000 0.000000
0.330000 1.000000 0.000000
0.320000 1.000000 0.000000
0.310000 1.000000 0.000000
0.300000 1.000000 0.000000
0.290000 1.000000 0.000000
0.280000 1.000000 0.000000
0.270000 1.000000 0.000000
0.260000 1.000000 0.000000
0.250000 1.000000 0.000000
0.240000 1.000000 0.000000
0.230000 1.000000 0.000000
0.220000 1.000000 0.000000
0.210000 1.000000 0.000000
0.200000 1.000000 0.000000
0.190000 1.000000 0.000000
0.180000 1.000000 0.000000
0.170000 1.000000 0.000000
0.160000 1.000000 0.000000
0.150000 1.000000 0.000000
0.140000 1.000000 0.000000
0.130000 1.000000 0.000000
0.120000 1.000000 0.000000
0.110000 1.000000 0.000000
0.100000 1.000000 0.000000
0.090000 1.000000 0.000000
0.080000 1.000000 0.000000
0.070000 1.000000 0.000000
0.060000 1.000000 0.000000
0.050000 1.000000 0.000000
0.040000 1.000000 0.000000
0.030000 1.000000 0.000000
0.020000 1.000000 0.000000
0.010000 1.000000 0.000000
0.000000 0.990000 0.000000
0.000000 0.980000 0.000000
0.000000 0.970000 0.000000
0.000000 0.960000 0.000000
0.000000 0.950000 0.000000
0.000000 0.940000 0.000000
0.000000 0.930000 0.000000
0.000000 0.920000 0.000000
0.000000 0.910000 0.000000
0.000000 0.900000 0.000000
0.000000 0.890000 0.000000
0.000000 0.880000 0.000000
0.000000 0.870000 0.000000
0.000000 0.860000 0.000000
0.000000 0.850000 0.000000
0.000000 0.840000 0.000000
0.000000 0.830000 0.000000
0.000000 0.820000 0.000000
0.000000 0.810000 0.000000
0.000000 0.800000 0.000000
0.000000 0.790000 0.000000
0.000000 0.780000 0.000000
0.000000 0.770000 0.000000
0.000000 0.760000 0.000000
0.000000 0.750000 0.000000
0.000000 0.740000 0.000000
0.000000 0.730000 0.000000
0.000000 0.720000 0.000000
0.000000 0.710000 0.000000
0.000000 0.700000 0.000000
0.000000 0.690000 0.000000
0.000000 0.680000 0.000000
0.000000 0.670000 0.000000
0.000000 0.660000 0.000000
0.000000 0.650000 0.000000
0.000000 0.640000 0.000000
0.000000 0.630000 0.000000
0.000000 0.620000 0.000000
0.000000 0.610000 0.000000
0.000000 0.600000 0.000000
0.000000 0.590000 0.000000
0.000000 0.580000 0.000000
0.000000 0.570000 0.000000
0.000000 0.560000 0.000000
0.000000 0.550000 0.000000
0.000000 0.540000 0.000000
0.000000 0.530000 0.000000
0.000000 0.520000 0.000000
0.000000 0.510000 0.000000
0.000000 0.500000 0.000000
0.000000 0.490000 0.000000
0.000000 0.480000 0.000000
0.000000 0.470000 0.000000
0.000000 0.460000 0.000000
0.000000 0.450000 0.000000
0.000000 0.440000 0.000000
0.000000 0.430000 0.000000
0.000000 0.420000 0.000000
0.000000 0.410000 0.000000
0.000000 0.400000 0.000000
0.000000 0.390000 0.000000
0.000000 0.380000 0.000000
0.000000 0.370000 0.000000
0.000000 0.360000 0.000000
0.000000 0.350000 0.000000
0.000000 0.340000 0.000000
0.000000 0.330000 0.000000
0.000000 0.320000 0.000000
0.000000 0.310000 0.000000
0.000000 0.300000 0.000000
0.000000 0.290000 0.000000
0.000000 0.280000 0.000000
0.000000 0.270000 0.000000
0.000000 0.260000 0.000000
0.000000 0.250000 0.000000
0.000000 0.240000 0.000000
0.000000 0.230000 0.000000
0.000000 0.220000 0.000000
0.000000 0.210000 0.000000
0.000000 0.200000 0.000000
0.000000 0.190000 0.000000
0.000000 0.180000 0.000000
0.000000 0.170000 0.000000
0.000000 0.160000 0.000000
0.000000 0.150000 0.000000
0.000000 0.140000 0.000000
0.000000 0.130000 0.000000
0.000000 0.120000 0.000000
0.000000 0.110000 0.000000
0.000000 0.100000 0.000000
0.000000 0.090000 0.000000
0.000000 0.080000 0.000000
0.000000 0.070000 0.000000
0.000000 0.060000 0.000000
0.000000 0.050000 0.000000
0.000000 0.040000 0.000000
0.000000 0.030000 0.000000
0.000000 0.020000 0.000000
0.000000 0.010000 0.000000
0.009002 0.495825 0.000000
0.505000 0.008660 0.000000
0.990493 0.503745 0.000000
0.495000 0.991340 0.000000
0.008660 0.585000 0.000000
0.585281 0.991884 0.000000
0.415000 0.008660 0.000000
0.991194 0.415245 0.000000
0.595000 0.008660 0.000000
0.991169 0.594984 0.000000
0.404927 0.991580 0.000000
0.008985 0.404387 0.000000
0.665200 0.992320 0.000000
0.009214 0.664409 0.000000
0.335000 0.008660 0.000000
0.991037 0.334613 0.000000
0.990999 0.675214 0.000000
0.325000 0.991340 0.000000
0.008660 0.325000 0.000000
0.675000 0.008660 0.000000
0.265000 0.008660 0.000000
0.991186 0.265052 0.000000
0.735000 0.991340 0.000000
0.008398 0.734679 0.000000
0.991190 0.744952 0.000000
0.254800 0.992320 0.000000
0.007971 0.254849 0.000000
0.745000 0.008660 0.000000
0.205000 0.008660 0.000000
0.990909 0.205938 0.000000
0.007901 0.794814 0.000000
0.795561 0.992870 0.000000
0.805000 0.008660 0.000000
0.007946 0.195178 0.000000
0.992052 0.804465 0.000000
0.194927 0.991580 0.000000
0.155000 0.008660 0.000000
0.008261 0.845000 0.000000
0.991031 0.155375 0.000000
0.845200 0.992320 0.000000
0.008979 0.144448 0.000000
0.855000 0.008660 0.000000
0.991025 0.854492 0.000000
0.144927 0.991580 0.000000
0.990902 0.104610 0.000000
0.105000 0.008660 0.000000
0.007742 0.895275 0.000000
0.895000 0.991340 0.000000
0.625000 0.991340 0.000000
0.009539 0.624254 0.000000
0.465000 0.008660 0.000000
0.544800 0.992320 0.000000
0.008983 0.543986 0.000000
0.545000 0.008660 0.000000
0.635000 0.008660 0.000000
0.895000 0.008660 0.000000
0.008470 0.454945 0.000000
0.008480 0.365000 0.000000
0.009960 0.104732 0.000000
0.375000 0.008660 0.000000
0.991340 0.455000 0.000000
0.990983 0.543927 0.000000
0.991039 0.635370 0.000000
0.991045 0.895310 0.000000
0.455000 0.991340 0.000000
0.365000 0.991340 0.000000
0.105000 0.991340 0.000000
0.991032 0.375431 0.000000
0.065000 0.991340 0.000000
0.991134 0.935109 0.000000
0.935000 0.008660 0.000000
0.008676 0.064494 0.000000
0.009067 0.935126 0.000000
0.935200 0.992320 0.000000
0.991340 0.065000 0.000000
0.065000 0.008660 0.000000
0.695073 0.991580 0.000000
0.009520 0.693959 0.000000
0.305000 0.008660 0.000000
0.235000 0.008660 0.000000
0.715000 0.008660 0.000000
0.775000 0.008660 0.000000
0.009503 0.763666 0.000000
0.008973 0.284060 0.000000
0.008808 0.225025 0.000000
0.991340 0.705000 0.000000
0.294927 0.991580 0.000000
0.991047 0.235794 0.000000
0.991011 0.305658 0.000000
0.992056 0.774808 0.000000
0.765200 0.992320 0.000000
0.224439 0.992870 0.000000
0.991115 0.034908 0.000000
0.008964 0.034828 0.000000
0.991959 0.965214 0.000000
0.035000 0.991340 0.000000
0.035000 0.008660 0.000000
0.966245 0.990692 0.000000
0.965000 0.008660 0.000000
0.008660 0.965000 0.000000
0.008452 0.645000 0.000000
0.644719 0.991884 0.000000
0.009546 0.605645 0.000000
0.605000 0.991340 0.000000
0.125000 0.008660 0.000000
0.008660 0.125000 0.000000
0.655000 0.008660 0.000000
0.009939 0.345377 0.000000
0.565000 0.008660 0.000000
0.009443 0.916108 0.000000
0.010095 0.814620 0.000000
0.009016 0.426057 0.000000
0.991011 0.124047 0.000000
0.990565 0.656431 0.000000
0.345000 0.991340 0.000000
0.125000 0.991340 0.000000
0.285000 0.008660 0.000000
0.991099 0.565454 0.000000
0.434800 0.992320 0.000000
0.825073 0.991580 0.000000
0.435000 0.008660 0.000000
0.485000 0.008660 0.000000
0.525000 0.008660 0.000000
0.615000 0.008660 0.000000
0.835000 0.008660 0.000000
0.875000 0.008660 0.000000
0.915000 0.008660 0.000000
0.007976 0.875613 0.000000
0.009199 0.715112 0.000000
0.007458 0.515185 0.000000
0.009003 0.474158 0.000000
0.008660 0.385000 0.000000
0.007944 0.165523 0.000000
0.175000 0.008660 0.000000
0.355000 0.008660 0.000000
0.695000 0.008660 0.000000
0.008989 0.305658 0.000000
0.991022 0.825536 0.000000
0.915000 0.991340 0.000000
0.174800 0.992320 0.000000
0.990986 0.283989 0.000000
0.395000 0.008660 0.000000
0.990762 0.174272 0.000000
0.008660 0.085000 0.000000
0.008984 0.565597 0.000000
0.990739 0.433986 0.000000
0.991088 0.484991 0.000000
0.991056 0.524778 0.000000
0.991596 0.614556 0.000000
0.990487 0.726156 0.000000
0.992024 0.875613 0.000000
0.990499 0.916370 0.000000
0.875073 0.991580 0.000000
0.715000 0.991340 0.000000
0.565000 0.991340 0.000000
0.514927 0.991580 0.000000
0.475000 0.991726 0.000000
0.385000 0.991340 0.000000
0.275000 0.991340 0.000000
0.085000 0.008660 0.000000
0.993171 0.355225 0.000000
0.990495 0.396486 0.000000
0.990465 0.085804 0.000000
0.085000 0.991340 0.000000
0.990943 0.015918 0.000000
0.009057 0.015918 0.000000
0.991557 0.985096 0.000000
0.008289 0.984941 0.000000
0.955000 0.008660 0.000000
0.960000 0.017321 0.000000
0.970000 0.017321 0.000000
0.965000 0.025981 0.000000
0.955000 0.025981 0.000000
0.960000 0.034641 0.000000
0.950000 0.034641 0.000000
0.954994 0.043298 0.000000
0.944999 0.043301 0.000000
0.949993 0.051957 0.000000
0.939999 0.051961 0.000000
0.944999 0.060621 0.000000
0.935000 0.060622 0.000000
0.940000 0.069282 0.000000
0.930000 0.069282 0.000000
0.935000 0.077942 0.000000
0.925000 0.077942 0.000000
0.930000 0.086603 0.000000
0.920000 0.086603 0.000000
0.925000 0.095263 0.000000
0.915000 0.095263 0.000000
0.920000 0.103923 0.000000
0.910000 0.103923 0.000000
0.915000 0.112583 0.000000
0.905000 0.112583 0.000000
0.910000 0.121244 0.000000
0.900000 0.121244 0.000000
0.905000 0.129904 0.000000
0.895000 0.129904 0.000000
0.900000 0.138564 0.000000
0.890000 0.138564 0.000000
0.895000 0.147224 0.000000
0.885000 0.147224 0.000000
0.890000 0.155885 0.000000
0.880000 0.155885 0.000000
0.885000 0.164545 0.000000
0.875000 0.164545 0.000000
0.880000 0.173205 0.000000
0.870000 0.173205 0.000000
0.875000 0.181865 0.000000
0.865000 0.181865 0.000000
0.870000 0.190526 0.000000
0.860000 0.190526 0.000000
0.865000 0.199186 0.000000
0.855000 0.199186 0.000000
0.860000 0.207846 0.000000
0.850000 0.207846 0.000000
0.855000 0.216506 0.000000
0.845000 0.216506 0.000000
0.850000 0.225167 0.000000
0.840000 0.225167 0.000000
0.845000 0.233827 0.000000
0.835000 0.233827 0.000000
0.840000 0.242487 0.000000
0.830000 0.242487 0.000000
0.835000 0.251147 0.000000
0.825000 0.251147 0.000000
0.830000 0.259808 0.000000
0.820000 0.259808 0.000000
0.825000 0.268468 0.000000
0.815000 0.268468 0.000000
0.820000 0.277128 0.000000
0.810000 0.277128 0.000000
0.815000 0.285788 0.000000
0.805000 0.285788 0.000000
0.800000 0.277128 0.000000
0.795000 0.285788 0.000000
0.800000 0.294449 0.000000
0.790000 0.294449 0.000000
0.795000 0.303109 0.000000
0.785000 0.303109 0.000000
0.790000 0.311769 0.000000
0.780000 0.311769 0.000000
0.785000 0.320429 0.000000
0.775000 0.320429 0.000000
0.780000 0.329090 0.000000
0.770000 0.329090 0.000000
0.775000 0.337750 0.000000
0.765000 0.337750 0.000000
0.770000 0.346410 0.000000
0.760000 0.346410 0.000000
0.765000 0.355070 0.000000
0.755000 0.355070 0.000000
0.760000 0.363731 0.000000
0.750000 0.363731 0.000000
0.755000 0.372391 0.000000
0.745000 0.372391 0.000000
0.750000 0.381051 0.000000
0.740000 0.381051 0.000000
0.745000 0.389711 0.000000
0.735000 0.389711 0.000000
0.740000 0.398372 0.000000
0.730000 0.398372 0.000000
0.725000 0.389711 0.000000
0.720000 0.398372 0.000000
0.725000 0.407032 0.000000
0.715000 0.407032 0.000000
0.720000 0.415692 0.000000
0.710000 0.415692 0.000000
0.715000 0.424352 0.000000
0.705000 0.424352 0.000000
0.710000 0.433013 0.000000
0.700000 0.433013 0.000000
0.695000 0.424352 0.000000
0.690000 0.433013 0.000000
0.685000 0.424352 0.000000
0.680000 0.433013 0.000000
0.675000 0.424352 0.000000
0.670000 0.433013 0.000000
0.665000 0.424352 0.000000
0.660000 0.433013 0.000000
0.655000 0.424352 0.000000
0.650000 0.433013 0.000000
0.645000 0.424352 0.000000
0.640000 0.433013 0.000000
0.635000 0.424352 0.000000
0.630000 0.433013 0.000000
0.625000 0.424352 0.000000
0.620000 0.433013 0.000000
0.615000 0.424352 0.000000
0.610000 0.433013 0.000000
0.605000 0.424352 0.000000
0.600000 0.433013 0.000000
0.595000 0.424352 0.000000
0.590000 0.433013 0.000000
0.585000 0.424352 0.000000
0.580000 0.433013 0.000000
0.575000 0.424352 0.000000
0.570000 0.433013 0.000000
0.565000 0.424352 0.000000
0.560000 0.433013 0.000000
0.555000 0.424352 0.000000
0.550000 0.433013 0.000000
0.545000 0.424352 0.000000
0.540000 0.433013 0.000000
0.535000 0.424352 0.000000
0.530000 0.433013 0.000000
0.525000 0.424352 0.000000
0.535000 0.441673 0.000000
0.525000 0.441673 0.000000
0.615000 0.441673 0.000000
0.685000 0.441673 0.000000
0.530000 0.450333 0.000000
0.520000 0.450333 0.000000
0.525000 0.458993 0.000000
0.515000 0.458993 0.000000
0.520000 0.467654 0.000000
0.510000 0.467654 0.000000
0.515000 0.476314 0.000000
0.505000 0.476314 0.000000
0.510000 0.484974 0.000000
0.500000 0.484974 0.000000
0.505000 0.493634 0.000000
0.495000 0.493634 0.000000
0.490000 0.484974 0.000000
0.485000 0.493634 0.000000
0.480000 0.484974 0.000000
0.475000 0.493634 0.000000
0.470000 0.484974 0.000000
0.490000 0.502295 0.000000
0.465000 0.493634 0.000000
0.460000 0.484974 0.000000
0.455000 0.493634 0.000000
0.450000 0.484974 0.000000
0.445000 0.493634 0.000000
0.440000 0.484974 0.000000
0.435000 0.493634 0.000000
0.430000 0.484974 0.000000
0.425000 0.493634 0.000000
0.420000 0.484974 0.000000
0.415000 0.493634 0.000000
0.420000 0.502295 0.000000
0.410000 0.484974 0.000000
0.410000 0.502295 0.000000
0.415000 0.510955 0.000000
0.405000 0.510955 0.000000
0.410000 0.519615 0.000000
0.400000 0.519615 0.000000
0.405000 0.528275 0.000000
0.395000 0.528275 0.000000
0.400000 0.536936 0.000000
0.390000 0.536936 0.000000
0.395000 0.545596 0.000000
0.580000 0.415692 0.000000
0.385000 0.545596 0.000000
0.390000 0.554256 0.000000
0.380000 0.536936 0.000000
0.380000 0.554256 0.000000
0.385000 0.562917 0.000000
0.770000 0.311769 0.000000
0.375000 0.562917 0.000000
0.380000 0.571577 0.000000
0.370000 0.571577 0.000000
0.375000 0.580237 0.000000
0.365000 0.580237 0.000000
0.370000 0.588897 0.000000
0.360000 0.588897 0.000000
0.365000 0.597558 0.000000
0.375000 0.597558 0.000000
0.370000 0.606218 0.000000
0.380000 0.606218 0.000000
0.375000 0.614878 0.000000
0.385000 0.614878 0.000000
0.365000 0.614878 0.000000
0.380000 0.623538 0.000000
0.390000 0.623538 0.000000
0.385000 0.632199 0.000000
0.395000 0.632199 0.000000
0.390000 0.640859 0.000000
0.400000 0.640859 0.000000
0.395000 0.649519 0.000000
0.405000 0.649519 0.000000
0.400000 0.658179 0.000000
0.410000 0.658179 0.000000
0.405000 0.666840 0.000000
0.415000 0.666840 0.000000
0.395000 0.666840 0.000000
0.400000 0.675500 0.000000
0.390000 0.675500 0.000000
0.395000 0.684160 0.000000
0.385000 0.684160 0.000000
0.390000 0.692820 0.000000
0.380000 0.692820 0.000000
0.385000 0.701481 0.000000
0.375000 0.701481 0.000000
0.530000 0.415692 0.000000
0.825000 0.233827 0.000000
0.355000 0.580237 0.000000
0.380000 0.710141 0.000000
0.370000 0.710141 0.000000
0.390000 0.710141 0.000000
0.630000 0.415692 0.000000
0.375000 0.718801 0.000000
0.365000 0.718801 0.000000
0.370000 0.727461 0.000000
0.360000 0.727461 0.000000
0.750000 0.398372 0.000000
0.365000 0.736122 0.000000
0.355000 0.736122 0.000000
0.350000 0.727461 0.000000
0.345000 0.736122 0.000000
0.340000 0.727461 0.000000
0.335000 0.736122 0.000000
0.330000 0.727461 0.000000
0.325000 0.736122 0.000000
0.320000 0.727461 0.000000
0.315000 0.736122 0.000000
0.310000 0.727461 0.000000
0.305000 0.736122 0.000000
0.300000 0.727461 0.000000
0.295000 0.736122 0.000000
0.290000 0.727461 0.000000
0.285000 0.736122 0.000000
0.280000 0.727461 0.000000
0.275000 0.736122 0.000000
0.270000 0.727461 0.000000
0.265000 0.736122 0.000000
0.260000 0.727461 0.000000
0.255000 0.736122 0.000000
0.250000 0.727461 0.000000
0.245000 0.736122 0.000000
0.520000 0.415692 0.000000
0.525000 0.407032 0.000000
0.515000 0.407032 0.000000
0.520000 0.398372 0.000000
0.510000 0.398372 0.000000
0.515000 0.389711 0.000000
0.505000 0.389711 0.000000
0.510000 0.381051 0.000000
0.500000 0.381051 0.000000
0.505000 0.372391 0.000000
0.495000 0.372391 0.000000
0.500000 0.363731 0.000000
0.490000 0.363731 0.000000
0.495000 0.355070 0.000000
0.485000 0.355070 0.000000
0.490000 0.346410 0.000000
0.480000 0.346410 0.000000
0.485000 0.337750 0.000000
0.475000 0.337750 0.000000
0.480000 0.329090 0.000000
0.470000 0.329090 0.000000
0.475000 0.320429 0.000000
0.465000 0.320429 0.000000
0.485000 0.320429 0.000000
0.480000 0.311769 0.000000
0.490000 0.311769 0.000000
0.485000 0.303109 0.000000
0.495000 0.303109 0.000000
0.490000 0.294449 0.000000
0.500000 0.294449 0.000000
0.495000 0.285788 0.000000
0.505000 0.285788 0.000000
0.500000 0.277128 0.000000
0.510000 0.277128 0.000000
0.490000 0.277128 0.000000
0.495000 0.268468 0.000000
0.485000 0.268468 0.000000
0.490000 0.259808 0.000000
0.480000 0.259808 0.000000
0.310000 0.744782 0.000000
0.240000 0.727461 0.000000
0.250000 0.744782 0.000000
0.240000 0.744782 0.000000
0.360000 0.744782 0.000000
0.485000 0.251147 0.000000
0.475000 0.251147 0.000000
0.850000 0.190526 0.000000
0.245000 0.753442 0.000000
0.235000 0.753442 0.000000
0.480000 0.242487 0.000000
0.470000 0.242487 0.000000
0.775000 0.355070 0.000000
0.240000 0.762102 0.000000
0.230000 0.762102 0.000000
0.475000 0.233827 0.000000
0.465000 0.233827 0.000000
0.485000 0.233827 0.000000
0.235000 0.770763 0.000000
0.225000 0.770763 0.000000
0.245000 0.718801 0.000000
0.235000 0.718801 0.000000
0.240000 0.710141 0.000000
0.230000 0.710141 0.000000
0.235000 0.701481 0.000000
0.225000 0.701481 0.000000
0.230000 0.692820 0.000000
0.220000 0.692820 0.000000
0.225000 0.684160 0.000000
0.215000 0.684160 0.000000
0.220000 0.675500 0.000000
0.480000 0.225167 0.000000
0.490000 0.225167 0.000000
0.210000 0.675500 0.000000
0.215000 0.666840 0.000000
0.460000 0.329090 0.000000
0.230000 0.779423 0.000000
0.220000 0.779423 0.000000
0.205000 0.666840 0.000000
0.210000 0.658179 0.000000
0.205000 0.684160 0.000000
0.485000 0.216506 0.000000
0.495000 0.216506 0.000000
0.420000 0.658179 0.000000
0.425000 0.666840 0.000000
0.430000 0.658179 0.000000
0.435000 0.666840 0.000000
0.440000 0.658179 0.000000
0.445000 0.666840 0.000000
0.450000 0.658179 0.000000
0.455000 0.666840 0.000000
0.460000 0.658179 0.000000
0.465000 0.666840 0.000000
0.470000 0.658179 0.000000
0.475000 0.666840 0.000000
0.480000 0.658179 0.000000
0.485000 0.666840 0.000000
0.490000 0.658179 0.000000
0.495000 0.666840 0.000000
0.500000 0.658179 0.000000
0.505000 0.666840 0.000000
0.500000 0.675500 0.000000
0.510000 0.675500 0.000000
0.505000 0.684160 0.000000
0.515000 0.684160 0.000000
0.520000 0.675500 0.000000
0.525000 0.684160 0.000000
0.530000 0.675500 0.000000
0.535000 0.684160 0.000000
0.540000 0.675500 0.000000
0.545000 0.684160 0.000000
0.550000 0.675500 0.000000
0.555000 0.684160 0.000000
0.560000 0.675500 0.000000
0.565000 0.684160 0.000000
0.570000 0.675500 0.000000
0.575000 0.684160 0.000000
0.580000 0.675500 0.000000
0.585000 0.684160 0.000000
0.590000 0.675500 0.000000
0.595000 0.684160 0.000000
0.600000 0.675500 0.000000
0.605000 0.684160 0.000000
0.610000 0.675500 0.000000
0.615000 0.684160 0.000000
0.620000 0.675500 0.000000
0.625000 0.684160 0.000000
0.630000 0.675500 0.000000
0.635000 0.684160 0.000000
0.640000 0.675500 0.000000
0.645000 0.684160 0.000000
0.650000 0.675500 0.000000
0.655000 0.684160 0.000000
0.660000 0.675500 0.000000
0.665000 0.684160 0.000000
0.670000 0.675500 0.000000
0.675000 0.684160 0.000000
0.680000 0.675500 0.000000
0.685000 0.684160 0.000000
0.690000 0.675500 0.000000
0.695000 0.684160 0.000000
0.700000 0.675500 0.000000
0.705000 0.684160 0.000000
0.710000 0.675500 0.000000
0.530000 0.692820 0.000000
0.680000 0.692820 0.000000
0.600000 0.692820 0.000000
0.715000 0.684160 0.000000
0.720000 0.675500 0.000000
0.725000 0.684160 0.000000
0.730000 0.675500 0.000000
0.735000 0.684160 0.000000
0.730000 0.692820 0.000000
0.740000 0.692820 0.000000
0.735000 0.701481 0.000000
0.740000 0.675500 0.000000
0.745000 0.701481 0.000000
0.740000 0.710141 0.000000
0.750000 0.710141 0.000000
0.745000 0.718801 0.000000
0.755000 0.718801 0.000000
0.750000 0.727461 0.000000
0.760000 0.727461 0.000000
0.755000 0.736122 0.000000
0.765000 0.736122 0.000000
0.760000 0.744782 0.000000
0.765000 0.718801 0.000000
0.770000 0.744782 0.000000
0.765000 0.753442 0.000000
0.735000 0.666840 0.000000
0.745000 0.666840 0.000000
0.775000 0.753442 0.000000
0.770000 0.762102 0.000000
0.760000 0.762102 0.000000
0.740000 0.658179 0.000000
0.750000 0.658179 0.000000
0.645000 0.666840 0.000000
0.780000 0.762102 0.000000
0.745000 0.649519 0.000000
0.755000 0.649519 0.000000
0.775000 0.770763 0.000000
0.785000 0.770763 0.000000
0.595000 0.666840 0.000000
0.790000 0.762102 0.000000
0.750000 0.640859 0.000000
0.760000 0.640859 0.000000
0.780000 0.779423 0.000000
0.790000 0.779423 0.000000
0.755000 0.632199 0.000000
0.765000 0.632199 0.000000
0.200000 0.658179 0.000000
0.205000 0.649519 0.000000
0.785000 0.788083 0.000000
0.795000 0.788083 0.000000
0.225000 0.788083 0.000000
0.215000 0.788083 0.000000
0.760000 0.623538 0.000000
0.770000 0.623538 0.000000
0.490000 0.207846 0.000000
0.500000 0.207846 0.000000
0.195000 0.649519 0.000000
0.200000 0.640859 0.000000
0.765000 0.614878 0.000000
0.775000 0.614878 0.000000
0.780000 0.623538 0.000000
0.785000 0.614878 0.000000
0.790000 0.623538 0.000000
0.795000 0.614878 0.000000
0.790000 0.606218 0.000000
0.800000 0.606218 0.000000
0.795000 0.597558 0.000000
0.800000 0.623538 0.000000
0.805000 0.597558 0.000000
0.800000 0.588897 0.000000
0.755000 0.614878 0.000000
0.220000 0.796743 0.000000
0.210000 0.796743 0.000000
0.790000 0.796743 0.000000
0.800000 0.796743 0.000000
0.190000 0.640859 0.000000
0.195000 0.632199 0.000000
0.810000 0.588897 0.000000
0.805000 0.580237 0.000000
0.495000 0.199186 0.000000
0.505000 0.199186 0.000000
0.515000 0.493634 0.000000
0.815000 0.580237 0.000000
0.810000 0.571577 0.000000
0.185000 0.632199 0.000000
0.190000 0.623538 0.000000
0.215000 0.805404 0.000000
0.225000 0.805404 0.000000
0.205000 0.805404 0.000000
0.200000 0.796743 0.000000
0.195000 0.805404 0.000000
0.190000 0.796743 0.000000
0.185000 0.805404 0.000000
0.795000 0.805404 0.000000
0.785000 0.805404 0.000000
0.805000 0.805404 0.000000
0.180000 0.796743 0.000000
0.180000 0.640859 0.000000
0.180000 0.623538 0.000000
0.185000 0.614878 0.000000
0.820000 0.571577 0.000000
0.815000 0.562917 0.000000
0.485000 0.199186 0.000000
0.370000 0.744782 0.000000
0.365000 0.753442 0.000000
0.375000 0.753442 0.000000
0.370000 0.762102 0.000000
0.380000 0.762102 0.000000
0.375000 0.770763 0.000000
0.385000 0.770763 0.000000
0.380000 0.779423 0.000000
0.390000 0.779423 0.000000
0.385000 0.788083 0.000000
0.395000 0.788083 0.000000
0.390000 0.796743 0.000000
0.400000 0.796743 0.000000
0.395000 0.805404 0.000000
0.405000 0.805404 0.000000
0.820000 0.588897 0.000000
0.640000 0.692820 0.000000
0.750000 0.346410 0.000000
0.455000 0.320429 0.000000
0.450000 0.329090 0.000000
0.445000 0.320429 0.000000
0.440000 0.329090 0.000000
0.435000 0.320429 0.000000
0.430000 0.329090 0.000000
0.425000 0.320429 0.000000
0.420000 0.329090 0.000000
0.415000 0.320429 0.000000
0.410000 0.329090 0.000000
0.405000 0.320429 0.000000
0.400000 0.329090 0.000000
0.395000 0.320429 0.000000
0.390000 0.329090 0.000000
0.385000 0.320429 0.000000
0.380000 0.329090 0.000000
0.375000 0.320429 0.000000
0.370000 0.329090 0.000000
0.365000 0.320429 0.000000
0.360000 0.329090 0.000000
0.355000 0.320429 0.000000
0.350000 0.329090 0.000000
0.345000 0.320429 0.000000
0.340000 0.329090 0.000000
0.335000 0.320429 0.000000
0.330000 0.329090 0.000000
0.325000 0.320429 0.000000
0.320000 0.329090 0.000000
0.315000 0.320429 0.000000
0.310000 0.329090 0.000000
0.305000 0.320429 0.000000
0.300000 0.329090 0.000000
0.295000 0.320429 0.000000
0.320000 0.311769 0.000000
0.290000 0.329090 0.000000
0.285000 0.320429 0.000000
0.280000 0.329090 0.000000
0.275000 0.320429 0.000000
0.270000 0.329090 0.000000
0.265000 0.320429 0.000000
0.270000 0.311769 0.000000
0.260000 0.329090 0.000000
0.260000 0.311769 0.000000
0.265000 0.303109 0.000000
0.255000 0.303109 0.000000
0.260000 0.294449 0.000000
0.265000 0.337750 0.000000
0.255000 0.337750 0.000000
0.260000 0.346410 0.000000
0.250000 0.294449 0.000000
0.255000 0.285788 0.000000
0.250000 0.346410 0.000000
0.255000 0.355070 0.000000
0.245000 0.355070 0.000000
0.250000 0.363731 0.000000
0.245000 0.285788 0.000000
0.250000 0.277128 0.000000
0.240000 0.277128 0.000000
0.245000 0.268468 0.000000
0.240000 0.363731 0.000000
0.245000 0.372391 0.000000
0.235000 0.268468 0.000000
0.240000 0.259808 0.000000
0.235000 0.372391 0.000000
0.240000 0.381051 0.000000
0.230000 0.381051 0.000000
0.230000 0.259808 0.000000
0.235000 0.251147 0.000000
0.235000 0.389711 0.000000
0.225000 0.389711 0.000000
0.225000 0.251147 0.000000
0.230000 0.242487 0.000000
0.240000 0.242487 0.000000
0.220000 0.259808 0.000000
0.220000 0.242487 0.000000
0.225000 0.233827 0.000000
0.230000 0.398372 0.000000
0.220000 0.398372 0.000000
0.215000 0.233827 0.000000
0.215000 0.389711 0.000000
0.220000 0.225167 0.000000
0.210000 0.225167 0.000000
0.210000 0.398372 0.000000
0.225000 0.407032 0.000000
0.205000 0.389711 0.000000
0.215000 0.216506 0.000000
0.205000 0.216506 0.000000
0.200000 0.398372 0.000000
0.210000 0.207846 0.000000
0.200000 0.207846 0.000000
0.195000 0.216506 0.000000
0.195000 0.389711 0.000000
0.190000 0.398372 0.000000
0.190000 0.207846 0.000000
0.235000 0.407032 0.000000
0.230000 0.415692 0.000000
0.195000 0.199186 0.000000
0.185000 0.199186 0.000000
0.185000 0.216506 0.000000
0.185000 0.389711 0.000000
0.240000 0.415692 0.000000
0.235000 0.424352 0.000000
0.180000 0.398372 0.000000
0.190000 0.190526 0.000000
0.180000 0.190526 0.000000
0.360000 0.311769 0.000000
0.335000 0.337750 0.000000
0.555000 0.666840 0.000000
0.870000 0.155885 0.000000
0.790000 0.277128 0.000000
0.795000 0.320429 0.000000
0.220000 0.207846 0.000000
0.385000 0.805404 0.000000
0.810000 0.796743 0.000000
0.815000 0.805404 0.000000
0.820000 0.796743 0.000000
0.500000 0.190526 0.000000
0.510000 0.190526 0.000000
0.210000 0.814064 0.000000
0.810000 0.814064 0.000000
0.820000 0.814064 0.000000
0.245000 0.424352 0.000000
0.240000 0.433013 0.000000
0.175000 0.614878 0.000000
0.180000 0.606218 0.000000
0.825000 0.285788 0.000000
0.825000 0.562917 0.000000
0.820000 0.554256 0.000000
0.190000 0.606218 0.000000
0.185000 0.597558 0.000000
0.175000 0.597558 0.000000
0.180000 0.588897 0.000000
0.190000 0.588897 0.000000
0.175000 0.805404 0.000000
0.175000 0.389711 0.000000
0.400000 0.814064 0.000000
0.410000 0.814064 0.000000
0.805000 0.562917 0.000000
0.185000 0.181865 0.000000
0.175000 0.181865 0.000000
0.170000 0.398372 0.000000
0.505000 0.181865 0.000000
0.515000 0.181865 0.000000
0.520000 0.190526 0.000000
0.525000 0.181865 0.000000
0.530000 0.190526 0.000000
0.535000 0.181865 0.000000
0.540000 0.190526 0.000000
0.545000 0.181865 0.000000
0.550000 0.190526 0.000000
0.555000 0.181865 0.000000
0.560000 0.190526 0.000000
0.565000 0.181865 0.000000
0.570000 0.190526 0.000000
0.575000 0.181865 0.000000
0.580000 0.190526 0.000000
0.585000 0.181865 0.000000
0.590000 0.190526 0.000000
0.595000 0.181865 0.000000
0.600000 0.190526 0.000000
0.605000 0.181865 0.000000
0.610000 0.190526 0.000000
0.615000 0.181865 0.000000
0.620000 0.190526 0.000000
0.625000 0.181865 0.000000
0.615000 0.199186 0.000000
0.625000 0.199186 0.000000
0.620000 0.207846 0.000000
0.630000 0.207846 0.000000
0.625000 0.216506 0.000000
0.170000 0.796743 0.000000
0.830000 0.554256 0.000000
0.825000 0.545596 0.000000
0.170000 0.588897 0.000000
0.175000 0.580237 0.000000
0.515000 0.285788 0.000000
0.815000 0.822724 0.000000
0.825000 0.822724 0.000000
0.405000 0.822724 0.000000
0.415000 0.822724 0.000000
0.420000 0.814064 0.000000
0.425000 0.822724 0.000000
0.250000 0.433013 0.000000
0.165000 0.389711 0.000000
0.165000 0.580237 0.000000
0.170000 0.571577 0.000000
0.835000 0.545596 0.000000
0.830000 0.536936 0.000000
0.165000 0.805404 0.000000
0.170000 0.814064 0.000000
0.245000 0.441673 0.000000
0.430000 0.814064 0.000000
0.435000 0.822724 0.000000
0.635000 0.216506 0.000000
0.630000 0.225167 0.000000
0.580000 0.173205 0.000000
0.620000 0.173205 0.000000
0.630000 0.173205 0.000000
0.540000 0.173205 0.000000
0.180000 0.173205 0.000000
0.170000 0.173205 0.000000
0.165000 0.181865 0.000000
0.440000 0.814064 0.000000
0.445000 0.822724 0.000000
0.160000 0.571577 0.000000
0.165000 0.562917 0.000000
0.160000 0.398372 0.000000
0.160000 0.173205 0.000000
0.160000 0.814064 0.000000
0.165000 0.822724 0.000000
0.160000 0.796743 0.000000
0.840000 0.536936 0.000000
0.835000 0.528275 0.000000
0.840000 0.554256 0.000000
0.420000 0.831384 0.000000
0.450000 0.814064 0.000000
0.455000 0.822724 0.000000
0.820000 0.831384 0.000000
0.830000 0.831384 0.000000
0.460000 0.814064 0.000000
0.465000 0.822724 0.000000
0.460000 0.831384 0.000000
0.470000 0.831384 0.000000
0.475000 0.822724 0.000000
0.480000 0.831384 0.000000
0.485000 0.822724 0.000000
0.490000 0.831384 0.000000
0.495000 0.822724 0.000000
0.500000 0.831384 0.000000
0.505000 0.822724 0.000000
0.510000 0.831384 0.000000
0.515000 0.822724 0.000000
0.520000 0.831384 0.000000
0.525000 0.822724 0.000000
0.530000 0.831384 0.000000
0.535000 0.822724 0.000000
0.540000 0.831384 0.000000
0.545000 0.822724 0.000000
0.550000 0.831384 0.000000
0.555000 0.822724 0.000000
0.560000 0.831384 0.000000
0.565000 0.822724 0.000000
0.570000 0.831384 0.000000
0.575000 0.822724 0.000000
0.580000 0.831384 0.000000
0.585000 0.822724 0.000000
0.590000 0.831384 0.000000
0.595000 0.822724 0.000000
0.600000 0.831384 0.000000
0.605000 0.822724 0.000000
0.610000 0.831384 0.000000
0.255000 0.441673 0.000000
0.250000 0.450333 0.000000
0.210000 0.640859 0.000000
0.615000 0.822724 0.000000
0.620000 0.831384 0.000000
0.155000 0.822724 0.000000
0.160000 0.831384 0.000000
0.155000 0.562917 0.000000
0.155000 0.580237 0.000000
0.155000 0.389711 0.000000
0.640000 0.225167 0.000000
0.635000 0.233827 0.000000
0.625000 0.164545 0.000000
0.635000 0.164545 0.000000
0.165000 0.164545 0.000000
0.845000 0.528275 0.000000
0.840000 0.519615 0.000000
0.155000 0.181865 0.000000
0.845000 0.251147 0.000000
0.155000 0.164545 0.000000
0.165000 0.407032 0.000000
0.155000 0.407032 0.000000
0.375000 0.337750 0.000000
0.535000 0.840045 0.000000
0.465000 0.840045 0.000000
0.575000 0.840045 0.000000
0.615000 0.840045 0.000000
0.625000 0.840045 0.000000
0.825000 0.840045 0.000000
0.835000 0.840045 0.000000
0.840000 0.831384 0.000000
0.845000 0.840045 0.000000
0.850000 0.831384 0.000000
0.150000 0.831384 0.000000
0.155000 0.840045 0.000000
0.825000 0.528275 0.000000
0.850000 0.519615 0.000000
0.845000 0.510955 0.000000
0.240000 0.450333 0.000000
0.245000 0.458993 0.000000
0.160000 0.381051 0.000000
0.150000 0.381051 0.000000
0.260000 0.450333 0.000000
0.230000 0.675500 0.000000
0.475000 0.649519 0.000000
0.625000 0.822724 0.000000
0.160000 0.554256 0.000000
0.150000 0.554256 0.000000
0.155000 0.372391 0.000000
0.515000 0.372391 0.000000
0.415000 0.476314 0.000000
0.405000 0.476314 0.000000
0.645000 0.233827 0.000000
0.640000 0.242487 0.000000
0.650000 0.225167 0.000000
0.890000 0.121244 0.000000
0.630000 0.155885 0.000000
0.640000 0.155885 0.000000
0.160000 0.155885 0.000000
0.150000 0.155885 0.000000
0.855000 0.510955 0.000000
0.850000 0.502295 0.000000
0.145000 0.372391 0.000000
0.150000 0.363731 0.000000
0.855000 0.840045 0.000000
0.145000 0.840045 0.000000
0.150000 0.848705 0.000000
0.620000 0.848705 0.000000
0.630000 0.848705 0.000000
0.840000 0.848705 0.000000
0.860000 0.502295 0.000000
0.855000 0.493634 0.000000
0.860000 0.519615 0.000000
0.140000 0.848705 0.000000
0.860000 0.831384 0.000000
0.140000 0.363731 0.000000
0.145000 0.355070 0.000000
0.140000 0.831384 0.000000
0.425000 0.337750 0.000000
0.655000 0.233827 0.000000
0.660000 0.225167 0.000000
0.845000 0.493634 0.000000
0.850000 0.484974 0.000000
0.860000 0.484974 0.000000
0.855000 0.476314 0.000000
0.155000 0.545596 0.000000
0.145000 0.545596 0.000000
0.635000 0.147224 0.000000
0.645000 0.147224 0.000000
0.155000 0.147224 0.000000
0.145000 0.147224 0.000000
0.405000 0.545596 0.000000
0.265000 0.441673 0.000000
0.270000 0.450333 0.000000
0.865000 0.216506 0.000000
0.305000 0.718801 0.000000
0.455000 0.805404 0.000000
0.275000 0.441673 0.000000
0.865000 0.476314 0.000000
0.860000 0.467654 0.000000
0.865000 0.840045 0.000000
0.135000 0.355070 0.000000
0.140000 0.346410 0.000000
0.135000 0.372391 0.000000
0.145000 0.857365 0.000000
0.155000 0.857365 0.000000
0.135000 0.857365 0.000000
0.625000 0.857365 0.000000
0.635000 0.857365 0.000000
0.280000 0.450333 0.000000
0.285000 0.441673 0.000000
0.685000 0.666840 0.000000
0.410000 0.467654 0.000000
0.665000 0.233827 0.000000
0.670000 0.225167 0.000000
0.150000 0.536936 0.000000
0.140000 0.536936 0.000000
0.135000 0.545596 0.000000
0.640000 0.138564 0.000000
0.650000 0.138564 0.000000
0.150000 0.138564 0.000000
0.160000 0.138564 0.000000
0.140000 0.138564 0.000000
0.135000 0.147224 0.000000
0.130000 0.346410 0.000000
0.135000 0.337750 0.000000
0.130000 0.536936 0.000000
0.870000 0.831384 0.000000
0.130000 0.138564 0.000000
0.870000 0.467654 0.000000
0.865000 0.458993 0.000000
0.170000 0.554256 0.000000
0.560000 0.814064 0.000000
0.840000 0.484974 0.000000
0.400000 0.311769 0.000000
0.140000 0.866025 0.000000
0.130000 0.866025 0.000000
0.630000 0.866025 0.000000
0.640000 0.866025 0.000000
0.645000 0.857365 0.000000
0.650000 0.866025 0.000000
0.655000 0.857365 0.000000
0.660000 0.866025 0.000000
0.665000 0.857365 0.000000
0.670000 0.866025 0.000000
0.125000 0.147224 0.000000
0.125000 0.545596 0.000000
0.875000 0.840045 0.000000
0.135000 0.528275 0.000000
0.815000 0.840045 0.000000
0.620000 0.814064 0.000000
0.630000 0.814064 0.000000
0.190000 0.173205 0.000000
0.510000 0.814064 0.000000
0.630000 0.242487 0.000000
0.635000 0.251147 0.000000
0.720000 0.433013 0.000000
0.460000 0.675500 0.000000
0.675000 0.233827 0.000000
0.680000 0.225167 0.000000
0.875000 0.458993 0.000000
0.870000 0.450333 0.000000
0.125000 0.528275 0.000000
0.125000 0.337750 0.000000
0.130000 0.329090 0.000000
0.400000 0.467654 0.000000
0.405000 0.458993 0.000000
0.675000 0.857365 0.000000
0.680000 0.866025 0.000000
0.860000 0.450333 0.000000
0.865000 0.441673 0.000000
0.875000 0.441673 0.000000
0.870000 0.433013 0.000000
0.645000 0.129904 0.000000
0.655000 0.129904 0.000000
0.635000 0.129904 0.000000
0.135000 0.129904 0.000000
0.125000 0.129904 0.000000
0.660000 0.138564 0.000000
0.665000 0.129904 0.000000
0.670000 0.138564 0.000000
0.675000 0.129904 0.000000
0.680000 0.138564 0.000000
0.685000 0.129904 0.000000
0.690000 0.138564 0.000000
0.695000 0.129904 0.000000
0.700000 0.138564 0.000000
0.705000 0.129904 0.000000
0.710000 0.138564 0.000000
0.715000 0.129904 0.000000
0.720000 0.138564 0.000000
0.725000 0.129904 0.000000
0.730000 0.138564 0.000000
0.735000 0.129904 0.000000
0.740000 0.138564 0.000000
0.745000 0.129904 0.000000
0.880000 0.467654 0.000000
0.880000 0.433013 0.000000
0.875000 0.424352 0.000000
0.120000 0.329090 0.000000
0.125000 0.320429 0.000000
0.880000 0.831384 0.000000
0.395000 0.458993 0.000000
0.165000 0.788083 0.000000
0.155000 0.788083 0.000000
0.130000 0.519615 0.000000
0.120000 0.519615 0.000000
0.235000 0.458993 0.000000
0.240000 0.467654 0.000000
0.625000 0.251147 0.000000
0.630000 0.259808 0.000000
0.400000 0.450333 0.000000
0.860000 0.433013 0.000000
0.135000 0.874686 0.000000
0.125000 0.874686 0.000000
0.120000 0.866025 0.000000
0.635000 0.874686 0.000000
0.675000 0.874686 0.000000
0.685000 0.874686 0.000000
0.485000 0.372391 0.000000
0.260000 0.277128 0.000000
0.740000 0.727461 0.000000
0.390000 0.450333 0.000000
0.385000 0.458993 0.000000
0.160000 0.779423 0.000000
0.150000 0.779423 0.000000
0.625000 0.805404 0.000000
0.635000 0.805404 0.000000
0.685000 0.233827 0.000000
0.730000 0.121244 0.000000
0.115000 0.320429 0.000000
0.120000 0.311769 0.000000
0.885000 0.840045 0.000000
0.880000 0.848705 0.000000
0.115000 0.874686 0.000000
0.885000 0.424352 0.000000
0.880000 0.415692 0.000000
0.885000 0.181865 0.000000
0.115000 0.337750 0.000000
0.690000 0.225167 0.000000
0.625000 0.874686 0.000000
0.395000 0.770763 0.000000
0.680000 0.242487 0.000000
0.690000 0.866025 0.000000
0.695000 0.874686 0.000000
0.670000 0.415692 0.000000
0.875000 0.822724 0.000000
0.885000 0.822724 0.000000
0.880000 0.814064 0.000000
0.240000 0.346410 0.000000
0.155000 0.770763 0.000000
0.145000 0.770763 0.000000
0.150000 0.762102 0.000000
0.140000 0.762102 0.000000
0.145000 0.753442 0.000000
0.135000 0.753442 0.000000
0.130000 0.762102 0.000000
0.125000 0.753442 0.000000
0.130000 0.744782 0.000000
0.120000 0.762102 0.000000
0.120000 0.744782 0.000000
0.125000 0.736122 0.000000
0.115000 0.736122 0.000000
0.120000 0.727461 0.000000
0.750000 0.138564 0.000000
0.755000 0.129904 0.000000
0.745000 0.147224 0.000000
0.690000 0.121244 0.000000
0.650000 0.121244 0.000000
0.130000 0.121244 0.000000
0.120000 0.121244 0.000000
0.125000 0.510955 0.000000
0.115000 0.510955 0.000000
0.145000 0.337750 0.000000
0.520000 0.277128 0.000000
0.525000 0.285788 0.000000
0.410000 0.450333 0.000000
0.400000 0.623538 0.000000
0.575000 0.441673 0.000000
0.680000 0.883346 0.000000
0.890000 0.814064 0.000000
0.885000 0.805404 0.000000
0.110000 0.727461 0.000000
0.115000 0.718801 0.000000
0.120000 0.883346 0.000000
0.110000 0.883346 0.000000
0.630000 0.883346 0.000000
0.620000 0.883346 0.000000
0.890000 0.415692 0.000000
0.885000 0.407032 0.000000
0.110000 0.866025 0.000000
0.110000 0.311769 0.000000
0.115000 0.303109 0.000000
0.890000 0.848705 0.000000
0.885000 0.857365 0.000000
0.230000 0.467654 0.000000
0.235000 0.476314 0.000000
0.395000 0.441673 0.000000
0.385000 0.441673 0.000000
0.690000 0.242487 0.000000
0.685000 0.251147 0.000000
0.120000 0.502295 0.000000
0.110000 0.502295 0.000000
0.130000 0.502295 0.000000
0.630000 0.796743 0.000000
0.640000 0.796743 0.000000
0.700000 0.866025 0.000000
0.705000 0.874686 0.000000
0.125000 0.303109 0.000000
0.120000 0.294449 0.000000
0.110000 0.294449 0.000000
0.115000 0.285788 0.000000
0.755000 0.147224 0.000000
0.750000 0.155885 0.000000
0.260000 0.363731 0.000000
0.125000 0.112583 0.000000
0.115000 0.112583 0.000000
0.105000 0.510955 0.000000
0.115000 0.493634 0.000000
0.290000 0.450333 0.000000
0.285000 0.458993 0.000000
0.895000 0.407032 0.000000
0.890000 0.398372 0.000000
0.880000 0.398372 0.000000
0.885000 0.389711 0.000000
0.875000 0.389711 0.000000
0.880000 0.381051 0.000000
0.890000 0.381051 0.000000
0.885000 0.372391 0.000000
0.105000 0.285788 0.000000
0.110000 0.277128 0.000000
0.895000 0.424352 0.000000
0.895000 0.805404 0.000000
0.890000 0.796743 0.000000
0.895000 0.372391 0.000000
0.890000 0.363731 0.000000
0.895000 0.857365 0.000000
0.890000 0.866025 0.000000
0.105000 0.493634 0.000000
0.105000 0.718801 0.000000
0.110000 0.710141 0.000000
0.235000 0.285788 0.000000
0.110000 0.484974 0.000000
0.105000 0.736122 0.000000
0.295000 0.441673 0.000000
0.495000 0.840045 0.000000
0.565000 0.199186 0.000000
0.570000 0.692820 0.000000
0.500000 0.398372 0.000000
0.370000 0.692820 0.000000
0.620000 0.259808 0.000000
0.625000 0.268468 0.000000
0.245000 0.770763 0.000000
0.645000 0.441673 0.000000
0.110000 0.121244 0.000000
0.105000 0.112583 0.000000
0.715000 0.441673 0.000000
0.725000 0.441673 0.000000
0.720000 0.450333 0.000000
0.730000 0.450333 0.000000
0.725000 0.458993 0.000000
0.735000 0.458993 0.000000
0.730000 0.467654 0.000000
0.740000 0.467654 0.000000
0.735000 0.476314 0.000000
0.725000 0.476314 0.000000
0.730000 0.484974 0.000000
0.720000 0.484974 0.000000
0.725000 0.493634 0.000000
0.715000 0.493634 0.000000
0.720000 0.502295 0.000000
0.710000 0.502295 0.000000
0.715000 0.510955 0.000000
0.705000 0.510955 0.000000
0.710000 0.519615 0.000000
0.700000 0.519615 0.000000
0.705000 0.528275 0.000000
0.695000 0.528275 0.000000
0.700000 0.536936 0.000000
0.690000 0.536936 0.000000
0.695000 0.545596 0.000000
0.685000 0.545596 0.000000
0.680000 0.536936 0.000000
0.675000 0.545596 0.000000
0.670000 0.536936 0.000000
0.665000 0.545596 0.000000
0.660000 0.536936 0.000000
0.655000 0.545596 0.000000
0.650000 0.536936 0.000000
0.645000 0.545596 0.000000
0.640000 0.536936 0.000000
0.635000 0.545596 0.000000
0.630000 0.536936 0.000000
0.625000 0.545596 0.000000
0.630000 0.554256 0.000000
0.620000 0.554256 0.000000
0.670000 0.554256 0.000000
0.620000 0.536936 0.000000
0.625000 0.562917 0.000000
0.615000 0.562917 0.000000
0.620000 0.571577 0.000000
0.610000 0.571577 0.000000
0.460000 0.502295 0.000000
0.295000 0.458993 0.000000
0.290000 0.467654 0.000000
0.350000 0.588897 0.000000
0.345000 0.580237 0.000000
0.340000 0.588897 0.000000
0.335000 0.580237 0.000000
0.330000 0.588897 0.000000
0.325000 0.580237 0.000000
0.320000 0.588897 0.000000
0.315000 0.580237 0.000000
0.310000 0.588897 0.000000
0.305000 0.580237 0.000000
0.315000 0.597558 0.000000
0.320000 0.571577 0.000000
0.305000 0.597558 0.000000
0.310000 0.606218 0.000000
0.710000 0.536936 0.000000
0.300000 0.467654 0.000000
0.295000 0.476314 0.000000
0.905000 0.095263 0.000000
0.605000 0.562917 0.000000
0.600000 0.571577 0.000000
0.595000 0.562917 0.000000
0.590000 0.571577 0.000000
0.370000 0.779423 0.000000
0.510000 0.173205 0.000000
0.500000 0.173205 0.000000
0.505000 0.164545 0.000000
0.495000 0.164545 0.000000
0.500000 0.155885 0.000000
0.490000 0.155885 0.000000
0.495000 0.147224 0.000000
0.485000 0.147224 0.000000
0.490000 0.138564 0.000000
0.480000 0.138564 0.000000
0.485000 0.129904 0.000000
0.475000 0.129904 0.000000
0.470000 0.138564 0.000000
0.465000 0.129904 0.000000
0.460000 0.138564 0.000000
0.455000 0.129904 0.000000
0.450000 0.138564 0.000000
0.445000 0.129904 0.000000
0.440000 0.138564 0.000000
0.435000 0.129904 0.000000
0.430000 0.138564 0.000000
0.425000 0.129904 0.000000
0.420000 0.138564 0.000000
0.415000 0.129904 0.000000
0.410000 0.138564 0.000000
0.405000 0.129904 0.000000
0.400000 0.138564 0.000000
0.395000 0.129904 0.000000
0.390000 0.138564 0.000000
0.385000 0.129904 0.000000
0.380000 0.138564 0.000000
0.375000 0.129904 0.000000
0.370000 0.138564 0.000000
0.375000 0.147224 0.000000
0.365000 0.129904 0.000000
0.365000 0.147224 0.000000
0.370000 0.155885 0.000000
0.495000 0.129904 0.000000
0.360000 0.155885 0.000000
0.365000 0.164545 0.000000
0.355000 0.164545 0.000000
0.360000 0.173205 0.000000
0.350000 0.173205 0.000000
0.345000 0.164545 0.000000
0.355000 0.181865 0.000000
0.340000 0.173205 0.000000
0.335000 0.164545 0.000000
0.330000 0.173205 0.000000
0.325000 0.164545 0.000000
0.450000 0.121244 0.000000
0.365000 0.181865 0.000000
0.360000 0.190526 0.000000
0.490000 0.121244 0.000000
0.500000 0.121244 0.000000
0.410000 0.121244 0.000000
0.370000 0.121244 0.000000
0.360000 0.121244 0.000000
0.320000 0.173205 0.000000
0.315000 0.164545 0.000000
0.370000 0.190526 0.000000
0.365000 0.199186 0.000000
0.495000 0.112583 0.000000
0.505000 0.112583 0.000000
0.365000 0.112583 0.000000
0.355000 0.112583 0.000000
0.425000 0.147224 0.000000
0.585000 0.562917 0.000000
0.580000 0.571577 0.000000
0.115000 0.892006 0.000000
0.105000 0.892006 0.000000
0.625000 0.892006 0.000000
0.615000 0.892006 0.000000
0.100000 0.484974 0.000000
0.105000 0.476314 0.000000
0.100000 0.710141 0.000000
0.105000 0.701481 0.000000
0.900000 0.866025 0.000000
0.895000 0.874686 0.000000
0.900000 0.363731 0.000000
0.895000 0.355070 0.000000
0.225000 0.476314 0.000000
0.230000 0.484974 0.000000
0.710000 0.866025 0.000000
0.715000 0.874686 0.000000
0.705000 0.857365 0.000000
0.710000 0.883346 0.000000
0.720000 0.883346 0.000000
0.715000 0.892006 0.000000
0.725000 0.892006 0.000000
0.305000 0.476314 0.000000
0.735000 0.493634 0.000000
0.300000 0.606218 0.000000
0.305000 0.614878 0.000000
0.310000 0.173205 0.000000
0.305000 0.164545 0.000000
0.315000 0.181865 0.000000
0.390000 0.433013 0.000000
0.380000 0.433013 0.000000
0.130000 0.294449 0.000000
0.375000 0.199186 0.000000
0.370000 0.207846 0.000000
0.760000 0.155885 0.000000
0.755000 0.164545 0.000000
0.695000 0.251147 0.000000
0.690000 0.259808 0.000000
0.870000 0.381051 0.000000
0.900000 0.155885 0.000000
0.100000 0.121244 0.000000
0.900000 0.796743 0.000000
0.895000 0.788083 0.000000
0.100000 0.277128 0.000000
0.105000 0.268468 0.000000
0.160000 0.415692 0.000000
0.725000 0.874686 0.000000
0.530000 0.277128 0.000000
0.535000 0.285788 0.000000
0.460000 0.242487 0.000000
0.885000 0.355070 0.000000
0.890000 0.346410 0.000000
0.900000 0.346410 0.000000
0.895000 0.337750 0.000000
0.575000 0.562917 0.000000
0.570000 0.571577 0.000000
0.635000 0.788083 0.000000
0.645000 0.788083 0.000000
0.625000 0.788083 0.000000
0.500000 0.103923 0.000000
0.510000 0.103923 0.000000
0.360000 0.103923 0.000000
0.350000 0.103923 0.000000
0.110000 0.103923 0.000000
0.100000 0.103923 0.000000
0.095000 0.701481 0.000000
0.100000 0.692820 0.000000
0.905000 0.337750 0.000000
0.900000 0.329090 0.000000
0.905000 0.857365 0.000000
0.905000 0.788083 0.000000
0.900000 0.779423 0.000000
0.890000 0.779423 0.000000
0.895000 0.770763 0.000000
0.885000 0.770763 0.000000
0.890000 0.762102 0.000000
0.880000 0.762102 0.000000
0.885000 0.753442 0.000000
0.895000 0.753442 0.000000
0.890000 0.744782 0.000000
0.880000 0.744782 0.000000
0.885000 0.736122 0.000000
0.875000 0.736122 0.000000
0.880000 0.727461 0.000000
0.870000 0.727461 0.000000
0.875000 0.718801 0.000000
0.885000 0.718801 0.000000
0.880000 0.710141 0.000000
0.870000 0.710141 0.000000
0.875000 0.701481 0.000000
0.885000 0.701481 0.000000
0.880000 0.692820 0.000000
0.890000 0.692820 0.000000
0.885000 0.684160 0.000000
0.865000 0.701481 0.000000
0.895000 0.684160 0.000000
0.890000 0.675500 0.000000
0.900000 0.692820 0.000000
0.900000 0.675500 0.000000
0.895000 0.666840 0.000000
0.880000 0.675500 0.000000
0.905000 0.666840 0.000000
0.900000 0.658179 0.000000
0.095000 0.268468 0.000000
0.100000 0.259808 0.000000
0.745000 0.458993 0.000000
0.750000 0.467654 0.000000
0.755000 0.458993 0.000000
0.760000 0.658179 0.000000
0.740000 0.640859 0.000000
0.465000 0.476314 0.000000
0.565000 0.562917 0.000000
0.560000 0.571577 0.000000
0.570000 0.554256 0.000000
0.095000 0.285788 0.000000
0.095000 0.476314 0.000000
0.100000 0.467654 0.000000
0.905000 0.874686 0.000000
0.900000 0.883346 0.000000
0.890000 0.883346 0.000000
0.895000 0.892006 0.000000
0.885000 0.892006 0.000000
0.905000 0.892006 0.000000
0.110000 0.900666 0.000000
0.120000 0.900666 0.000000
0.100000 0.900666 0.000000
0.095000 0.892006 0.000000
0.620000 0.900666 0.000000
0.610000 0.900666 0.000000
0.890000 0.900666 0.000000
0.880000 0.900666 0.000000
0.720000 0.900666 0.000000
0.730000 0.900666 0.000000
0.575000 0.580237 0.000000
0.300000 0.484974 0.000000
0.115000 0.701481 0.000000
0.305000 0.181865 0.000000
0.310000 0.190526 0.000000
0.615000 0.580237 0.000000
0.295000 0.614878 0.000000
0.290000 0.606218 0.000000
0.300000 0.623538 0.000000
0.765000 0.164545 0.000000
0.760000 0.173205 0.000000
0.770000 0.155885 0.000000
0.555000 0.562917 0.000000
0.550000 0.571577 0.000000
0.090000 0.259808 0.000000
0.095000 0.251147 0.000000
0.910000 0.779423 0.000000
0.220000 0.484974 0.000000
0.225000 0.493634 0.000000
0.630000 0.779423 0.000000
0.620000 0.779423 0.000000
0.115000 0.268468 0.000000
0.310000 0.484974 0.000000
0.385000 0.424352 0.000000
0.375000 0.424352 0.000000
0.395000 0.424352 0.000000
0.455000 0.233827 0.000000
0.450000 0.242487 0.000000
0.655000 0.528275 0.000000
0.700000 0.259808 0.000000
0.695000 0.268468 0.000000
0.705000 0.251147 0.000000
0.625000 0.528275 0.000000
0.090000 0.484974 0.000000
0.910000 0.796743 0.000000
0.090000 0.692820 0.000000
0.095000 0.684160 0.000000
0.090000 0.467654 0.000000
0.095000 0.458993 0.000000
0.090000 0.710141 0.000000
0.090000 0.900666 0.000000
0.910000 0.329090 0.000000
0.905000 0.320429 0.000000
0.910000 0.658179 0.000000
0.905000 0.649519 0.000000
0.895000 0.649519 0.000000
0.900000 0.640859 0.000000
0.890000 0.640859 0.000000
0.895000 0.632199 0.000000
0.905000 0.632199 0.000000
0.900000 0.623538 0.000000
0.910000 0.623538 0.000000
0.905000 0.614878 0.000000
0.130000 0.727461 0.000000
0.220000 0.710141 0.000000
0.505000 0.095263 0.000000
0.515000 0.095263 0.000000
0.520000 0.103923 0.000000
0.525000 0.095263 0.000000
0.530000 0.103923 0.000000
0.535000 0.095263 0.000000
0.540000 0.103923 0.000000
0.545000 0.095263 0.000000
0.550000 0.103923 0.000000
0.555000 0.095263 0.000000
0.355000 0.095263 0.000000
0.345000 0.095263 0.000000
0.105000 0.095263 0.000000
0.095000 0.095263 0.000000
0.215000 0.476314 0.000000
0.615000 0.268468 0.000000
0.620000 0.277128 0.000000
0.760000 0.467654 0.000000
0.765000 0.458993 0.000000
0.880000 0.346410 0.000000
0.770000 0.173205 0.000000
0.765000 0.181865 0.000000
0.545000 0.562917 0.000000
0.540000 0.571577 0.000000
0.545000 0.580237 0.000000
0.535000 0.580237 0.000000
0.530000 0.571577 0.000000
0.525000 0.580237 0.000000
0.520000 0.571577 0.000000
0.515000 0.580237 0.000000
0.510000 0.571577 0.000000
0.505000 0.580237 0.000000
0.500000 0.571577 0.000000
0.495000 0.580237 0.000000
0.490000 0.571577 0.000000
0.485000 0.580237 0.000000
0.900000 0.744782 0.000000
0.495000 0.095263 0.000000
0.625000 0.580237 0.000000
0.620000 0.588897 0.000000
0.630000 0.588897 0.000000
0.305000 0.337750 0.000000
0.715000 0.389711 0.000000
0.445000 0.649519 0.000000
0.615000 0.528275 0.000000
0.365000 0.095263 0.000000
0.530000 0.467654 0.000000
0.085000 0.458993 0.000000
0.090000 0.450333 0.000000
0.115000 0.909327 0.000000
0.125000 0.909327 0.000000
0.615000 0.909327 0.000000
0.605000 0.909327 0.000000
0.625000 0.909327 0.000000
0.725000 0.909327 0.000000
0.735000 0.909327 0.000000
0.740000 0.900666 0.000000
0.745000 0.909327 0.000000
0.750000 0.900666 0.000000
0.755000 0.909327 0.000000
0.760000 0.900666 0.000000
0.765000 0.909327 0.000000
0.885000 0.909327 0.000000
0.875000 0.909327 0.000000
0.915000 0.666840 0.000000
0.700000 0.502295 0.000000
0.085000 0.251147 0.000000
0.090000 0.242487 0.000000
0.100000 0.242487 0.000000
0.095000 0.233827 0.000000
0.085000 0.233827 0.000000
0.090000 0.225167 0.000000
0.915000 0.129904 0.000000
0.915000 0.320429 0.000000
0.910000 0.311769 0.000000
0.915000 0.614878 0.000000
0.910000 0.606218 0.000000
0.085000 0.684160 0.000000
0.090000 0.675500 0.000000
0.100000 0.675500 0.000000
0.095000 0.666840 0.000000
0.085000 0.666840 0.000000
0.090000 0.658179 0.000000
0.100000 0.658179 0.000000
0.095000 0.649519 0.000000
0.085000 0.649519 0.000000
0.090000 0.640859 0.000000
0.085000 0.892006 0.000000
0.915000 0.337750 0.000000
0.115000 0.476314 0.000000
0.770000 0.900666 0.000000
0.775000 0.909327 0.000000
0.530000 0.588897 0.000000
0.610000 0.277128 0.000000
0.615000 0.285788 0.000000
0.625000 0.285788 0.000000
0.620000 0.294449 0.000000
0.630000 0.294449 0.000000
0.625000 0.303109 0.000000
0.635000 0.303109 0.000000
0.615000 0.303109 0.000000
0.620000 0.311769 0.000000
0.610000 0.311769 0.000000
0.615000 0.320429 0.000000
0.605000 0.320429 0.000000
0.610000 0.329090 0.000000
0.620000 0.329090 0.000000
0.600000 0.329090 0.000000
0.605000 0.268468 0.000000
0.605000 0.337750 0.000000
0.595000 0.337750 0.000000
0.290000 0.433013 0.000000
0.300000 0.433013 0.000000
0.750000 0.173205 0.000000
0.705000 0.147224 0.000000
0.210000 0.484974 0.000000
0.205000 0.476314 0.000000
0.625000 0.770763 0.000000
0.615000 0.770763 0.000000
0.290000 0.623538 0.000000
0.295000 0.632199 0.000000
0.305000 0.632199 0.000000
0.300000 0.190526 0.000000
0.305000 0.199186 0.000000
0.305000 0.493634 0.000000
0.390000 0.415692 0.000000
0.400000 0.415692 0.000000
0.865000 0.736122 0.000000
0.100000 0.640859 0.000000
0.095000 0.632199 0.000000
0.085000 0.632199 0.000000
0.090000 0.623538 0.000000
0.710000 0.259808 0.000000
0.715000 0.251147 0.000000
0.560000 0.103923 0.000000
0.565000 0.095263 0.000000
0.480000 0.571577 0.000000
0.475000 0.580237 0.000000
0.900000 0.606218 0.000000
0.905000 0.597558 0.000000
0.915000 0.597558 0.000000
0.910000 0.588897 0.000000
0.900000 0.311769 0.000000
0.905000 0.303109 0.000000
0.915000 0.303109 0.000000
0.910000 0.294449 0.000000
0.780000 0.900666 0.000000
0.785000 0.909327 0.000000
0.905000 0.372391 0.000000
0.775000 0.892006 0.000000
0.600000 0.900666 0.000000
0.595000 0.909327 0.000000
0.590000 0.900666 0.000000
0.585000 0.909327 0.000000
0.580000 0.900666 0.000000
0.575000 0.909327 0.000000
0.570000 0.900666 0.000000
0.565000 0.909327 0.000000
0.560000 0.900666 0.000000
0.555000 0.909327 0.000000
0.550000 0.900666 0.000000
0.545000 0.909327 0.000000
0.540000 0.900666 0.000000
0.535000 0.909327 0.000000
0.675000 0.147224 0.000000
0.300000 0.640859 0.000000
0.310000 0.640859 0.000000
0.135000 0.112583 0.000000
0.530000 0.900666 0.000000
0.525000 0.909327 0.000000
0.315000 0.493634 0.000000
0.310000 0.155885 0.000000
0.300000 0.155885 0.000000
0.305000 0.147224 0.000000
0.295000 0.147224 0.000000
0.300000 0.138564 0.000000
0.290000 0.138564 0.000000
0.295000 0.129904 0.000000
0.285000 0.129904 0.000000
0.290000 0.121244 0.000000
0.280000 0.121244 0.000000
0.285000 0.112583 0.000000
0.275000 0.112583 0.000000
0.280000 0.138564 0.000000
0.280000 0.103923 0.000000
0.270000 0.103923 0.000000
0.265000 0.112583 0.000000
0.260000 0.103923 0.000000
0.255000 0.112583 0.000000
0.250000 0.103923 0.000000
0.275000 0.095263 0.000000
0.245000 0.112583 0.000000
0.240000 0.103923 0.000000
0.245000 0.095263 0.000000
0.235000 0.095263 0.000000
0.235000 0.112583 0.000000
0.240000 0.121244 0.000000
0.520000 0.900666 0.000000
0.515000 0.909327 0.000000
0.510000 0.900666 0.000000
0.505000 0.909327 0.000000
0.715000 0.909327 0.000000
0.295000 0.493634 0.000000
0.500000 0.346410 0.000000
0.155000 0.753442 0.000000
0.310000 0.467654 0.000000
0.790000 0.588897 0.000000
0.650000 0.796743 0.000000
0.655000 0.788083 0.000000
0.660000 0.796743 0.000000
0.665000 0.788083 0.000000
0.660000 0.779423 0.000000
0.670000 0.779423 0.000000
0.675000 0.788083 0.000000
0.665000 0.770763 0.000000
0.680000 0.779423 0.000000
0.685000 0.788083 0.000000
0.535000 0.199186 0.000000
0.445000 0.233827 0.000000
0.440000 0.242487 0.000000
0.500000 0.900666 0.000000
0.495000 0.909327 0.000000
0.295000 0.424352 0.000000
0.305000 0.424352 0.000000
0.490000 0.900666 0.000000
0.485000 0.909327 0.000000
0.480000 0.900666 0.000000
0.475000 0.909327 0.000000
0.470000 0.900666 0.000000
0.465000 0.909327 0.000000
0.460000 0.900666 0.000000
0.455000 0.909327 0.000000
0.450000 0.900666 0.000000
0.445000 0.909327 0.000000
0.440000 0.900666 0.000000
0.435000 0.909327 0.000000
0.430000 0.900666 0.000000
0.425000 0.909327 0.000000
0.420000 0.900666 0.000000
0.415000 0.909327 0.000000
0.410000 0.900666 0.000000
0.405000 0.909327 0.000000
0.400000 0.900666 0.000000
0.395000 0.909327 0.000000
0.390000 0.900666 0.000000
0.385000 0.909327 0.000000
0.380000 0.900666 0.000000
0.375000 0.909327 0.000000
0.370000 0.900666 0.000000
0.365000 0.909327 0.000000
0.360000 0.900666 0.000000
0.355000 0.909327 0.000000
0.350000 0.900666 0.000000
0.345000 0.909327 0.000000
0.340000 0.900666 0.000000
0.335000 0.909327 0.000000
0.330000 0.900666 0.000000
0.335000 0.892006 0.000000
0.325000 0.892006 0.000000
0.320000 0.900666 0.000000
0.315000 0.892006 0.000000
0.320000 0.883346 0.000000
0.310000 0.900666 0.000000
0.305000 0.892006 0.000000
0.300000 0.900666 0.000000
0.295000 0.892006 0.000000
0.290000 0.900666 0.000000
0.285000 0.892006 0.000000
0.280000 0.900666 0.000000
0.275000 0.892006 0.000000
0.270000 0.900666 0.000000
0.280000 0.883346 0.000000
0.265000 0.892006 0.000000
0.260000 0.900666 0.000000
0.255000 0.892006 0.000000
0.250000 0.900666 0.000000
0.245000 0.892006 0.000000
0.240000 0.900666 0.000000
0.365000 0.892006 0.000000
0.235000 0.892006 0.000000
0.230000 0.900666 0.000000
0.250000 0.883346 0.000000
0.245000 0.909327 0.000000
0.285000 0.909327 0.000000
0.300000 0.415692 0.000000
0.310000 0.415692 0.000000
0.275000 0.718801 0.000000
0.190000 0.381051 0.000000
0.920000 0.069282 0.000000
0.620000 0.519615 0.000000
0.610000 0.519615 0.000000
0.225000 0.892006 0.000000
0.220000 0.900666 0.000000
0.885000 0.632199 0.000000
0.550000 0.086603 0.000000
0.510000 0.086603 0.000000
0.360000 0.086603 0.000000
0.370000 0.086603 0.000000
0.240000 0.086603 0.000000
0.230000 0.086603 0.000000
0.100000 0.086603 0.000000
0.090000 0.086603 0.000000
0.085000 0.095263 0.000000
0.110000 0.086603 0.000000
0.080000 0.225167 0.000000
0.085000 0.216506 0.000000
0.080000 0.450333 0.000000
0.085000 0.441673 0.000000
0.080000 0.259808 0.000000
0.920000 0.294449 0.000000
0.915000 0.285788 0.000000
0.920000 0.588897 0.000000
0.915000 0.580237 0.000000
0.920000 0.658179 0.000000
0.080000 0.086603 0.000000
0.420000 0.917987 0.000000
0.530000 0.917987 0.000000
0.750000 0.917987 0.000000
0.780000 0.917987 0.000000
0.790000 0.917987 0.000000
0.795000 0.909327 0.000000
0.800000 0.917987 0.000000
0.805000 0.909327 0.000000
0.810000 0.917987 0.000000
0.080000 0.900666 0.000000
0.085000 0.909327 0.000000
0.080000 0.623538 0.000000
0.085000 0.614878 0.000000
0.625000 0.597558 0.000000
0.635000 0.597558 0.000000
0.105000 0.233827 0.000000
0.620000 0.762102 0.000000
0.610000 0.762102 0.000000
0.775000 0.181865 0.000000
0.770000 0.190526 0.000000
0.300000 0.502295 0.000000
0.290000 0.502295 0.000000
0.200000 0.484974 0.000000
0.195000 0.476314 0.000000
0.395000 0.407032 0.000000
0.405000 0.407032 0.000000
0.770000 0.467654 0.000000
0.775000 0.458993 0.000000
0.600000 0.346410 0.000000
0.590000 0.346410 0.000000
0.585000 0.337750 0.000000
0.690000 0.779423 0.000000
0.695000 0.788083 0.000000
0.105000 0.632199 0.000000
0.720000 0.259808 0.000000
0.725000 0.251147 0.000000
0.895000 0.303109 0.000000
0.120000 0.917987 0.000000
0.130000 0.917987 0.000000
0.340000 0.917987 0.000000
0.380000 0.917987 0.000000
0.450000 0.917987 0.000000
0.490000 0.917987 0.000000
0.560000 0.917987 0.000000
0.600000 0.917987 0.000000
0.720000 0.917987 0.000000
0.710000 0.917987 0.000000
0.880000 0.917987 0.000000
0.890000 0.917987 0.000000
0.075000 0.909327 0.000000
0.080000 0.917987 0.000000
0.530000 0.398372 0.000000
0.390000 0.571577 0.000000
0.380000 0.640859 0.000000
0.615000 0.216506 0.000000
0.510000 0.450333 0.000000
0.395000 0.510955 0.000000
0.430000 0.675500 0.000000
0.925000 0.666840 0.000000
0.075000 0.216506 0.000000
0.080000 0.207846 0.000000
0.075000 0.095263 0.000000
0.075000 0.614878 0.000000
0.080000 0.606218 0.000000
0.925000 0.285788 0.000000
0.920000 0.277128 0.000000
0.285000 0.632199 0.000000
0.295000 0.199186 0.000000
0.300000 0.207846 0.000000
0.290000 0.190526 0.000000
0.685000 0.216506 0.000000
0.695000 0.216506 0.000000
0.600000 0.311769 0.000000
0.430000 0.311769 0.000000
0.580000 0.346410 0.000000
0.090000 0.207846 0.000000
0.085000 0.199186 0.000000
0.075000 0.199186 0.000000
0.080000 0.190526 0.000000
0.090000 0.606218 0.000000
0.085000 0.597558 0.000000
0.075000 0.597558 0.000000
0.080000 0.588897 0.000000
0.570000 0.103923 0.000000
0.575000 0.095263 0.000000
0.470000 0.571577 0.000000
0.465000 0.580237 0.000000
0.895000 0.597558 0.000000
0.910000 0.277128 0.000000
0.915000 0.268468 0.000000
0.925000 0.268468 0.000000
0.920000 0.259808 0.000000
0.365000 0.077942 0.000000
0.375000 0.077942 0.000000
0.095000 0.077942 0.000000
0.075000 0.892006 0.000000
0.075000 0.441673 0.000000
0.080000 0.433013 0.000000
0.090000 0.433013 0.000000
0.085000 0.424352 0.000000
0.075000 0.424352 0.000000
0.080000 0.415692 0.000000
0.075000 0.458993 0.000000
0.925000 0.580237 0.000000
0.920000 0.571577 0.000000
0.910000 0.571577 0.000000
0.915000 0.562917 0.000000
0.925000 0.562917 0.000000
0.920000 0.554256 0.000000
0.230000 0.121244 0.000000
0.235000 0.129904 0.000000
0.295000 0.510955 0.000000
0.285000 0.510955 0.000000
0.540000 0.277128 0.000000
0.575000 0.337750 0.000000
0.220000 0.762102 0.000000
0.395000 0.892006 0.000000
0.500000 0.588897 0.000000
0.305000 0.649519 0.000000
0.315000 0.649519 0.000000
0.195000 0.407032 0.000000
0.400000 0.398372 0.000000
0.390000 0.398372 0.000000
0.410000 0.398372 0.000000
0.415000 0.407032 0.000000
0.420000 0.398372 0.000000
0.425000 0.407032 0.000000
0.370000 0.433013 0.000000
0.435000 0.233827 0.000000
0.430000 0.242487 0.000000
0.440000 0.225167 0.000000
0.535000 0.268468 0.000000
0.305000 0.407032 0.000000
0.315000 0.407032 0.000000
0.215000 0.892006 0.000000
0.210000 0.900666 0.000000
0.215000 0.909327 0.000000
0.205000 0.909327 0.000000
0.210000 0.917987 0.000000
0.200000 0.917987 0.000000
0.220000 0.883346 0.000000
0.195000 0.909327 0.000000
0.615000 0.510955 0.000000
0.605000 0.510955 0.000000
0.515000 0.562917 0.000000
0.235000 0.077942 0.000000
0.225000 0.077942 0.000000
0.220000 0.086603 0.000000
0.215000 0.077942 0.000000
0.210000 0.086603 0.000000
0.205000 0.077942 0.000000
0.200000 0.086603 0.000000
0.195000 0.077942 0.000000
0.070000 0.225167 0.000000
0.070000 0.190526 0.000000
0.075000 0.181865 0.000000
0.815000 0.909327 0.000000
0.820000 0.917987 0.000000
0.545000 0.268468 0.000000
0.455000 0.147224 0.000000
0.530000 0.294449 0.000000
0.285000 0.095263 0.000000
0.280000 0.086603 0.000000
0.290000 0.086603 0.000000
0.285000 0.077942 0.000000
0.295000 0.077942 0.000000
0.870000 0.900666 0.000000
0.360000 0.207846 0.000000
0.365000 0.216506 0.000000
0.355000 0.216506 0.000000
0.360000 0.225167 0.000000
0.350000 0.225167 0.000000
0.355000 0.233827 0.000000
0.345000 0.233827 0.000000
0.350000 0.242487 0.000000
0.340000 0.242487 0.000000
0.360000 0.242487 0.000000
0.190000 0.917987 0.000000
0.930000 0.259808 0.000000
0.925000 0.251147 0.000000
0.070000 0.588897 0.000000
0.075000 0.580237 0.000000
0.930000 0.658179 0.000000
0.930000 0.588897 0.000000
0.205000 0.926647 0.000000
0.785000 0.926647 0.000000
0.815000 0.926647 0.000000
0.825000 0.926647 0.000000
0.885000 0.926647 0.000000
0.895000 0.926647 0.000000
0.070000 0.086603 0.000000
0.070000 0.623538 0.000000
0.930000 0.103923 0.000000
0.930000 0.554256 0.000000
0.925000 0.545596 0.000000
0.930000 0.294449 0.000000
0.070000 0.415692 0.000000
0.075000 0.407032 0.000000
0.070000 0.917987 0.000000
0.075000 0.926647 0.000000
0.125000 0.926647 0.000000
0.135000 0.926647 0.000000
0.715000 0.926647 0.000000
0.705000 0.926647 0.000000
0.630000 0.606218 0.000000
0.640000 0.606218 0.000000
0.620000 0.606218 0.000000
0.090000 0.415692 0.000000
0.615000 0.753442 0.000000
0.605000 0.753442 0.000000
0.600000 0.762102 0.000000
0.595000 0.753442 0.000000
0.590000 0.762102 0.000000
0.585000 0.753442 0.000000
0.580000 0.762102 0.000000
0.575000 0.753442 0.000000
0.570000 0.762102 0.000000
0.565000 0.753442 0.000000
0.560000 0.762102 0.000000
0.555000 0.753442 0.000000
0.550000 0.762102 0.000000
0.545000 0.753442 0.000000
0.540000 0.762102 0.000000
0.535000 0.753442 0.000000
0.530000 0.762102 0.000000
0.525000 0.753442 0.000000
0.520000 0.762102 0.000000
0.515000 0.753442 0.000000
0.510000 0.762102 0.000000
0.505000 0.753442 0.000000
0.285000 0.199186 0.000000
0.280000 0.190526 0.000000
0.690000 0.207846 0.000000
0.290000 0.519615 0.000000
0.280000 0.519615 0.000000
0.300000 0.519615 0.000000
0.190000 0.484974 0.000000
0.185000 0.476314 0.000000
0.195000 0.493634 0.000000
0.345000 0.251147 0.000000
0.335000 0.251147 0.000000
0.780000 0.190526 0.000000
0.775000 0.199186 0.000000
0.785000 0.181865 0.000000
0.765000 0.199186 0.000000
0.770000 0.207846 0.000000
0.445000 0.251147 0.000000
0.150000 0.415692 0.000000
0.155000 0.424352 0.000000
0.690000 0.796743 0.000000
0.700000 0.796743 0.000000
0.380000 0.190526 0.000000
0.435000 0.892006 0.000000
0.780000 0.467654 0.000000
0.785000 0.458993 0.000000
0.775000 0.476314 0.000000
0.780000 0.450333 0.000000
0.790000 0.450333 0.000000
0.785000 0.441673 0.000000
0.795000 0.441673 0.000000
0.790000 0.433013 0.000000
0.800000 0.433013 0.000000
0.795000 0.424352 0.000000
0.805000 0.424352 0.000000
0.800000 0.415692 0.000000
0.810000 0.415692 0.000000
0.805000 0.407032 0.000000
0.555000 0.112583 0.000000
0.595000 0.355070 0.000000
0.605000 0.355070 0.000000
0.700000 0.779423 0.000000
0.695000 0.770763 0.000000
0.730000 0.259808 0.000000
0.725000 0.268468 0.000000
0.095000 0.597558 0.000000
0.095000 0.199186 0.000000
0.500000 0.762102 0.000000
0.495000 0.753442 0.000000
0.905000 0.562917 0.000000
0.475000 0.562917 0.000000
0.465000 0.562917 0.000000
0.910000 0.259808 0.000000
0.220000 0.069282 0.000000
0.065000 0.407032 0.000000
0.070000 0.398372 0.000000
0.470000 0.588897 0.000000
0.460000 0.588897 0.000000
0.500000 0.744782 0.000000
0.490000 0.744782 0.000000
0.485000 0.753442 0.000000
0.480000 0.744782 0.000000
0.475000 0.753442 0.000000
0.470000 0.744782 0.000000
0.465000 0.753442 0.000000
0.460000 0.744782 0.000000
0.475000 0.736122 0.000000
0.455000 0.753442 0.000000
0.450000 0.744782 0.000000
0.700000 0.207846 0.000000
0.625000 0.753442 0.000000
0.810000 0.900666 0.000000
0.190000 0.467654 0.000000
0.310000 0.658179 0.000000
0.300000 0.658179 0.000000
0.145000 0.788083 0.000000
0.280000 0.744782 0.000000
0.170000 0.831384 0.000000
0.545000 0.285788 0.000000
0.640000 0.294449 0.000000
0.645000 0.303109 0.000000
0.420000 0.519615 0.000000
0.640000 0.173205 0.000000
0.795000 0.632199 0.000000
0.805000 0.632199 0.000000
0.800000 0.640859 0.000000
0.810000 0.640859 0.000000
0.805000 0.649519 0.000000
0.815000 0.649519 0.000000
0.810000 0.658179 0.000000
0.820000 0.640859 0.000000
0.820000 0.658179 0.000000
0.815000 0.666840 0.000000
0.320000 0.658179 0.000000
0.335000 0.718801 0.000000
0.570000 0.346410 0.000000
0.620000 0.155885 0.000000
0.430000 0.225167 0.000000
0.435000 0.216506 0.000000
0.540000 0.259808 0.000000
0.550000 0.259808 0.000000
0.875000 0.770763 0.000000
0.430000 0.398372 0.000000
0.435000 0.407032 0.000000
0.190000 0.086603 0.000000
0.185000 0.077942 0.000000
0.190000 0.069282 0.000000
0.180000 0.069282 0.000000
0.310000 0.398372 0.000000
0.320000 0.398372 0.000000
0.185000 0.909327 0.000000
0.195000 0.095263 0.000000
0.610000 0.502295 0.000000
0.620000 0.502295 0.000000
0.600000 0.502295 0.000000
0.210000 0.883346 0.000000
0.215000 0.874686 0.000000
0.580000 0.103923 0.000000
0.585000 0.095263 0.000000
0.580000 0.086603 0.000000
0.590000 0.086603 0.000000
0.585000 0.077942 0.000000
0.595000 0.077942 0.000000
0.865000 0.389711 0.000000
0.860000 0.381051 0.000000
0.590000 0.069282 0.000000
0.600000 0.069282 0.000000
0.605000 0.077942 0.000000
0.610000 0.069282 0.000000
0.370000 0.069282 0.000000
0.380000 0.069282 0.000000
0.360000 0.069282 0.000000
0.290000 0.069282 0.000000
0.300000 0.069282 0.000000
0.935000 0.545596 0.000000
0.930000 0.536936 0.000000
0.920000 0.536936 0.000000
0.925000 0.528275 0.000000
0.935000 0.528275 0.000000
0.930000 0.519615 0.000000
0.920000 0.519615 0.000000
0.925000 0.510955 0.000000
0.935000 0.510955 0.000000
0.930000 0.502295 0.000000
0.935000 0.666840 0.000000
0.065000 0.926647 0.000000
0.065000 0.181865 0.000000
0.070000 0.173205 0.000000
0.935000 0.251147 0.000000
0.930000 0.242487 0.000000
0.065000 0.095263 0.000000
0.065000 0.580237 0.000000
0.070000 0.571577 0.000000
0.625000 0.614878 0.000000
0.615000 0.614878 0.000000
0.735000 0.251147 0.000000
0.550000 0.744782 0.000000
0.790000 0.190526 0.000000
0.795000 0.181865 0.000000
0.620000 0.744782 0.000000
0.630000 0.744782 0.000000
0.225000 0.129904 0.000000
0.230000 0.138564 0.000000
0.395000 0.389711 0.000000
0.385000 0.389711 0.000000
0.185000 0.493634 0.000000
0.190000 0.502295 0.000000
0.285000 0.528275 0.000000
0.275000 0.528275 0.000000
0.315000 0.424352 0.000000
0.555000 0.892006 0.000000
0.275000 0.199186 0.000000
0.270000 0.190526 0.000000
0.565000 0.337750 0.000000
0.340000 0.259808 0.000000
0.330000 0.259808 0.000000
0.785000 0.476314 0.000000
0.780000 0.484974 0.000000
0.295000 0.407032 0.000000
0.515000 0.892006 0.000000
0.145000 0.424352 0.000000
0.150000 0.433013 0.000000
0.375000 0.216506 0.000000
0.600000 0.363731 0.000000
0.610000 0.363731 0.000000
0.705000 0.770763 0.000000
0.700000 0.762102 0.000000
0.735000 0.268468 0.000000
0.730000 0.277128 0.000000
0.805000 0.441673 0.000000
0.615000 0.077942 0.000000
0.620000 0.069282 0.000000
0.915000 0.510955 0.000000
0.070000 0.935307 0.000000
0.060000 0.935307 0.000000
0.130000 0.935307 0.000000
0.140000 0.935307 0.000000
0.710000 0.935307 0.000000
0.700000 0.935307 0.000000
0.820000 0.935307 0.000000
0.830000 0.935307 0.000000
0.890000 0.935307 0.000000
0.900000 0.935307 0.000000
0.060000 0.086603 0.000000
0.065000 0.077942 0.000000
0.060000 0.917987 0.000000
0.940000 0.658179 0.000000
0.760000 0.207846 0.000000
0.765000 0.216506 0.000000
0.140000 0.415692 0.000000
0.325000 0.251147 0.000000
0.320000 0.259808 0.000000
0.315000 0.251147 0.000000
0.820000 0.900666 0.000000
0.805000 0.666840 0.000000
0.810000 0.675500 0.000000
0.800000 0.675500 0.000000
0.805000 0.684160 0.000000
0.730000 0.242487 0.000000
0.645000 0.597558 0.000000
0.650000 0.606218 0.000000
0.280000 0.536936 0.000000
0.270000 0.536936 0.000000
0.655000 0.597558 0.000000
0.660000 0.606218 0.000000
0.665000 0.597558 0.000000
0.670000 0.606218 0.000000
0.675000 0.597558 0.000000
0.680000 0.606218 0.000000
0.685000 0.597558 0.000000
0.690000 0.606218 0.000000
0.695000 0.597558 0.000000
0.665000 0.614878 0.000000
0.790000 0.484974 0.000000
0.785000 0.493634 0.000000
0.595000 0.510955 0.000000
0.590000 0.502295 0.000000
0.595000 0.493634 0.000000
0.585000 0.493634 0.000000
0.580000 0.502295 0.000000
0.385000 0.077942 0.000000
0.390000 0.069282 0.000000
0.395000 0.077942 0.000000
0.400000 0.069282 0.000000
0.405000 0.077942 0.000000
0.410000 0.069282 0.000000
0.415000 0.077942 0.000000
0.420000 0.069282 0.000000
0.080000 0.935307 0.000000
0.275000 0.545596 0.000000
0.265000 0.545596 0.000000
0.270000 0.554256 0.000000
0.260000 0.554256 0.000000
0.255000 0.545596 0.000000
0.250000 0.554256 0.000000
0.245000 0.545596 0.000000
0.255000 0.562917 0.000000
0.240000 0.554256 0.000000
0.235000 0.545596 0.000000
0.425000 0.077942 0.000000
0.430000 0.069282 0.000000
0.880000 0.935307 0.000000
0.695000 0.926647 0.000000
0.690000 0.935307 0.000000
0.685000 0.926647 0.000000
0.680000 0.935307 0.000000
0.625000 0.077942 0.000000
0.630000 0.069282 0.000000
0.635000 0.077942 0.000000
0.640000 0.069282 0.000000
0.645000 0.077942 0.000000
0.650000 0.069282 0.000000
0.655000 0.077942 0.000000
0.660000 0.069282 0.000000
0.280000 0.069282 0.000000
0.435000 0.077942 0.000000
0.440000 0.069282 0.000000
0.665000 0.077942 0.000000
0.670000 0.069282 0.000000
0.675000 0.077942 0.000000
0.680000 0.069282 0.000000
0.685000 0.077942 0.000000
0.690000 0.069282 0.000000
0.695000 0.077942 0.000000
0.700000 0.069282 0.000000
0.705000 0.077942 0.000000
0.710000 0.069282 0.000000
0.715000 0.077942 0.000000
0.720000 0.069282 0.000000
0.725000 0.077942 0.000000
0.730000 0.069282 0.000000
0.735000 0.077942 0.000000
0.740000 0.069282 0.000000
0.745000 0.077942 0.000000
0.750000 0.069282 0.000000
0.755000 0.077942 0.000000
0.760000 0.069282 0.000000
0.765000 0.077942 0.000000
0.770000 0.069282 0.000000
0.775000 0.077942 0.000000
0.780000 0.069282 0.000000
0.785000 0.077942 0.000000
0.790000 0.069282 0.000000
0.795000 0.077942 0.000000
0.800000 0.069282 0.000000
0.805000 0.077942 0.000000
0.800000 0.086603 0.000000
0.810000 0.086603 0.000000
0.815000 0.077942 0.000000
0.805000 0.095263 0.000000
0.815000 0.095263 0.000000
0.810000 0.103923 0.000000
0.820000 0.103923 0.000000
0.815000 0.112583 0.000000
0.825000 0.112583 0.000000
0.830000 0.103923 0.000000
0.820000 0.121244 0.000000
0.835000 0.112583 0.000000
0.840000 0.103923 0.000000
0.060000 0.190526 0.000000
0.940000 0.259808 0.000000
0.940000 0.502295 0.000000
0.935000 0.493634 0.000000
0.060000 0.571577 0.000000
0.065000 0.562917 0.000000
0.060000 0.588897 0.000000
0.940000 0.242487 0.000000
0.935000 0.233827 0.000000
0.925000 0.233827 0.000000
0.930000 0.225167 0.000000
0.920000 0.225167 0.000000
0.925000 0.216506 0.000000
0.935000 0.216506 0.000000
0.930000 0.207846 0.000000
0.940000 0.207846 0.000000
0.935000 0.199186 0.000000
0.060000 0.173205 0.000000
0.065000 0.164545 0.000000
0.060000 0.415692 0.000000
0.060000 0.398372 0.000000
0.065000 0.389711 0.000000
0.075000 0.389711 0.000000
0.070000 0.381051 0.000000
0.080000 0.381051 0.000000
0.075000 0.372391 0.000000
0.065000 0.372391 0.000000
0.070000 0.363731 0.000000
0.060000 0.363731 0.000000
0.065000 0.355070 0.000000
0.940000 0.554256 0.000000
0.465000 0.597558 0.000000
0.455000 0.597558 0.000000
0.450000 0.588897 0.000000
0.805000 0.112583 0.000000
0.700000 0.606218 0.000000
0.705000 0.597558 0.000000
0.230000 0.554256 0.000000
0.225000 0.545596 0.000000
0.590000 0.744782 0.000000
0.695000 0.199186 0.000000
0.445000 0.077942 0.000000
0.450000 0.069282 0.000000
0.310000 0.259808 0.000000
0.305000 0.251147 0.000000
0.585000 0.892006 0.000000
0.315000 0.666840 0.000000
0.325000 0.649519 0.000000
0.475000 0.892006 0.000000
0.680000 0.259808 0.000000
0.330000 0.658179 0.000000
0.695000 0.805404 0.000000
0.705000 0.805404 0.000000
0.670000 0.848705 0.000000
0.500000 0.225167 0.000000
0.545000 0.251147 0.000000
0.555000 0.251147 0.000000
0.185000 0.095263 0.000000
0.190000 0.103923 0.000000
0.675000 0.926647 0.000000
0.670000 0.935307 0.000000
0.315000 0.389711 0.000000
0.325000 0.389711 0.000000
0.445000 0.753442 0.000000
0.440000 0.744782 0.000000
0.445000 0.736122 0.000000
0.695000 0.614878 0.000000
0.825000 0.666840 0.000000
0.075000 0.562917 0.000000
0.070000 0.554256 0.000000
0.060000 0.554256 0.000000
0.065000 0.545596 0.000000
0.775000 0.216506 0.000000
0.770000 0.225167 0.000000
0.205000 0.874686 0.000000
0.075000 0.164545 0.000000
0.070000 0.155885 0.000000
0.060000 0.155885 0.000000
0.785000 0.060622 0.000000
0.755000 0.060622 0.000000
0.725000 0.060622 0.000000
0.685000 0.060622 0.000000
0.470000 0.554256 0.000000
0.460000 0.554256 0.000000
0.645000 0.060622 0.000000
0.605000 0.060622 0.000000
0.445000 0.060622 0.000000
0.455000 0.060622 0.000000
0.405000 0.060622 0.000000
0.365000 0.060622 0.000000
0.355000 0.060622 0.000000
0.295000 0.060622 0.000000
0.305000 0.060622 0.000000
0.185000 0.060622 0.000000
0.175000 0.060622 0.000000
0.170000 0.069282 0.000000
0.165000 0.060622 0.000000
0.160000 0.069282 0.000000
0.155000 0.060622 0.000000
0.945000 0.199186 0.000000
0.940000 0.190526 0.000000
0.435000 0.736122 0.000000
0.440000 0.727461 0.000000
0.705000 0.199186 0.000000
0.065000 0.147224 0.000000
0.620000 0.623538 0.000000
0.610000 0.623538 0.000000
0.330000 0.398372 0.000000
0.335000 0.389711 0.000000
0.815000 0.892006 0.000000
0.825000 0.892006 0.000000
0.140000 0.433013 0.000000
0.145000 0.441673 0.000000
0.445000 0.597558 0.000000
0.440000 0.588897 0.000000
0.425000 0.389711 0.000000
0.435000 0.389711 0.000000
0.240000 0.484974 0.000000
0.305000 0.129904 0.000000
0.685000 0.199186 0.000000
0.560000 0.346410 0.000000
0.565000 0.355070 0.000000
0.555000 0.337750 0.000000
0.210000 0.866025 0.000000
0.425000 0.216506 0.000000
0.430000 0.207846 0.000000
0.800000 0.190526 0.000000
0.805000 0.181865 0.000000
0.605000 0.372391 0.000000
0.615000 0.372391 0.000000
0.590000 0.814064 0.000000
0.575000 0.493634 0.000000
0.570000 0.502295 0.000000
0.590000 0.103923 0.000000
0.585000 0.112583 0.000000
0.535000 0.770763 0.000000
0.855000 0.389711 0.000000
0.850000 0.381051 0.000000
0.720000 0.935307 0.000000
0.905000 0.926647 0.000000
0.910000 0.935307 0.000000
0.915000 0.926647 0.000000
0.920000 0.935307 0.000000
0.925000 0.926647 0.000000
0.930000 0.935307 0.000000
0.935000 0.926647 0.000000
0.940000 0.935307 0.000000
0.800000 0.173205 0.000000
0.810000 0.173205 0.000000
0.880000 0.640859 0.000000
0.875000 0.632199 0.000000
0.870000 0.640859 0.000000
0.865000 0.632199 0.000000
0.475000 0.268468 0.000000
0.080000 0.883346 0.000000
0.070000 0.883346 0.000000
0.075000 0.874686 0.000000
0.065000 0.874686 0.000000
0.070000 0.866025 0.000000
0.060000 0.866025 0.000000
0.065000 0.857365 0.000000
0.220000 0.866025 0.000000
0.165000 0.424352 0.000000
0.875000 0.805404 0.000000
0.600000 0.277128 0.000000
0.060000 0.883346 0.000000
0.595000 0.372391 0.000000
0.620000 0.363731 0.000000
0.625000 0.372391 0.000000
0.630000 0.363731 0.000000
0.635000 0.372391 0.000000
0.640000 0.363731 0.000000
0.645000 0.372391 0.000000
0.650000 0.363731 0.000000
0.655000 0.372391 0.000000
0.660000 0.363731 0.000000
0.665000 0.372391 0.000000
0.670000 0.363731 0.000000
0.665000 0.355070 0.000000
0.675000 0.355070 0.000000
0.670000 0.346410 0.000000
0.680000 0.346410 0.000000
0.675000 0.337750 0.000000
0.685000 0.337750 0.000000
0.680000 0.329090 0.000000
0.690000 0.329090 0.000000
0.695000 0.337750 0.000000
0.700000 0.329090 0.000000
0.685000 0.320429 0.000000
0.485000 0.164545 0.000000
0.225000 0.424352 0.000000
0.930000 0.675500 0.000000
0.940000 0.675500 0.000000
0.935000 0.684160 0.000000
0.570000 0.329090 0.000000
0.580000 0.069282 0.000000
0.500000 0.311769 0.000000
0.510000 0.155885 0.000000
0.760000 0.606218 0.000000
0.160000 0.363731 0.000000
0.135000 0.909327 0.000000
0.245000 0.701481 0.000000
0.215000 0.926647 0.000000
0.210000 0.935307 0.000000
0.220000 0.935307 0.000000
0.945000 0.684160 0.000000
0.940000 0.692820 0.000000
0.055000 0.545596 0.000000
0.060000 0.536936 0.000000
0.055000 0.147224 0.000000
0.945000 0.077942 0.000000
0.055000 0.077942 0.000000
0.060000 0.069282 0.000000
0.215000 0.943968 0.000000
0.225000 0.943968 0.000000
0.205000 0.943968 0.000000
0.685000 0.943968 0.000000
0.075000 0.943968 0.000000
0.085000 0.943968 0.000000
0.135000 0.943968 0.000000
0.145000 0.943968 0.000000
0.885000 0.943968 0.000000
0.875000 0.943968 0.000000
0.925000 0.943968 0.000000
0.055000 0.857365 0.000000
0.060000 0.848705 0.000000
0.070000 0.848705 0.000000
0.065000 0.840045 0.000000
0.075000 0.840045 0.000000
0.070000 0.831384 0.000000
0.080000 0.831384 0.000000
0.075000 0.822724 0.000000
0.085000 0.822724 0.000000
0.080000 0.814064 0.000000
0.070000 0.814064 0.000000
0.075000 0.805404 0.000000
0.090000 0.814064 0.000000
0.065000 0.805404 0.000000
0.070000 0.796743 0.000000
0.060000 0.796743 0.000000
0.065000 0.788083 0.000000
0.055000 0.840045 0.000000
0.075000 0.788083 0.000000
0.070000 0.779423 0.000000
0.060000 0.779423 0.000000
0.065000 0.770763 0.000000
0.055000 0.770763 0.000000
0.060000 0.762102 0.000000
0.945000 0.926647 0.000000
0.940000 0.917987 0.000000
0.945000 0.493634 0.000000
0.940000 0.484974 0.000000
0.930000 0.484974 0.000000
0.935000 0.476314 0.000000
0.945000 0.476314 0.000000
0.940000 0.467654 0.000000
0.930000 0.467654 0.000000
0.935000 0.458993 0.000000
0.945000 0.458993 0.000000
0.940000 0.450333 0.000000
0.055000 0.805404 0.000000
0.055000 0.095263 0.000000
0.055000 0.355070 0.000000
0.060000 0.346410 0.000000
0.750000 0.606218 0.000000
0.755000 0.597558 0.000000
0.460000 0.606218 0.000000
0.470000 0.606218 0.000000
0.085000 0.372391 0.000000
0.090000 0.381051 0.000000
0.220000 0.554256 0.000000
0.225000 0.562917 0.000000
0.215000 0.545596 0.000000
0.180000 0.502295 0.000000
0.185000 0.510955 0.000000
0.335000 0.268468 0.000000
0.345000 0.268468 0.000000
0.075000 0.770763 0.000000
0.625000 0.736122 0.000000
0.635000 0.736122 0.000000
0.795000 0.407032 0.000000
0.800000 0.398372 0.000000
0.220000 0.138564 0.000000
0.225000 0.147224 0.000000
0.235000 0.147224 0.000000
0.230000 0.155885 0.000000
0.710000 0.762102 0.000000
0.705000 0.753442 0.000000
0.715000 0.770763 0.000000
0.695000 0.753442 0.000000
0.700000 0.744782 0.000000
0.690000 0.744782 0.000000
0.695000 0.736122 0.000000
0.685000 0.736122 0.000000
0.095000 0.822724 0.000000
0.100000 0.814064 0.000000
0.690000 0.190526 0.000000
0.390000 0.381051 0.000000
0.380000 0.381051 0.000000
0.795000 0.684160 0.000000
0.800000 0.692820 0.000000
0.810000 0.692820 0.000000
0.805000 0.701481 0.000000
0.815000 0.701481 0.000000
0.810000 0.710141 0.000000
0.820000 0.710141 0.000000
0.815000 0.718801 0.000000
0.770000 0.086603 0.000000
0.780000 0.433013 0.000000
0.240000 0.155885 0.000000
0.265000 0.199186 0.000000
0.270000 0.207846 0.000000
0.335000 0.649519 0.000000
0.605000 0.614878 0.000000
0.600000 0.623538 0.000000
0.650000 0.294449 0.000000
0.270000 0.519615 0.000000
0.440000 0.207846 0.000000
0.435000 0.199186 0.000000
0.240000 0.536936 0.000000
0.705000 0.337750 0.000000
0.710000 0.329090 0.000000
0.340000 0.658179 0.000000
0.350000 0.121244 0.000000
0.805000 0.164545 0.000000
0.815000 0.164545 0.000000
0.300000 0.086603 0.000000
0.550000 0.242487 0.000000
0.560000 0.242487 0.000000
0.250000 0.415692 0.000000
0.235000 0.164545 0.000000
0.070000 0.346410 0.000000
0.065000 0.337750 0.000000
0.055000 0.337750 0.000000
0.060000 0.329090 0.000000
0.075000 0.545596 0.000000
0.425000 0.199186 0.000000
0.795000 0.493634 0.000000
0.790000 0.502295 0.000000
0.780000 0.502295 0.000000
0.785000 0.510955 0.000000
0.775000 0.510955 0.000000
0.780000 0.519615 0.000000
0.770000 0.519615 0.000000
0.775000 0.528275 0.000000
0.765000 0.528275 0.000000
0.770000 0.536936 0.000000
0.760000 0.536936 0.000000
0.765000 0.545596 0.000000
0.755000 0.545596 0.000000
0.320000 0.381051 0.000000
0.310000 0.381051 0.000000
0.740000 0.277128 0.000000
0.735000 0.285788 0.000000
0.725000 0.285788 0.000000
0.575000 0.770763 0.000000
0.590000 0.484974 0.000000
0.620000 0.086603 0.000000
0.200000 0.866025 0.000000
0.780000 0.225167 0.000000
0.775000 0.233827 0.000000
0.845000 0.112583 0.000000
0.850000 0.103923 0.000000
0.845000 0.095263 0.000000
0.855000 0.095263 0.000000
0.850000 0.086603 0.000000
0.860000 0.086603 0.000000
0.855000 0.077942 0.000000
0.865000 0.077942 0.000000
0.860000 0.069282 0.000000
0.870000 0.069282 0.000000
0.865000 0.060622 0.000000
0.855000 0.060622 0.000000
0.875000 0.060622 0.000000
0.470000 0.762102 0.000000
0.925000 0.458993 0.000000
0.915000 0.216506 0.000000
0.910000 0.225167 0.000000
0.450000 0.051962 0.000000
0.460000 0.051962 0.000000
0.465000 0.060622 0.000000
0.470000 0.051962 0.000000
0.930000 0.190526 0.000000
0.935000 0.181865 0.000000
0.945000 0.181865 0.000000
0.940000 0.173205 0.000000
0.715000 0.943968 0.000000
0.725000 0.943968 0.000000
0.825000 0.943968 0.000000
0.815000 0.943968 0.000000
0.050000 0.536936 0.000000
0.055000 0.528275 0.000000
0.050000 0.762102 0.000000
0.055000 0.753442 0.000000
0.950000 0.207846 0.000000
0.950000 0.935307 0.000000
0.950000 0.173205 0.000000
0.945000 0.164545 0.000000
0.050000 0.363731 0.000000
0.950000 0.450333 0.000000
0.945000 0.441673 0.000000
0.950000 0.502295 0.000000
0.950000 0.917987 0.000000
0.945000 0.909327 0.000000
0.050000 0.329090 0.000000
0.055000 0.320429 0.000000
0.065000 0.320429 0.000000
0.060000 0.311769 0.000000
0.050000 0.069282 0.000000
0.055000 0.060622 0.000000
0.065000 0.060622 0.000000
0.950000 0.692820 0.000000
0.945000 0.701481 0.000000
0.710000 0.606218 0.000000
0.745000 0.597558 0.000000
0.910000 0.519615 0.000000
0.905000 0.510955 0.000000
0.435000 0.597558 0.000000
0.770000 0.779423 0.000000
0.080000 0.155885 0.000000
0.375000 0.389711 0.000000
0.365000 0.424352 0.000000
0.360000 0.433013 0.000000
0.430000 0.727461 0.000000
0.425000 0.736122 0.000000
0.435000 0.718801 0.000000
0.445000 0.718801 0.000000
0.080000 0.692820 0.000000
0.790000 0.398372 0.000000
0.795000 0.389711 0.000000
0.805000 0.389711 0.000000
0.800000 0.381051 0.000000
0.300000 0.259808 0.000000
0.295000 0.251147 0.000000
0.305000 0.268468 0.000000
0.935000 0.701481 0.000000
0.940000 0.710141 0.000000
0.930000 0.710141 0.000000
0.935000 0.718801 0.000000
0.945000 0.718801 0.000000
0.940000 0.727461 0.000000
0.950000 0.727461 0.000000
0.945000 0.736122 0.000000
0.070000 0.103923 0.000000
0.805000 0.718801 0.000000
0.810000 0.727461 0.000000
0.820000 0.727461 0.000000
0.815000 0.736122 0.000000
0.370000 0.381051 0.000000
0.835000 0.926647 0.000000
0.525000 0.112583 0.000000
0.820000 0.883346 0.000000
0.065000 0.753442 0.000000
0.060000 0.744782 0.000000
0.205000 0.233827 0.000000
0.830000 0.883346 0.000000
0.195000 0.874686 0.000000
0.625000 0.060622 0.000000
0.490000 0.814064 0.000000
0.455000 0.077942 0.000000
0.210000 0.779423 0.000000
0.835000 0.216506 0.000000
0.715000 0.857365 0.000000
0.145000 0.874686 0.000000
0.750000 0.536936 0.000000
0.745000 0.545596 0.000000
0.395000 0.822724 0.000000
0.580000 0.917987 0.000000
0.180000 0.467654 0.000000
0.175000 0.476314 0.000000
0.390000 0.121244 0.000000
0.485000 0.112583 0.000000
0.370000 0.554256 0.000000
0.470000 0.917987 0.000000
0.205000 0.857365 0.000000
0.615000 0.874686 0.000000
0.105000 0.458993 0.000000
0.200000 0.623538 0.000000
0.210000 0.467654 0.000000
0.855000 0.372391 0.000000
0.845000 0.372391 0.000000
0.850000 0.363731 0.000000
0.840000 0.363731 0.000000
0.845000 0.355070 0.000000
0.835000 0.355070 0.000000
0.840000 0.346410 0.000000
0.700000 0.692820 0.000000
0.310000 0.069282 0.000000
0.315000 0.060622 0.000000
0.705000 0.320429 0.000000
0.715000 0.320429 0.000000
0.805000 0.822724 0.000000
0.810000 0.606218 0.000000
0.430000 0.381051 0.000000
0.440000 0.381051 0.000000
0.315000 0.614878 0.000000
0.210000 0.381051 0.000000
0.620000 0.692820 0.000000
0.130000 0.155885 0.000000
0.665000 0.666840 0.000000
0.185000 0.458993 0.000000
0.430000 0.190526 0.000000
0.440000 0.190526 0.000000
0.730000 0.433013 0.000000
0.835000 0.510955 0.000000
0.815000 0.424352 0.000000
0.635000 0.580237 0.000000
0.425000 0.805404 0.000000
0.170000 0.623538 0.000000
0.730000 0.710141 0.000000
0.815000 0.545596 0.000000
0.385000 0.060622 0.000000
0.570000 0.744782 0.000000
0.700000 0.346410 0.000000
0.750000 0.692820 0.000000
0.425000 0.060622 0.000000
0.845000 0.822724 0.000000
0.445000 0.476314 0.000000
0.220000 0.658179 0.000000
0.870000 0.623538 0.000000
0.860000 0.623538 0.000000
0.865000 0.614878 0.000000
0.380000 0.727461 0.000000
0.285000 0.545596 0.000000
0.615000 0.251147 0.000000
0.615000 0.666840 0.000000
0.540000 0.242487 0.000000
0.530000 0.259808 0.000000
0.815000 0.788083 0.000000
0.825000 0.788083 0.000000
0.595000 0.614878 0.000000
0.590000 0.623538 0.000000
0.585000 0.614878 0.000000
0.580000 0.623538 0.000000
0.575000 0.614878 0.000000
0.570000 0.623538 0.000000
0.495000 0.892006 0.000000
0.495000 0.562917 0.000000
0.560000 0.259808 0.000000
0.660000 0.692820 0.000000
0.220000 0.536936 0.000000
0.700000 0.588897 0.000000
0.710000 0.588897 0.000000
0.350000 0.207846 0.000000
0.210000 0.554256 0.000000
0.615000 0.493634 0.000000
0.625000 0.493634 0.000000
0.050000 0.796743 0.000000
0.445000 0.337750 0.000000
0.340000 0.311769 0.000000
0.710000 0.207846 0.000000
0.715000 0.199186 0.000000
0.720000 0.207846 0.000000
0.690000 0.415692 0.000000
0.510000 0.502295 0.000000
0.520000 0.502295 0.000000
0.515000 0.510955 0.000000
0.525000 0.510955 0.000000
0.230000 0.727461 0.000000
0.165000 0.597558 0.000000
0.565000 0.614878 0.000000
0.560000 0.623538 0.000000
0.315000 0.909327 0.000000
0.745000 0.268468 0.000000
0.280000 0.502295 0.000000
0.285000 0.337750 0.000000
0.455000 0.892006 0.000000
0.230000 0.363731 0.000000
0.140000 0.519615 0.000000
0.795000 0.268468 0.000000
0.280000 0.467654 0.000000
0.380000 0.675500 0.000000
0.290000 0.311769 0.000000
0.495000 0.649519 0.000000
0.505000 0.649519 0.000000
0.500000 0.640859 0.000000
0.510000 0.640859 0.000000
0.505000 0.632199 0.000000
0.515000 0.632199 0.000000
0.805000 0.303109 0.000000
0.560000 0.415692 0.000000
0.425000 0.649519 0.000000
0.320000 0.484974 0.000000
0.325000 0.493634 0.000000
0.330000 0.484974 0.000000
0.335000 0.493634 0.000000
0.340000 0.484974 0.000000
0.345000 0.493634 0.000000
0.340000 0.502295 0.000000
0.350000 0.502295 0.000000
0.345000 0.510955 0.000000
0.355000 0.493634 0.000000
0.660000 0.346410 0.000000
0.700000 0.814064 0.000000
0.710000 0.814064 0.000000
0.715000 0.805404 0.000000
0.720000 0.814064 0.000000
0.725000 0.805404 0.000000
0.730000 0.814064 0.000000
0.735000 0.805404 0.000000
0.740000 0.814064 0.000000
0.735000 0.822724 0.000000
0.745000 0.822724 0.000000
0.740000 0.831384 0.000000
0.750000 0.831384 0.000000
0.745000 0.840045 0.000000
0.755000 0.840045 0.000000
0.750000 0.848705 0.000000
0.760000 0.848705 0.000000
0.655000 0.805404 0.000000
0.705000 0.666840 0.000000
0.635000 0.822724 0.000000
0.520000 0.744782 0.000000
0.640000 0.207846 0.000000
0.445000 0.389711 0.000000
0.160000 0.190526 0.000000
0.150000 0.190526 0.000000
0.155000 0.199186 0.000000
0.145000 0.199186 0.000000
0.150000 0.207846 0.000000
0.140000 0.207846 0.000000
0.145000 0.216506 0.000000
0.245000 0.303109 0.000000
0.510000 0.692820 0.000000
0.500000 0.692820 0.000000
0.505000 0.701481 0.000000
0.495000 0.701481 0.000000
0.550000 0.692820 0.000000
0.145000 0.562917 0.000000
0.675000 0.372391 0.000000
0.760000 0.329090 0.000000
0.405000 0.788083 0.000000
0.575000 0.666840 0.000000
0.335000 0.476314 0.000000
0.610000 0.848705 0.000000
0.140000 0.190526 0.000000
0.715000 0.476314 0.000000
0.340000 0.571577 0.000000
0.520000 0.640859 0.000000
0.830000 0.571577 0.000000
0.550000 0.346410 0.000000
0.545000 0.337750 0.000000
0.675000 0.528275 0.000000
0.680000 0.190526 0.000000
0.460000 0.311769 0.000000
0.605000 0.528275 0.000000
0.360000 0.917987 0.000000
0.390000 0.606218 0.000000
0.260000 0.207846 0.000000
0.265000 0.216506 0.000000
0.255000 0.199186 0.000000
0.575000 0.510955 0.000000
0.205000 0.545596 0.000000
0.510000 0.415692 0.000000
0.645000 0.614878 0.000000
0.185000 0.164545 0.000000
0.345000 0.476314 0.000000
0.330000 0.155885 0.000000
0.835000 0.943968 0.000000
0.430000 0.415692 0.000000
0.440000 0.415692 0.000000
0.435000 0.424352 0.000000
0.445000 0.424352 0.000000
0.450000 0.415692 0.000000
0.455000 0.424352 0.000000
0.340000 0.103923 0.000000
0.550000 0.329090 0.000000
0.540000 0.329090 0.000000
0.395000 0.337750 0.000000
0.880000 0.866025 0.000000
0.510000 0.917987 0.000000
0.250000 0.381051 0.000000
0.740000 0.155885 0.000000
0.335000 0.666840 0.000000
0.640000 0.259808 0.000000
0.690000 0.814064 0.000000
0.835000 0.268468 0.000000
0.485000 0.476314 0.000000
0.665000 0.441673 0.000000
0.560000 0.173205 0.000000
0.440000 0.433013 0.000000
0.555000 0.441673 0.000000
0.380000 0.311769 0.000000
0.935000 0.043301 0.000000
0.330000 0.744782 0.000000
0.280000 0.623538 0.000000
0.275000 0.632199 0.000000
0.270000 0.623538 0.000000
0.265000 0.632199 0.000000
0.260000 0.623538 0.000000
0.270000 0.640859 0.000000
0.255000 0.632199 0.000000
0.250000 0.623538 0.000000
0.255000 0.614878 0.000000
0.245000 0.614878 0.000000
0.250000 0.606218 0.000000
0.240000 0.606218 0.000000
0.340000 0.467654 0.000000
0.360000 0.762102 0.000000
0.550000 0.554256 0.000000
0.340000 0.225167 0.000000
0.555000 0.840045 0.000000
0.635000 0.892006 0.000000
0.455000 0.840045 0.000000
0.270000 0.294449 0.000000
0.190000 0.658179 0.000000
0.840000 0.121244 0.000000
0.275000 0.181865 0.000000
0.115000 0.857365 0.000000
0.855000 0.233827 0.000000
0.355000 0.337750 0.000000
0.125000 0.355070 0.000000
0.515000 0.840045 0.000000
0.395000 0.476314 0.000000
0.460000 0.848705 0.000000
0.450000 0.848705 0.000000
0.820000 0.779423 0.000000
0.830000 0.779423 0.000000
0.835000 0.788083 0.000000
0.765000 0.840045 0.000000
0.770000 0.848705 0.000000
0.165000 0.770763 0.000000
0.380000 0.155885 0.000000
0.085000 0.580237 0.000000
0.460000 0.415692 0.000000
0.465000 0.424352 0.000000
0.460000 0.433013 0.000000
0.470000 0.433013 0.000000
0.585000 0.060622 0.000000
0.575000 0.060622 0.000000
0.580000 0.051962 0.000000
0.570000 0.051962 0.000000
0.920000 0.623538 0.000000
0.620000 0.917987 0.000000
0.440000 0.606218 0.000000
0.860000 0.173205 0.000000
0.785000 0.337750 0.000000
0.750000 0.744782 0.000000
0.945000 0.943968 0.000000
0.420000 0.225167 0.000000
0.475000 0.355070 0.000000
0.755000 0.892006 0.000000
0.300000 0.883346 0.000000
0.415000 0.892006 0.000000
0.085000 0.164545 0.000000
0.740000 0.363731 0.000000
0.235000 0.788083 0.000000
0.850000 0.467654 0.000000
0.400000 0.692820 0.000000
0.265000 0.909327 0.000000
0.415000 0.216506 0.000000
0.410000 0.225167 0.000000
0.600000 0.415692 0.000000
0.895000 0.822724 0.000000
0.200000 0.190526 0.000000
0.530000 0.086603 0.000000
0.400000 0.831384 0.000000
0.390000 0.831384 0.000000
0.395000 0.840045 0.000000
0.385000 0.840045 0.000000
0.380000 0.831384 0.000000
0.375000 0.840045 0.000000
0.370000 0.831384 0.000000
0.365000 0.840045 0.000000
0.360000 0.831384 0.000000
0.355000 0.840045 0.000000
0.350000 0.831384 0.000000
0.345000 0.840045 0.000000
0.340000 0.831384 0.000000
0.345000 0.822724 0.000000
0.335000 0.822724 0.000000
0.330000 0.831384 0.000000
0.325000 0.822724 0.000000
0.330000 0.814064 0.000000
0.320000 0.814064 0.000000
0.315000 0.822724 0.000000
0.310000 0.814064 0.000000
0.305000 0.822724 0.000000
0.300000 0.814064 0.000000
0.295000 0.822724 0.000000
0.305000 0.805404 0.000000
0.295000 0.805404 0.000000
0.300000 0.796743 0.000000
0.290000 0.796743 0.000000
0.300000 0.831384 0.000000
0.290000 0.831384 0.000000
0.380000 0.848705 0.000000
0.350000 0.848705 0.000000
0.295000 0.788083 0.000000
0.305000 0.788083 0.000000
0.285000 0.805404 0.000000
0.340000 0.848705 0.000000
0.280000 0.796743 0.000000
0.275000 0.805404 0.000000
0.785000 0.268468 0.000000
0.585000 0.199186 0.000000
0.850000 0.536936 0.000000
0.180000 0.103923 0.000000
0.185000 0.112583 0.000000
0.710000 0.190526 0.000000
0.760000 0.554256 0.000000
0.810000 0.883346 0.000000
0.535000 0.892006 0.000000
0.065000 0.528275 0.000000
0.060000 0.519615 0.000000
0.050000 0.519615 0.000000
0.055000 0.510955 0.000000
0.650000 0.415692 0.000000
0.400000 0.917987 0.000000
0.890000 0.329090 0.000000
0.405000 0.147224 0.000000
0.945000 0.545596 0.000000
0.430000 0.121244 0.000000
0.135000 0.303109 0.000000
0.140000 0.294449 0.000000
0.145000 0.303109 0.000000
0.150000 0.294449 0.000000
0.155000 0.303109 0.000000
0.160000 0.294449 0.000000
0.165000 0.303109 0.000000
0.155000 0.285788 0.000000
0.170000 0.294449 0.000000
0.175000 0.303109 0.000000
0.180000 0.294449 0.000000
0.185000 0.303109 0.000000
0.180000 0.311769 0.000000
0.190000 0.311769 0.000000
0.185000 0.320429 0.000000
0.195000 0.320429 0.000000
0.190000 0.329090 0.000000
0.190000 0.294449 0.000000
0.185000 0.285788 0.000000
0.200000 0.311769 0.000000
0.200000 0.329090 0.000000
0.195000 0.337750 0.000000
0.795000 0.458993 0.000000
0.250000 0.259808 0.000000
0.670000 0.121244 0.000000
0.125000 0.943968 0.000000
0.800000 0.484974 0.000000
0.420000 0.190526 0.000000
0.665000 0.926647 0.000000
0.660000 0.935307 0.000000
0.665000 0.943968 0.000000
0.655000 0.943968 0.000000
0.110000 0.640859 0.000000
0.115000 0.632199 0.000000
0.120000 0.640859 0.000000
0.125000 0.632199 0.000000
0.130000 0.640859 0.000000
0.120000 0.623538 0.000000
0.125000 0.649519 0.000000
0.135000 0.649519 0.000000
0.130000 0.658179 0.000000
0.140000 0.658179 0.000000
0.610000 0.779423 0.000000
0.075000 0.684160 0.000000
0.070000 0.692820 0.000000
0.065000 0.684160 0.000000
0.060000 0.692820 0.000000
0.055000 0.684160 0.000000
0.050000 0.692820 0.000000
0.065000 0.701481 0.000000
0.060000 0.675500 0.000000
0.780000 0.294449 0.000000
0.115000 0.528275 0.000000
0.295000 0.840045 0.000000
0.285000 0.840045 0.000000
0.150000 0.935307 0.000000
0.155000 0.943968 0.000000
0.620000 0.484974 0.000000
0.630000 0.484974 0.000000
0.635000 0.493634 0.000000
0.640000 0.484974 0.000000
0.645000 0.493634 0.000000
0.650000 0.484974 0.000000
0.655000 0.493634 0.000000
0.660000 0.484974 0.000000
0.435000 0.753442 0.000000
0.440000 0.762102 0.000000
0.880000 0.138564 0.000000
0.075000 0.337750 0.000000
0.595000 0.112583 0.000000
0.590000 0.121244 0.000000
0.555000 0.770763 0.000000
0.815000 0.251147 0.000000
0.950000 0.675500 0.000000
0.385000 0.753442 0.000000
0.150000 0.069282 0.000000
0.145000 0.060622 0.000000
0.155000 0.077942 0.000000
0.530000 0.502295 0.000000
0.535000 0.510955 0.000000
0.830000 0.346410 0.000000
0.835000 0.337750 0.000000
0.845000 0.337750 0.000000
0.840000 0.329090 0.000000
0.850000 0.329090 0.000000
0.820000 0.415692 0.000000
0.825000 0.736122 0.000000
0.530000 0.814064 0.000000
0.750000 0.121244 0.000000
0.130000 0.623538 0.000000
0.125000 0.614878 0.000000
0.595000 0.441673 0.000000
0.135000 0.666840 0.000000
0.145000 0.666840 0.000000
0.565000 0.493634 0.000000
0.665000 0.060622 0.000000
0.515000 0.770763 0.000000
0.860000 0.710141 0.000000
0.475000 0.060622 0.000000
0.480000 0.051962 0.000000
0.710000 0.121244 0.000000
0.570000 0.484974 0.000000
0.825000 0.701481 0.000000
0.705000 0.060622 0.000000
0.860000 0.051962 0.000000
0.850000 0.051962 0.000000
0.520000 0.519615 0.000000
0.510000 0.519615 0.000000
0.760000 0.121244 0.000000
0.140000 0.675500 0.000000
0.150000 0.675500 0.000000
0.145000 0.684160 0.000000
0.155000 0.684160 0.000000
0.855000 0.614878 0.000000
0.860000 0.606218 0.000000
0.830000 0.658179 0.000000
0.835000 0.666840 0.000000
0.430000 0.588897 0.000000
0.435000 0.580237 0.000000
0.905000 0.943968 0.000000
0.150000 0.692820 0.000000
0.160000 0.692820 0.000000
0.465000 0.545596 0.000000
0.475000 0.545596 0.000000
0.455000 0.545596 0.000000
0.845000 0.320429 0.000000
0.855000 0.320429 0.000000
0.870000 0.484974 0.000000
0.155000 0.701481 0.000000
0.165000 0.701481 0.000000
0.160000 0.710141 0.000000
0.170000 0.710141 0.000000
0.935000 0.441673 0.000000
0.940000 0.433013 0.000000
0.950000 0.433013 0.000000
0.945000 0.424352 0.000000
0.885000 0.441673 0.000000
0.935000 0.424352 0.000000
0.940000 0.415692 0.000000
0.950000 0.415692 0.000000
0.945000 0.407032 0.000000
0.935000 0.407032 0.000000
0.940000 0.398372 0.000000
0.950000 0.398372 0.000000
0.945000 0.389711 0.000000
0.920000 0.467654 0.000000
0.900000 0.519615 0.000000
0.850000 0.311769 0.000000
0.360000 0.051962 0.000000
0.350000 0.051962 0.000000
0.875000 0.199186 0.000000
0.310000 0.051962 0.000000
0.180000 0.051962 0.000000
0.190000 0.051962 0.000000
0.160000 0.051962 0.000000
0.060000 0.051962 0.000000
0.070000 0.051962 0.000000
0.050000 0.051962 0.000000
0.950000 0.554256 0.000000
0.050000 0.554256 0.000000
0.050000 0.311769 0.000000
0.055000 0.303109 0.000000
0.050000 0.675500 0.000000
0.055000 0.666840 0.000000
0.050000 0.744782 0.000000
0.050000 0.155885 0.000000
0.050000 0.866025 0.000000
0.210000 0.952628 0.000000
0.200000 0.952628 0.000000
0.954968 0.181846 0.000000
0.045000 0.770763 0.000000
0.955000 0.943968 0.000000
0.950000 0.952628 0.000000
0.955000 0.458993 0.000000
0.045000 0.303109 0.000000
0.050000 0.294449 0.000000
0.045000 0.510955 0.000000
0.050000 0.502295 0.000000
0.955000 0.389711 0.000000
0.950000 0.381051 0.000000
0.955000 0.545596 0.000000
0.955000 0.909327 0.000000
0.950000 0.900666 0.000000
0.080000 0.952628 0.000000
0.090000 0.952628 0.000000
0.070000 0.952628 0.000000
0.140000 0.952628 0.000000
0.660000 0.952628 0.000000
0.650000 0.952628 0.000000
0.820000 0.952628 0.000000
0.810000 0.952628 0.000000
0.720000 0.952628 0.000000
0.730000 0.952628 0.000000
0.880000 0.952628 0.000000
0.870000 0.952628 0.000000
0.955000 0.718801 0.000000
0.045000 0.666840 0.000000
0.050000 0.658179 0.000000
0.045000 0.147224 0.000000
0.050000 0.138564 0.000000
0.045000 0.857365 0.000000
0.955000 0.060622 0.000000
0.045000 0.355070 0.000000
0.045000 0.805404 0.000000
0.955000 0.164545 0.000000
0.950000 0.155885 0.000000
0.955000 0.736122 0.000000
0.950000 0.744782 0.000000
0.940000 0.744782 0.000000
0.945000 0.753442 0.000000
0.955000 0.753442 0.000000
0.950000 0.762102 0.000000
0.955000 0.493634 0.000000
0.045000 0.077942 0.000000
0.040000 0.675500 0.000000
0.465000 0.614878 0.000000
0.510000 0.623538 0.000000
0.520000 0.623538 0.000000
0.165000 0.684160 0.000000
0.440000 0.710141 0.000000
0.450000 0.710141 0.000000
0.070000 0.744782 0.000000
0.755000 0.216506 0.000000
0.055000 0.736122 0.000000
0.045000 0.736122 0.000000
0.040000 0.744782 0.000000
0.935000 0.753442 0.000000
0.725000 0.199186 0.000000
0.070000 0.311769 0.000000
0.160000 0.536936 0.000000
0.940000 0.900666 0.000000
0.945000 0.892006 0.000000
0.955000 0.892006 0.000000
0.950000 0.883346 0.000000
0.940000 0.883346 0.000000
0.945000 0.874686 0.000000
0.955000 0.874686 0.000000
0.950000 0.866025 0.000000
0.940000 0.866025 0.000000
0.945000 0.857365 0.000000
0.955000 0.857365 0.000000
0.950000 0.848705 0.000000
0.940000 0.848705 0.000000
0.945000 0.840045 0.000000
0.935000 0.840045 0.000000
0.940000 0.831384 0.000000
0.950000 0.831384 0.000000
0.945000 0.822724 0.000000
0.955000 0.822724 0.000000
0.950000 0.814064 0.000000
0.960000 0.831384 0.000000
0.930000 0.831384 0.000000
0.340000 0.398372 0.000000
0.300000 0.779423 0.000000
0.290000 0.779423 0.000000
0.310000 0.779423 0.000000
0.880000 0.069282 0.000000
0.885000 0.060622 0.000000
0.880000 0.051962 0.000000
0.890000 0.051962 0.000000
0.320000 0.069282 0.000000
0.630000 0.727461 0.000000
0.620000 0.727461 0.000000
0.640000 0.727461 0.000000
0.645000 0.736122 0.000000
0.650000 0.727461 0.000000
0.195000 0.285788 0.000000
0.190000 0.277128 0.000000
0.355000 0.510955 0.000000
0.350000 0.519615 0.000000
0.340000 0.519615 0.000000
0.345000 0.528275 0.000000
0.335000 0.528275 0.000000
0.690000 0.727461 0.000000
0.245000 0.597558 0.000000
0.235000 0.597558 0.000000
0.255000 0.597558 0.000000
0.295000 0.268468 0.000000
0.300000 0.277128 0.000000
0.155000 0.666840 0.000000
0.105000 0.822724 0.000000
0.110000 0.814064 0.000000
0.105000 0.805404 0.000000
0.810000 0.190526 0.000000
0.805000 0.199186 0.000000
0.835000 0.892006 0.000000
0.840000 0.883346 0.000000
0.925000 0.718801 0.000000
0.860000 0.311769 0.000000
0.855000 0.303109 0.000000
0.565000 0.632199 0.000000
0.170000 0.467654 0.000000
0.165000 0.476314 0.000000
0.685000 0.181865 0.000000
0.725000 0.510955 0.000000
0.770000 0.554256 0.000000
0.585000 0.632199 0.000000
0.865000 0.095263 0.000000
0.790000 0.692820 0.000000
0.245000 0.147224 0.000000
0.555000 0.614878 0.000000
0.745000 0.805404 0.000000
0.740000 0.796743 0.000000
0.870000 0.917987 0.000000
0.760000 0.519615 0.000000
0.770000 0.502295 0.000000
0.350000 0.467654 0.000000
0.660000 0.588897 0.000000
0.785000 0.684160 0.000000
0.595000 0.268468 0.000000
0.590000 0.277128 0.000000
0.680000 0.588897 0.000000
0.690000 0.554256 0.000000
0.700000 0.554256 0.000000
0.310000 0.242487 0.000000
0.535000 0.337750 0.000000
0.795000 0.666840 0.000000
0.345000 0.649519 0.000000
0.340000 0.640859 0.000000
0.180000 0.329090 0.000000
0.235000 0.614878 0.000000
0.250000 0.155885 0.000000
0.435000 0.181865 0.000000
0.445000 0.181865 0.000000
0.450000 0.190526 0.000000
0.670000 0.329090 0.000000
0.475000 0.216506 0.000000
0.065000 0.510955 0.000000
0.605000 0.632199 0.000000
0.695000 0.822724 0.000000
0.245000 0.632199 0.000000
0.250000 0.640859 0.000000
0.345000 0.666840 0.000000
0.340000 0.675500 0.000000
0.425000 0.718801 0.000000
0.400000 0.086603 0.000000
0.555000 0.233827 0.000000
0.565000 0.233827 0.000000
0.570000 0.242487 0.000000
0.575000 0.233827 0.000000
0.195000 0.510955 0.000000
0.145000 0.649519 0.000000
0.285000 0.424352 0.000000
0.665000 0.493634 0.000000
0.670000 0.484974 0.000000
0.345000 0.857365 0.000000
0.435000 0.372391 0.000000
0.425000 0.372391 0.000000
0.765000 0.857365 0.000000
0.775000 0.857365 0.000000
0.670000 0.883346 0.000000
0.705000 0.909327 0.000000
0.780000 0.536936 0.000000
0.840000 0.779423 0.000000
0.385000 0.372391 0.000000
0.675000 0.181865 0.000000
0.475000 0.424352 0.000000
0.315000 0.199186 0.000000
0.780000 0.848705 0.000000
0.620000 0.381051 0.000000
0.810000 0.155885 0.000000
0.820000 0.155885 0.000000
0.790000 0.519615 0.000000
0.060000 0.294449 0.000000
0.055000 0.285788 0.000000
0.045000 0.285788 0.000000
0.050000 0.277128 0.000000
0.040000 0.277128 0.000000
0.045000 0.268468 0.000000
0.785000 0.857365 0.000000
0.245000 0.077942 0.000000
0.240000 0.069282 0.000000
0.835000 0.770763 0.000000
0.420000 0.086603 0.000000
0.800000 0.502295 0.000000
0.450000 0.381051 0.000000
0.715000 0.337750 0.000000
0.205000 0.337750 0.000000
0.210000 0.329090 0.000000
0.200000 0.346410 0.000000
0.640000 0.381051 0.000000
0.705000 0.736122 0.000000
0.660000 0.381051 0.000000
0.715000 0.753442 0.000000
0.315000 0.372391 0.000000
0.305000 0.372391 0.000000
0.325000 0.372391 0.000000
0.765000 0.562917 0.000000
0.755000 0.562917 0.000000
0.655000 0.476314 0.000000
0.825000 0.164545 0.000000
0.830000 0.155885 0.000000
0.600000 0.121244 0.000000
0.595000 0.129904 0.000000
0.585000 0.129904 0.000000
0.485000 0.060622 0.000000
0.490000 0.051962 0.000000
0.745000 0.285788 0.000000
0.740000 0.294449 0.000000
0.625000 0.476314 0.000000
0.440000 0.086603 0.000000
0.590000 0.138564 0.000000
0.580000 0.138564 0.000000
0.195000 0.857365 0.000000
0.200000 0.848705 0.000000
0.210000 0.848705 0.000000
0.270000 0.796743 0.000000
0.265000 0.805404 0.000000
0.290000 0.848705 0.000000
0.280000 0.848705 0.000000
0.275000 0.840045 0.000000
0.300000 0.848705 0.000000
0.270000 0.848705 0.000000
0.265000 0.840045 0.000000
0.260000 0.848705 0.000000
0.255000 0.840045 0.000000
0.145000 0.077942 0.000000
0.225000 0.164545 0.000000
0.230000 0.173205 0.000000
0.845000 0.389711 0.000000
0.850000 0.398372 0.000000
0.825000 0.424352 0.000000
0.640000 0.086603 0.000000
0.855000 0.112583 0.000000
0.425000 0.597558 0.000000
0.425000 0.580237 0.000000
0.430000 0.571577 0.000000
0.120000 0.155885 0.000000
0.660000 0.086603 0.000000
0.930000 0.398372 0.000000
0.680000 0.086603 0.000000
0.740000 0.086603 0.000000
0.700000 0.086603 0.000000
0.555000 0.632199 0.000000
0.720000 0.086603 0.000000
0.430000 0.762102 0.000000
0.435000 0.770763 0.000000
0.645000 0.943968 0.000000
0.640000 0.952628 0.000000
0.885000 0.043301 0.000000
0.895000 0.043301 0.000000
0.575000 0.043301 0.000000
0.585000 0.043301 0.000000
0.565000 0.043301 0.000000
0.560000 0.051962 0.000000
0.555000 0.043301 0.000000
0.550000 0.051962 0.000000
0.545000 0.043301 0.000000
0.540000 0.051962 0.000000
0.535000 0.043301 0.000000
0.530000 0.051962 0.000000
0.525000 0.043301 0.000000
0.855000 0.632199 0.000000
0.165000 0.718801 0.000000
0.175000 0.718801 0.000000
0.180000 0.710141 0.000000
0.185000 0.718801 0.000000
0.180000 0.727461 0.000000
0.190000 0.727461 0.000000
0.185000 0.736122 0.000000
0.195000 0.736122 0.000000
0.190000 0.744782 0.000000
0.825000 0.355070 0.000000
0.470000 0.536936 0.000000
0.820000 0.346410 0.000000
0.895000 0.510955 0.000000
0.900000 0.502295 0.000000
0.830000 0.329090 0.000000
0.940000 0.381051 0.000000
0.945000 0.372391 0.000000
0.955000 0.372391 0.000000
0.950000 0.363731 0.000000
0.940000 0.363731 0.000000
0.945000 0.355070 0.000000
0.955000 0.355070 0.000000
0.950000 0.346410 0.000000
0.475000 0.043301 0.000000
0.455000 0.043301 0.000000
0.445000 0.043301 0.000000
0.925000 0.181865 0.000000
0.940000 0.155885 0.000000
0.945000 0.147224 0.000000
0.955000 0.147224 0.000000
0.950000 0.138564 0.000000
0.185000 0.043301 0.000000
0.195000 0.043301 0.000000
0.055000 0.043301 0.000000
0.045000 0.043301 0.000000
0.040000 0.519615 0.000000
0.960000 0.398372 0.000000
0.960000 0.917987 0.000000
0.960000 0.450333 0.000000
0.940000 0.814064 0.000000
0.945000 0.805404 0.000000
0.955000 0.805404 0.000000
0.495000 0.632199 0.000000
0.950000 0.796743 0.000000
0.960000 0.796743 0.000000
0.495000 0.736122 0.000000
0.765000 0.233827 0.000000
0.765000 0.372391 0.000000
0.180000 0.571577 0.000000
0.340000 0.536936 0.000000
0.330000 0.536936 0.000000
0.815000 0.874686 0.000000
0.095000 0.372391 0.000000
0.100000 0.381051 0.000000
0.105000 0.320429 0.000000
0.775000 0.736122 0.000000
0.135000 0.441673 0.000000
0.140000 0.450333 0.000000
0.130000 0.433013 0.000000
0.340000 0.277128 0.000000
0.350000 0.277128 0.000000
0.115000 0.805404 0.000000
0.110000 0.796743 0.000000
0.250000 0.848705 0.000000
0.245000 0.840045 0.000000
0.230000 0.225167 0.000000
0.085000 0.840045 0.000000
0.115000 0.926647 0.000000
0.635000 0.753442 0.000000
0.455000 0.181865 0.000000
0.715000 0.822724 0.000000
0.530000 0.329090 0.000000
0.595000 0.580237 0.000000
0.135000 0.216506 0.000000
0.140000 0.225167 0.000000
0.150000 0.225167 0.000000
0.145000 0.233827 0.000000
0.155000 0.233827 0.000000
0.150000 0.242487 0.000000
0.160000 0.242487 0.000000
0.140000 0.242487 0.000000
0.145000 0.251147 0.000000
0.130000 0.207846 0.000000
0.135000 0.614878 0.000000
0.130000 0.606218 0.000000
0.755000 0.822724 0.000000
0.190000 0.346410 0.000000
0.845000 0.788083 0.000000
0.455000 0.857365 0.000000
0.445000 0.857365 0.000000
0.465000 0.857365 0.000000
0.215000 0.147224 0.000000
0.210000 0.138564 0.000000
0.385000 0.199186 0.000000
0.465000 0.441673 0.000000
0.475000 0.441673 0.000000
0.670000 0.190526 0.000000
0.845000 0.060622 0.000000
0.840000 0.051962 0.000000
0.845000 0.043301 0.000000
0.835000 0.043301 0.000000
0.600000 0.381051 0.000000
0.590000 0.381051 0.000000
0.200000 0.103923 0.000000
0.680000 0.917987 0.000000
0.480000 0.536936 0.000000
0.160000 0.935307 0.000000
0.165000 0.943968 0.000000
0.160000 0.952628 0.000000
0.785000 0.233827 0.000000
0.655000 0.926647 0.000000
0.660000 0.917987 0.000000
0.560000 0.484974 0.000000
0.565000 0.476314 0.000000
0.830000 0.727461 0.000000
0.515000 0.528275 0.000000
0.525000 0.528275 0.000000
0.835000 0.372391 0.000000
0.850000 0.606218 0.000000
0.855000 0.597558 0.000000
0.845000 0.614878 0.000000
0.915000 0.458993 0.000000
0.905000 0.216506 0.000000
0.900000 0.225167 0.000000
0.355000 0.043301 0.000000
0.365000 0.043301 0.000000
0.345000 0.043301 0.000000
0.960000 0.138564 0.000000
0.955000 0.129904 0.000000
0.040000 0.138564 0.000000
0.045000 0.129904 0.000000
0.040000 0.311769 0.000000
0.040000 0.658179 0.000000
0.045000 0.649519 0.000000
0.040000 0.051962 0.000000
0.960000 0.762102 0.000000
0.960247 0.952774 0.000000
0.960000 0.346410 0.000000
0.955000 0.337750 0.000000
0.965032 0.043349 0.000000
0.040000 0.363731 0.000000
0.960000 0.554256 0.000000
0.955000 0.562917 0.000000
0.040000 0.796743 0.000000
0.960000 0.502295 0.000000
0.040000 0.155885 0.000000
0.040000 0.866025 0.000000
0.040000 0.502295 0.000000
0.045000 0.493634 0.000000
0.055000 0.493634 0.000000
0.050000 0.484974 0.000000
0.040000 0.484974 0.000000
0.045000 0.476314 0.000000
0.815000 0.961288 0.000000
0.825000 0.961288 0.000000
0.805000 0.961288 0.000000
0.954923 0.961244 0.000000
0.944987 0.961281 0.000000
0.075000 0.961288 0.000000
0.065000 0.961288 0.000000
0.205000 0.961288 0.000000
0.195000 0.961288 0.000000
0.215000 0.961288 0.000000
0.655000 0.961288 0.000000
0.665000 0.961288 0.000000
0.725000 0.961288 0.000000
0.735000 0.961288 0.000000
0.740000 0.952628 0.000000
0.745000 0.961288 0.000000
0.750000 0.952628 0.000000
0.715000 0.961288 0.000000
0.755000 0.961288 0.000000
0.760000 0.952628 0.000000
0.765000 0.961288 0.000000
0.940000 0.796743 0.000000
0.050000 0.727461 0.000000
0.040000 0.727461 0.000000
0.740000 0.606218 0.000000
0.445000 0.701481 0.000000
0.435000 0.701481 0.000000
0.455000 0.701481 0.000000
0.175000 0.510955 0.000000
0.180000 0.519615 0.000000
0.770000 0.952628 0.000000
0.775000 0.961288 0.000000
0.955000 0.510955 0.000000
0.335000 0.095263 0.000000
0.330000 0.103923 0.000000
0.605000 0.112583 0.000000
0.355000 0.424352 0.000000
0.350000 0.433013 0.000000
0.865000 0.303109 0.000000
0.860000 0.294449 0.000000
0.870000 0.294449 0.000000
0.865000 0.285788 0.000000
0.875000 0.285788 0.000000
0.870000 0.277128 0.000000
0.190000 0.710141 0.000000
0.765000 0.129904 0.000000
0.770000 0.121244 0.000000
0.775000 0.129904 0.000000
0.880000 0.277128 0.000000
0.875000 0.268468 0.000000
0.800000 0.952628 0.000000
0.060000 0.484974 0.000000
0.800000 0.155885 0.000000
0.060000 0.727461 0.000000
0.055000 0.129904 0.000000
0.345000 0.424352 0.000000
0.340000 0.433013 0.000000
0.925000 0.614878 0.000000
0.930000 0.623538 0.000000
0.935000 0.614878 0.000000
0.940000 0.623538 0.000000
0.945000 0.614878 0.000000
0.950000 0.623538 0.000000
0.955000 0.614878 0.000000
0.960000 0.623538 0.000000
0.950000 0.606218 0.000000
0.960000 0.606218 0.000000
0.955000 0.597558 0.000000
0.045000 0.372391 0.000000
0.515000 0.614878 0.000000
0.505000 0.614878 0.000000
0.155000 0.926647 0.000000
0.155000 0.441673 0.000000
0.740000 0.536936 0.000000
0.735000 0.545596 0.000000
0.065000 0.216506 0.000000
0.060000 0.225167 0.000000
0.055000 0.216506 0.000000
0.050000 0.225167 0.000000
0.045000 0.216506 0.000000
0.055000 0.233827 0.000000
0.045000 0.233827 0.000000
0.920000 0.917987 0.000000
0.945000 0.233827 0.000000
0.950000 0.242487 0.000000
0.955000 0.233827 0.000000
0.960000 0.242487 0.000000
0.840000 0.311769 0.000000
0.760000 0.450333 0.000000
0.170000 0.502295 0.000000
0.340000 0.086603 0.000000
0.680000 0.727461 0.000000
0.675000 0.736122 0.000000
0.125000 0.164545 0.000000
0.510000 0.207846 0.000000
0.295000 0.112583 0.000000
0.260000 0.121244 0.000000
0.805000 0.736122 0.000000
0.810000 0.744782 0.000000
0.650000 0.155885 0.000000
0.310000 0.277128 0.000000
0.710000 0.311769 0.000000
0.255000 0.753442 0.000000
0.545000 0.320429 0.000000
0.150000 0.814064 0.000000
0.765000 0.943968 0.000000
0.275000 0.216506 0.000000
0.270000 0.225167 0.000000
0.280000 0.225167 0.000000
0.230000 0.450333 0.000000
0.780000 0.692820 0.000000
0.785000 0.701481 0.000000
0.460000 0.710141 0.000000
0.185000 0.701481 0.000000
0.480000 0.294449 0.000000
0.190000 0.814064 0.000000
0.650000 0.554256 0.000000
0.500000 0.259808 0.000000
0.660000 0.242487 0.000000
0.145000 0.389711 0.000000
0.775000 0.684160 0.000000
0.865000 0.943968 0.000000
0.290000 0.155885 0.000000
0.900000 0.571577 0.000000
0.895000 0.562917 0.000000
0.890000 0.571577 0.000000
0.885000 0.562917 0.000000
0.890000 0.554256 0.000000
0.880000 0.571577 0.000000
0.875000 0.562917 0.000000
0.870000 0.571577 0.000000
0.615000 0.476314 0.000000
0.465000 0.805404 0.000000
0.460000 0.796743 0.000000
0.470000 0.796743 0.000000
0.755000 0.476314 0.000000
0.250000 0.329090 0.000000
0.805000 0.147224 0.000000
0.455000 0.389711 0.000000
0.680000 0.848705 0.000000
0.675000 0.840045 0.000000
0.665000 0.840045 0.000000
0.745000 0.407032 0.000000
0.755000 0.407032 0.000000
0.760000 0.398372 0.000000
0.750000 0.415692 0.000000
0.765000 0.407032 0.000000
0.135000 0.285788 0.000000
0.560000 0.606218 0.000000
0.670000 0.831384 0.000000
0.250000 0.831384 0.000000
0.240000 0.831384 0.000000
0.155000 0.129904 0.000000
0.790000 0.225167 0.000000
0.250000 0.467654 0.000000
0.635000 0.355070 0.000000
0.655000 0.303109 0.000000
0.660000 0.294449 0.000000
0.650000 0.311769 0.000000
0.655000 0.285788 0.000000
0.665000 0.285788 0.000000
0.100000 0.311769 0.000000
0.365000 0.822724 0.000000
0.660000 0.277128 0.000000
0.730000 0.658179 0.000000
0.795000 0.095263 0.000000
0.480000 0.675500 0.000000
0.300000 0.381051 0.000000
0.295000 0.372391 0.000000
0.290000 0.381051 0.000000
0.440000 0.173205 0.000000
0.430000 0.173205 0.000000
0.360000 0.710141 0.000000
0.105000 0.129904 0.000000
0.095000 0.129904 0.000000
0.335000 0.597558 0.000000
0.715000 0.216506 0.000000
0.725000 0.216506 0.000000
0.440000 0.502295 0.000000
0.420000 0.467654 0.000000
0.350000 0.640859 0.000000
0.355000 0.649519 0.000000
0.345000 0.632199 0.000000
0.330000 0.519615 0.000000
0.240000 0.588897 0.000000
0.230000 0.588897 0.000000
0.225000 0.597558 0.000000
0.220000 0.588897 0.000000
0.580000 0.242487 0.000000
0.585000 0.233827 0.000000
0.770000 0.640859 0.000000
0.630000 0.519615 0.000000
0.425000 0.424352 0.000000
0.305000 0.441673 0.000000
0.140000 0.623538 0.000000
0.710000 0.450333 0.000000
0.535000 0.666840 0.000000
0.615000 0.805404 0.000000
0.905000 0.753442 0.000000
0.910000 0.744782 0.000000
0.360000 0.415692 0.000000
0.590000 0.554256 0.000000
0.860000 0.848705 0.000000
0.670000 0.294449 0.000000
0.905000 0.736122 0.000000
0.395000 0.372391 0.000000
0.195000 0.943968 0.000000
0.355000 0.147224 0.000000
0.325000 0.805404 0.000000
0.335000 0.805404 0.000000
0.375000 0.095263 0.000000
0.755000 0.199186 0.000000
0.240000 0.173205 0.000000
0.355000 0.268468 0.000000
0.360000 0.277128 0.000000
0.365000 0.268468 0.000000
0.370000 0.277128 0.000000
0.375000 0.268468 0.000000
0.380000 0.277128 0.000000
0.385000 0.268468 0.000000
0.390000 0.277128 0.000000
0.395000 0.268468 0.000000
0.400000 0.277128 0.000000
0.390000 0.259808 0.000000
0.405000 0.268468 0.000000
0.410000 0.277128 0.000000
0.065000 0.614878 0.000000
0.080000 0.866025 0.000000
0.600000 0.173205 0.000000
0.275000 0.233827 0.000000
0.720000 0.381051 0.000000
0.710000 0.381051 0.000000
0.705000 0.389711 0.000000
0.505000 0.129904 0.000000
0.160000 0.311769 0.000000
0.180000 0.277128 0.000000
0.185000 0.268468 0.000000
0.175000 0.268468 0.000000
0.180000 0.259808 0.000000
0.190000 0.259808 0.000000
0.185000 0.251147 0.000000
0.305000 0.285788 0.000000
0.315000 0.285788 0.000000
0.935000 0.285788 0.000000
0.940000 0.294449 0.000000
0.945000 0.285788 0.000000
0.950000 0.294449 0.000000
0.955000 0.285788 0.000000
0.945000 0.303109 0.000000
0.955000 0.303109 0.000000
0.125000 0.770763 0.000000
0.330000 0.796743 0.000000
0.340000 0.796743 0.000000
0.335000 0.788083 0.000000
0.110000 0.242487 0.000000
0.335000 0.181865 0.000000
0.920000 0.190526 0.000000
0.185000 0.788083 0.000000
0.520000 0.051962 0.000000
0.515000 0.043301 0.000000
0.335000 0.857365 0.000000
0.250000 0.069282 0.000000
0.245000 0.060622 0.000000
0.255000 0.060622 0.000000
0.250000 0.051962 0.000000
0.240000 0.051962 0.000000
0.260000 0.051962 0.000000
0.245000 0.043301 0.000000
0.235000 0.043301 0.000000
0.090000 0.363731 0.000000
0.465000 0.701481 0.000000
0.470000 0.710141 0.000000
0.100000 0.207846 0.000000
0.715000 0.372391 0.000000
0.365000 0.441673 0.000000
0.830000 0.051962 0.000000
0.825000 0.043301 0.000000
0.865000 0.597558 0.000000
0.355000 0.857365 0.000000
0.870000 0.762102 0.000000
0.390000 0.190526 0.000000
0.115000 0.770763 0.000000
0.110000 0.762102 0.000000
0.105000 0.770763 0.000000
0.100000 0.762102 0.000000
0.770000 0.242487 0.000000
0.775000 0.562917 0.000000
0.480000 0.069282 0.000000
0.295000 0.770763 0.000000
0.285000 0.770763 0.000000
0.840000 0.658179 0.000000
0.845000 0.666840 0.000000
0.840000 0.675500 0.000000
0.150000 0.086603 0.000000
0.955000 0.632199 0.000000
0.245000 0.822724 0.000000
0.350000 0.866025 0.000000
0.360000 0.866025 0.000000
0.060000 0.623538 0.000000
0.055000 0.614878 0.000000
0.050000 0.623538 0.000000
0.045000 0.614878 0.000000
0.040000 0.623538 0.000000
0.230000 0.935307 0.000000
0.235000 0.943968 0.000000
0.130000 0.103923 0.000000
0.705000 0.372391 0.000000
0.320000 0.363731 0.000000
0.860000 0.952628 0.000000
0.865000 0.961288 0.000000
0.855000 0.961288 0.000000
0.240000 0.935307 0.000000
0.245000 0.943968 0.000000
0.240000 0.952628 0.000000
0.250000 0.952628 0.000000
0.255000 0.943968 0.000000
0.260000 0.952628 0.000000
0.265000 0.943968 0.000000
0.270000 0.952628 0.000000
0.275000 0.943968 0.000000
0.280000 0.952628 0.000000
0.285000 0.943968 0.000000
0.290000 0.952628 0.000000
0.295000 0.943968 0.000000
0.300000 0.952628 0.000000
0.305000 0.943968 0.000000
0.310000 0.952628 0.000000
0.315000 0.943968 0.000000
0.320000 0.952628 0.000000
0.315000 0.961288 0.000000
0.325000 0.961288 0.000000
0.330000 0.952628 0.000000
0.335000 0.961288 0.000000
0.340000 0.952628 0.000000
0.345000 0.961288 0.000000
0.350000 0.952628 0.000000
0.355000 0.961288 0.000000
0.360000 0.952628 0.000000
0.365000 0.961288 0.000000
0.370000 0.952628 0.000000
0.375000 0.961288 0.000000
0.380000 0.952628 0.000000
0.385000 0.961288 0.000000
0.390000 0.952628 0.000000
0.395000 0.961288 0.000000
0.400000 0.952628 0.000000
0.405000 0.961288 0.000000
0.410000 0.952628 0.000000
0.415000 0.961288 0.000000
0.420000 0.952628 0.000000
0.425000 0.961288 0.000000
0.430000 0.952628 0.000000
0.435000 0.961288 0.000000
0.440000 0.952628 0.000000
0.445000 0.961288 0.000000
0.450000 0.952628 0.000000
0.455000 0.961288 0.000000
0.460000 0.952628 0.000000
0.465000 0.961288 0.000000
0.470000 0.952628 0.000000
0.475000 0.961288 0.000000
0.480000 0.952628 0.000000
0.485000 0.961288 0.000000
0.490000 0.952628 0.000000
0.495000 0.961288 0.000000
0.500000 0.952628 0.000000
0.505000 0.961288 0.000000
0.510000 0.952628 0.000000
0.515000 0.961288 0.000000
0.520000 0.952628 0.000000
0.525000 0.961288 0.000000
0.530000 0.952628 0.000000
0.535000 0.961288 0.000000
0.540000 0.952628 0.000000
0.545000 0.961288 0.000000
0.550000 0.952628 0.000000
0.555000 0.961288 0.000000
0.560000 0.952628 0.000000
0.565000 0.961288 0.000000
0.570000 0.952628 0.000000
0.575000 0.961288 0.000000
0.580000 0.952628 0.000000
0.585000 0.961288 0.000000
0.590000 0.952628 0.000000
0.595000 0.961288 0.000000
0.600000 0.952628 0.000000
0.605000 0.961288 0.000000
0.245000 0.961288 0.000000
0.285000 0.961288 0.000000
0.265000 0.961288 0.000000
0.610000 0.952628 0.000000
0.130000 0.675500 0.000000
0.770000 0.571577 0.000000
0.330000 0.363731 0.000000
0.415000 0.268468 0.000000
0.420000 0.277128 0.000000
0.415000 0.285788 0.000000
0.425000 0.285788 0.000000
0.410000 0.259808 0.000000
0.055000 0.649519 0.000000
0.235000 0.181865 0.000000
0.495000 0.060622 0.000000
0.835000 0.736122 0.000000
0.065000 0.285788 0.000000
0.430000 0.277128 0.000000
0.435000 0.285788 0.000000
0.440000 0.277128 0.000000
0.445000 0.285788 0.000000
0.565000 0.510955 0.000000
0.570000 0.519615 0.000000
0.605000 0.129904 0.000000
0.890000 0.069282 0.000000
0.885000 0.077942 0.000000
0.300000 0.935307 0.000000
0.265000 0.857365 0.000000
0.145000 0.701481 0.000000
0.855000 0.701481 0.000000
0.105000 0.199186 0.000000
0.100000 0.190526 0.000000
0.110000 0.190526 0.000000
0.105000 0.181865 0.000000
0.850000 0.675500 0.000000
0.445000 0.770763 0.000000
0.440000 0.779423 0.000000
0.855000 0.666840 0.000000
0.100000 0.138564 0.000000
0.815000 0.355070 0.000000
0.525000 0.614878 0.000000
0.540000 0.554256 0.000000
0.545000 0.545596 0.000000
0.755000 0.112583 0.000000
0.475000 0.528275 0.000000
0.560000 0.519615 0.000000
0.150000 0.744782 0.000000
0.925000 0.407032 0.000000
0.900000 0.398372 0.000000
0.910000 0.363731 0.000000
0.420000 0.571577 0.000000
0.425000 0.562917 0.000000
0.465000 0.528275 0.000000
0.910000 0.467654 0.000000
0.580000 0.034641 0.000000
0.590000 0.034641 0.000000
0.890000 0.519615 0.000000
0.435000 0.943968 0.000000
0.945000 0.337750 0.000000
0.415000 0.580237 0.000000
0.450000 0.034641 0.000000
0.190000 0.034641 0.000000
0.440000 0.034641 0.000000
0.545000 0.943968 0.000000
0.915000 0.181865 0.000000
0.910000 0.190526 0.000000
0.050000 0.034641 0.000000
0.945000 0.129904 0.000000
0.635000 0.943968 0.000000
0.200000 0.034641 0.000000
0.205000 0.043301 0.000000
0.210000 0.034641 0.000000
0.180000 0.034641 0.000000
0.615000 0.960902 0.000000
0.920000 0.173205 0.000000
0.060000 0.034641 0.000000
0.950000 0.121244 0.000000
0.960000 0.121244 0.000000
0.955000 0.112583 0.000000
0.040000 0.034641 0.000000
0.965000 0.389711 0.000000
0.965063 0.459030 0.000000
0.965000 0.909327 0.000000
0.965000 0.510955 0.000000
0.035000 0.268468 0.000000
0.035000 0.372391 0.000000
0.040000 0.381051 0.000000
0.035000 0.857365 0.000000
0.965000 0.822724 0.000000
0.035000 0.303109 0.000000
0.530000 0.969948 0.000000
0.420000 0.969948 0.000000
0.210000 0.969948 0.000000
0.810000 0.969948 0.000000
0.860000 0.969948 0.000000
0.750000 0.969948 0.000000
0.949867 0.969872 0.000000
0.965000 0.233827 0.000000
0.035068 0.355031 0.000000
0.035000 0.614878 0.000000
0.040000 0.606218 0.000000
0.035000 0.805404 0.000000
0.040000 0.814064 0.000000
0.965000 0.355070 0.000000
0.965428 0.944227 0.000000
0.965000 0.545596 0.000000
0.965000 0.493634 0.000000
0.965000 0.753442 0.000000
0.035000 0.476314 0.000000
0.040000 0.467654 0.000000
0.965000 0.147224 0.000000
0.964989 0.112577 0.000000
0.959998 0.103922 0.000000
0.965000 0.562917 0.000000
0.965000 0.597558 0.000000
0.965000 0.337750 0.000000
0.965000 0.632199 0.000000
0.960000 0.640859 0.000000
0.964893 0.961776 0.000000
0.035000 0.129904 0.000000
0.040000 0.121244 0.000000
0.035000 0.649519 0.000000
0.970000 0.242487 0.000000
0.965000 0.251147 0.000000
0.200000 0.727461 0.000000
0.205000 0.736122 0.000000
0.475000 0.614878 0.000000
0.470000 0.623538 0.000000
0.460000 0.623538 0.000000
0.930000 0.848705 0.000000
0.040000 0.259808 0.000000
0.050000 0.259808 0.000000
0.500000 0.710141 0.000000
0.510000 0.710141 0.000000
0.955000 0.770763 0.000000
0.945000 0.770763 0.000000
0.965000 0.770763 0.000000
0.045000 0.718801 0.000000
0.035202 0.718684 0.000000
0.050000 0.467654 0.000000
0.045000 0.458993 0.000000
0.035000 0.458993 0.000000
0.040000 0.450333 0.000000
0.050000 0.450333 0.000000
0.045000 0.441673 0.000000
0.035000 0.441673 0.000000
0.040000 0.433013 0.000000
0.735000 0.597558 0.000000
0.740000 0.588897 0.000000
0.780000 0.121244 0.000000
0.760000 0.242487 0.000000
0.765000 0.251147 0.000000
0.265000 0.181865 0.000000
0.270000 0.173205 0.000000
0.095000 0.320429 0.000000
0.385000 0.285788 0.000000
0.200000 0.554256 0.000000
0.205000 0.562917 0.000000
0.195000 0.545596 0.000000
0.685000 0.718801 0.000000
0.695000 0.718801 0.000000
0.675000 0.718801 0.000000
0.365000 0.285788 0.000000
0.125000 0.441673 0.000000
0.120000 0.433013 0.000000
0.820000 0.848705 0.000000
0.560000 0.640859 0.000000
0.550000 0.640859 0.000000
0.105000 0.372391 0.000000
0.110000 0.381051 0.000000
0.105000 0.389711 0.000000
0.115000 0.389711 0.000000
0.110000 0.398372 0.000000
0.235000 0.840045 0.000000
0.625000 0.718801 0.000000
0.615000 0.718801 0.000000
0.785000 0.389711 0.000000
0.785000 0.129904 0.000000
0.645000 0.718801 0.000000
0.345000 0.285788 0.000000
0.345000 0.788083 0.000000
0.340000 0.779423 0.000000
0.350000 0.796743 0.000000
0.835000 0.874686 0.000000
0.845000 0.874686 0.000000
0.075000 0.060622 0.000000
0.080000 0.051962 0.000000
0.345000 0.389711 0.000000
0.295000 0.285788 0.000000
0.790000 0.259808 0.000000
0.120000 0.796743 0.000000
0.125000 0.805404 0.000000
0.870000 0.311769 0.000000
0.335000 0.545596 0.000000
0.325000 0.545596 0.000000
0.895000 0.528275 0.000000
0.885000 0.528275 0.000000
0.165000 0.510955 0.000000
0.160000 0.502295 0.000000
0.260000 0.225167 0.000000
0.145000 0.614878 0.000000
0.115000 0.822724 0.000000
0.740000 0.848705 0.000000
0.745000 0.857365 0.000000
0.200000 0.277128 0.000000
0.205000 0.285788 0.000000
0.745000 0.943968 0.000000
0.095000 0.943968 0.000000
0.100000 0.952628 0.000000
0.095000 0.961288 0.000000
0.105000 0.961288 0.000000
0.320000 0.051962 0.000000
0.315000 0.043301 0.000000
0.305000 0.043301 0.000000
0.205000 0.840045 0.000000
0.860000 0.329090 0.000000
0.250000 0.207846 0.000000
0.780000 0.866025 0.000000
0.920000 0.710141 0.000000
0.900000 0.051962 0.000000
0.905000 0.043301 0.000000
0.360000 0.519615 0.000000
0.365000 0.510955 0.000000
0.680000 0.173205 0.000000
0.690000 0.173205 0.000000
0.240000 0.640859 0.000000
0.245000 0.649519 0.000000
0.255000 0.147224 0.000000
0.125000 0.216506 0.000000
0.135000 0.251147 0.000000
0.140000 0.259808 0.000000
0.150000 0.259808 0.000000
0.610000 0.727461 0.000000
0.605000 0.718801 0.000000
0.845000 0.892006 0.000000
0.350000 0.536936 0.000000
0.160000 0.467654 0.000000
0.155000 0.476314 0.000000
0.525000 0.060622 0.000000
0.950000 0.311769 0.000000
0.960000 0.311769 0.000000
0.965000 0.303109 0.000000
0.075000 0.251147 0.000000
0.345000 0.060622 0.000000
0.430000 0.363731 0.000000
0.440000 0.363731 0.000000
0.420000 0.363731 0.000000
0.205000 0.147224 0.000000
0.200000 0.138564 0.000000
0.675000 0.285788 0.000000
0.680000 0.294449 0.000000
0.120000 0.606218 0.000000
0.125000 0.597558 0.000000
0.135000 0.597558 0.000000
0.130000 0.588897 0.000000
0.120000 0.588897 0.000000
0.125000 0.580237 0.000000
0.115000 0.580237 0.000000
0.120000 0.571577 0.000000
0.110000 0.571577 0.000000
0.100000 0.796743 0.000000
0.505000 0.528275 0.000000
0.655000 0.770763 0.000000
0.660000 0.762102 0.000000
0.855000 0.355070 0.000000
0.905000 0.233827 0.000000
0.895000 0.233827 0.000000
0.105000 0.857365 0.000000
0.165000 0.129904 0.000000
0.160000 0.121244 0.000000
0.170000 0.138564 0.000000
0.875000 0.649519 0.000000
0.460000 0.190526 0.000000
0.465000 0.181865 0.000000
0.460000 0.173205 0.000000
0.230000 0.831384 0.000000
0.960000 0.588897 0.000000
0.385000 0.181865 0.000000
0.395000 0.181865 0.000000
0.215000 0.597558 0.000000
0.665000 0.805404 0.000000
0.590000 0.606218 0.000000
0.720000 0.311769 0.000000
0.725000 0.320429 0.000000
0.160000 0.225167 0.000000
0.545000 0.060622 0.000000
0.550000 0.606218 0.000000
0.750000 0.796743 0.000000
0.745000 0.788083 0.000000
0.090000 0.121244 0.000000
0.190000 0.900666 0.000000
0.180000 0.900666 0.000000
0.815000 0.199186 0.000000
0.810000 0.207846 0.000000
0.820000 0.190526 0.000000
0.710000 0.848705 0.000000
0.525000 0.337750 0.000000
0.530000 0.346410 0.000000
0.705000 0.580237 0.000000
0.715000 0.580237 0.000000
0.570000 0.069282 0.000000
0.160000 0.086603 0.000000
0.710000 0.242487 0.000000
0.540000 0.502295 0.000000
0.585000 0.268468 0.000000
0.580000 0.277128 0.000000
0.585000 0.285788 0.000000
0.575000 0.285788 0.000000
0.580000 0.294449 0.000000
0.570000 0.294449 0.000000
0.325000 0.095263 0.000000
0.450000 0.866025 0.000000
0.440000 0.866025 0.000000
0.435000 0.857365 0.000000
0.430000 0.866025 0.000000
0.425000 0.857365 0.000000
0.420000 0.866025 0.000000
0.670000 0.173205 0.000000
0.660000 0.831384 0.000000
0.925000 0.684160 0.000000
0.565000 0.528275 0.000000
0.575000 0.528275 0.000000
0.350000 0.675500 0.000000
0.345000 0.684160 0.000000
0.335000 0.684160 0.000000
0.340000 0.692820 0.000000
0.330000 0.692820 0.000000
0.480000 0.606218 0.000000
0.335000 0.632199 0.000000
0.340000 0.623538 0.000000
0.885000 0.268468 0.000000
0.880000 0.259808 0.000000
0.585000 0.372391 0.000000
0.580000 0.381051 0.000000
0.685000 0.753442 0.000000
0.535000 0.493634 0.000000
0.590000 0.242487 0.000000
0.110000 0.848705 0.000000
0.940000 0.311769 0.000000
0.320000 0.103923 0.000000
0.325000 0.112583 0.000000
0.520000 0.329090 0.000000
0.255000 0.077942 0.000000
0.320000 0.536936 0.000000
0.315000 0.545596 0.000000
0.455000 0.562917 0.000000
0.270000 0.831384 0.000000
0.650000 0.502295 0.000000
0.840000 0.796743 0.000000
0.850000 0.796743 0.000000
0.855000 0.788083 0.000000
0.575000 0.303109 0.000000
0.580000 0.225167 0.000000
0.590000 0.225167 0.000000
0.875000 0.614878 0.000000
0.155000 0.095263 0.000000
0.735000 0.788083 0.000000
0.740000 0.779423 0.000000
0.560000 0.225167 0.000000
0.550000 0.225167 0.000000
0.170000 0.952628 0.000000
0.165000 0.961288 0.000000
0.565000 0.303109 0.000000
0.525000 0.320429 0.000000
0.200000 0.536936 0.000000
0.765000 0.597558 0.000000
0.925000 0.649519 0.000000
0.300000 0.363731 0.000000
0.290000 0.363731 0.000000
0.405000 0.216506 0.000000
0.400000 0.225167 0.000000
0.220000 0.173205 0.000000
0.090000 0.917987 0.000000
0.390000 0.363731 0.000000
0.380000 0.363731 0.000000
0.840000 0.900666 0.000000
0.675000 0.493634 0.000000
0.680000 0.484974 0.000000
0.675000 0.476314 0.000000
0.685000 0.476314 0.000000
0.670000 0.502295 0.000000
0.840000 0.086603 0.000000
0.960000 0.519615 0.000000
0.785000 0.892006 0.000000
0.665000 0.216506 0.000000
0.470000 0.450333 0.000000
0.460000 0.450333 0.000000
0.480000 0.450333 0.000000
0.485000 0.441673 0.000000
0.810000 0.848705 0.000000
0.215000 0.337750 0.000000
0.220000 0.329090 0.000000
0.935000 0.580237 0.000000
0.595000 0.389711 0.000000
0.830000 0.744782 0.000000
0.840000 0.744782 0.000000
0.140000 0.883346 0.000000
0.150000 0.883346 0.000000
0.650000 0.917987 0.000000
0.655000 0.909327 0.000000
0.795000 0.233827 0.000000
0.195000 0.355070 0.000000
0.185000 0.355070 0.000000
0.205000 0.355070 0.000000
0.845000 0.770763 0.000000
0.680000 0.467654 0.000000
0.690000 0.467654 0.000000
0.870000 0.415692 0.000000
0.575000 0.129904 0.000000
0.570000 0.138564 0.000000
0.575000 0.147224 0.000000
0.565000 0.147224 0.000000
0.560000 0.138564 0.000000
0.555000 0.147224 0.000000
0.550000 0.138564 0.000000
0.545000 0.147224 0.000000
0.540000 0.138564 0.000000
0.535000 0.147224 0.000000
0.530000 0.138564 0.000000
0.345000 0.458993 0.000000
0.335000 0.458993 0.000000
0.460000 0.381051 0.000000
0.465000 0.389711 0.000000
0.225000 0.112583 0.000000
0.835000 0.164545 0.000000
0.840000 0.155885 0.000000
0.835000 0.147224 0.000000
0.845000 0.147224 0.000000
0.555000 0.476314 0.000000
0.405000 0.233827 0.000000
0.395000 0.233827 0.000000
0.430000 0.779423 0.000000
0.205000 0.129904 0.000000
0.170000 0.935307 0.000000
0.285000 0.857365 0.000000
0.820000 0.051962 0.000000
0.815000 0.043301 0.000000
0.820000 0.034641 0.000000
0.810000 0.034641 0.000000
0.415000 0.857365 0.000000
0.410000 0.866025 0.000000
0.675000 0.892006 0.000000
0.685000 0.892006 0.000000
0.260000 0.935307 0.000000
0.260000 0.796743 0.000000
0.265000 0.788083 0.000000
0.750000 0.294449 0.000000
0.745000 0.303109 0.000000
0.755000 0.285788 0.000000
0.620000 0.467654 0.000000
0.630000 0.467654 0.000000
0.610000 0.467654 0.000000
0.830000 0.415692 0.000000
0.825000 0.407032 0.000000
0.450000 0.277128 0.000000
0.455000 0.285788 0.000000
0.120000 0.398372 0.000000
0.175000 0.909327 0.000000
0.170000 0.900666 0.000000
0.175000 0.892006 0.000000
0.190000 0.848705 0.000000
0.185000 0.857365 0.000000
0.840000 0.727461 0.000000
0.805000 0.874686 0.000000
0.085000 0.129904 0.000000
0.280000 0.935307 0.000000
0.805000 0.043301 0.000000
0.800000 0.034641 0.000000
0.900000 0.034641 0.000000
0.910000 0.034641 0.000000
0.115000 0.407032 0.000000
0.835000 0.424352 0.000000
0.830000 0.433013 0.000000
0.560000 0.467654 0.000000
0.570000 0.467654 0.000000
0.840000 0.034641 0.000000
0.850000 0.034641 0.000000
0.775000 0.112583 0.000000
0.465000 0.788083 0.000000
0.475000 0.788083 0.000000
0.520000 0.536936 0.000000
0.935000 0.355070 0.000000
0.840000 0.606218 0.000000
0.835000 0.614878 0.000000
0.155000 0.718801 0.000000
0.810000 0.346410 0.000000
0.805000 0.355070 0.000000
0.345000 0.943968 0.000000
0.545000 0.632199 0.000000
0.810000 0.381051 0.000000
0.905000 0.458993 0.000000
0.910000 0.450333 0.000000
0.365000 0.943968 0.000000
0.855000 0.285788 0.000000
0.160000 0.744782 0.000000
0.385000 0.943968 0.000000
0.890000 0.502295 0.000000
0.895000 0.493634 0.000000
0.905000 0.493634 0.000000
0.550000 0.034641 0.000000
0.915000 0.372391 0.000000
0.865000 0.562917 0.000000
0.860000 0.571577 0.000000
0.870000 0.554256 0.000000
0.865000 0.268468 0.000000
0.530000 0.034641 0.000000
0.405000 0.943968 0.000000
0.895000 0.216506 0.000000
0.455000 0.943968 0.000000
0.360000 0.034641 0.000000
0.370000 0.034641 0.000000
0.475000 0.943968 0.000000
0.310000 0.034641 0.000000
0.320000 0.034641 0.000000
0.300000 0.034641 0.000000
0.240000 0.034641 0.000000
0.250000 0.034641 0.000000
0.495000 0.943968 0.000000
0.935000 0.147224 0.000000
0.515000 0.943968 0.000000
0.565000 0.943968 0.000000
0.585000 0.943968 0.000000
0.605000 0.943968 0.000000
0.970000 0.311769 0.000000
0.970000 0.831384 0.000000
0.970000 0.588897 0.000000
0.220000 0.969948 0.000000
0.850000 0.969948 0.000000
0.800000 0.969948 0.000000
0.939976 0.969934 0.000000
0.870000 0.969948 0.000000
0.970000 0.640859 0.000000
0.965000 0.649519 0.000000
0.970000 0.138564 0.000000
0.030000 0.311769 0.000000
0.970073 0.450375 0.000000
0.030000 0.121244 0.000000
0.035000 0.112583 0.000000
0.970000 0.398372 0.000000
0.970000 0.917987 0.000000
0.030000 0.484974 0.000000
0.030000 0.866025 0.000000
0.035000 0.874686 0.000000
0.969490 0.606004 0.000000
0.030000 0.433013 0.000000
0.035000 0.424352 0.000000
0.030000 0.277128 0.000000
0.969987 0.103915 0.000000
0.964997 0.095261 0.000000
0.030713 0.727046 0.000000
0.030000 0.658179 0.000000
0.030000 0.138564 0.000000
0.030000 0.814064 0.000000
0.035000 0.822724 0.000000
0.970000 0.519615 0.000000
0.030000 0.606218 0.000000
0.035000 0.597558 0.000000
0.030000 0.623538 0.000000
0.030000 0.259808 0.000000
0.030000 0.796743 0.000000
0.030000 0.381051 0.000000
0.035000 0.389711 0.000000
0.600000 0.969948 0.000000
0.580000 0.969948 0.000000
0.560000 0.969948 0.000000
0.510000 0.969948 0.000000
0.490000 0.969948 0.000000
0.470000 0.971489 0.000000
0.450000 0.969948 0.000000
0.400000 0.969948 0.000000
0.380000 0.969948 0.000000
0.360281 0.969786 0.000000
0.340000 0.969948 0.000000
0.320000 0.969948 0.000000
0.310000 0.969948 0.000000
0.100000 0.969948 0.000000
0.110000 0.969948 0.000000
0.660000 0.969948 0.000000
0.670000 0.969948 0.000000
0.650281 0.969786 0.000000
0.730000 0.969948 0.000000
0.070000 0.969948 0.000000
0.060000 0.969948 0.000000
0.055000 0.961288 0.000000
0.050000 0.969948 0.000000
0.045000 0.961288 0.000000
0.040000 0.969948 0.000000
0.035000 0.961288 0.000000
0.040000 0.952628 0.000000
0.030000 0.952628 0.000000
0.035000 0.943968 0.000000
0.030000 0.969948 0.000000
0.770000 0.969948 0.000000
0.975000 0.251147 0.000000
0.970000 0.259808 0.000000
0.025258 0.822575 0.000000
0.029682 0.831568 0.000000
0.025000 0.441673 0.000000
0.465000 0.632199 0.000000
0.195000 0.701481 0.000000
0.510000 0.606218 0.000000
0.055000 0.441673 0.000000
0.040034 0.710121 0.000000
0.030242 0.710001 0.000000
0.035046 0.701454 0.000000
0.455000 0.632199 0.000000
0.780000 0.969948 0.000000
0.450000 0.692820 0.000000
0.190000 0.692820 0.000000
0.730000 0.606218 0.000000
0.735000 0.614878 0.000000
0.230000 0.034641 0.000000
0.505000 0.718801 0.000000
0.515000 0.718801 0.000000
0.495000 0.718801 0.000000
0.725000 0.614878 0.000000
0.475000 0.632199 0.000000
0.095000 0.770763 0.000000
0.485000 0.614878 0.000000
0.090000 0.762102 0.000000
0.915000 0.753442 0.000000
0.210000 0.727461 0.000000
0.215000 0.736122 0.000000
0.115000 0.441673 0.000000
0.930000 0.744782 0.000000
0.440000 0.294449 0.000000
0.485000 0.528275 0.000000
0.035000 0.251147 0.000000
0.215000 0.043301 0.000000
0.115000 0.233827 0.000000
0.775000 0.943968 0.000000
0.910000 0.051962 0.000000
0.195000 0.147224 0.000000
0.115000 0.181865 0.000000
0.825000 0.199186 0.000000
0.295000 0.043301 0.000000
0.290000 0.034641 0.000000
0.285000 0.043301 0.000000
0.280000 0.034641 0.000000
0.115000 0.164545 0.000000
0.365000 0.389711 0.000000
0.895000 0.077942 0.000000
0.085000 0.060622 0.000000
0.090000 0.051962 0.000000
0.085000 0.043301 0.000000
0.095000 0.043301 0.000000
0.100000 0.051962 0.000000
0.105000 0.043301 0.000000
0.110000 0.051962 0.000000
0.115000 0.043301 0.000000
0.120000 0.051962 0.000000
0.125000 0.043301 0.000000
0.115000 0.060622 0.000000
0.110000 0.034641 0.000000
0.090000 0.034641 0.000000
0.080000 0.034641 0.000000
0.775000 0.926647 0.000000
0.370000 0.519615 0.000000
0.195000 0.164545 0.000000
0.850000 0.900666 0.000000
0.300000 0.294449 0.000000
0.755000 0.251147 0.000000
0.760000 0.259808 0.000000
0.750000 0.242487 0.000000
0.155000 0.961288 0.000000
0.160000 0.969948 0.000000
0.150000 0.969948 0.000000
0.170000 0.969948 0.000000
0.335000 0.407032 0.000000
0.195000 0.251147 0.000000
0.190000 0.242487 0.000000
0.885000 0.285788 0.000000
0.090000 0.155885 0.000000
0.460000 0.034641 0.000000
0.795000 0.147224 0.000000
0.800000 0.138564 0.000000
0.080000 0.969948 0.000000
0.720000 0.848705 0.000000
0.210000 0.277128 0.000000
0.965012 0.441680 0.000000
0.510000 0.727461 0.000000
0.520000 0.727461 0.000000
0.525000 0.718801 0.000000
0.530000 0.727461 0.000000
0.535000 0.718801 0.000000
0.540000 0.727461 0.000000
0.545000 0.718801 0.000000
0.550000 0.727461 0.000000
0.555000 0.718801 0.000000
0.560000 0.727461 0.000000
0.565000 0.718801 0.000000
0.570000 0.727461 0.000000
0.575000 0.718801 0.000000
0.580000 0.727461 0.000000
0.100000 0.329090 0.000000
0.245000 0.199186 0.000000
0.080000 0.121244 0.000000
0.115000 0.961288 0.000000
0.120000 0.969948 0.000000
0.965000 0.805404 0.000000
0.970000 0.796743 0.000000
0.615000 0.943968 0.000000
0.145000 0.268468 0.000000
0.785000 0.407032 0.000000
0.550000 0.467654 0.000000
0.585000 0.718801 0.000000
0.930000 0.155885 0.000000
0.875000 0.043301 0.000000
0.880000 0.034641 0.000000
0.870000 0.034641 0.000000
0.780000 0.138564 0.000000
0.915000 0.736122 0.000000
0.910000 0.727461 0.000000
0.900000 0.242487 0.000000
0.600000 0.727461 0.000000
0.730000 0.536936 0.000000
0.725000 0.545596 0.000000
0.730000 0.554256 0.000000
0.720000 0.554256 0.000000
0.725000 0.562917 0.000000
0.735000 0.528275 0.000000
0.165000 0.458993 0.000000
0.100000 0.866025 0.000000
0.690000 0.710141 0.000000
0.700000 0.710141 0.000000
0.610000 0.710141 0.000000
0.330000 0.554256 0.000000
0.340000 0.554256 0.000000
0.150000 0.467654 0.000000
0.145000 0.476314 0.000000
0.140000 0.467654 0.000000
0.969945 0.121260 0.000000
0.150000 0.484974 0.000000
0.140000 0.484974 0.000000
0.685000 0.164545 0.000000
0.695000 0.164545 0.000000
0.420000 0.294449 0.000000
0.410000 0.294449 0.000000
0.220000 0.606218 0.000000
0.800000 0.744782 0.000000
0.805000 0.753442 0.000000
0.795000 0.736122 0.000000
0.965000 0.407032 0.000000
0.770000 0.692820 0.000000
0.120000 0.450333 0.000000
0.790000 0.155885 0.000000
0.285000 0.233827 0.000000
0.910000 0.381051 0.000000
0.815000 0.389711 0.000000
0.210000 0.588897 0.000000
0.630000 0.917987 0.000000
0.390000 0.173205 0.000000
0.400000 0.173205 0.000000
0.735000 0.857365 0.000000
0.740000 0.866025 0.000000
0.960000 0.225167 0.000000
0.970000 0.225167 0.000000
0.965000 0.216506 0.000000
0.330000 0.848705 0.000000
0.325000 0.857365 0.000000
0.130000 0.554256 0.000000
0.120000 0.554256 0.000000
0.780000 0.554256 0.000000
0.785000 0.562917 0.000000
0.685000 0.285788 0.000000
0.690000 0.294449 0.000000
0.695000 0.285788 0.000000
0.840000 0.623538 0.000000
0.655000 0.718801 0.000000
0.650000 0.710141 0.000000
0.660000 0.710141 0.000000
0.895000 0.840045 0.000000
0.335000 0.424352 0.000000
0.330000 0.433013 0.000000
0.655000 0.736122 0.000000
0.100000 0.831384 0.000000
0.040000 0.762102 0.000000
0.035000 0.770763 0.000000
0.030000 0.762102 0.000000
0.655000 0.874686 0.000000
0.830000 0.710141 0.000000
0.880000 0.883346 0.000000
0.190000 0.554256 0.000000
0.185000 0.545596 0.000000
0.200000 0.259808 0.000000
0.250000 0.138564 0.000000
0.255000 0.649519 0.000000
0.250000 0.658179 0.000000
0.260000 0.658179 0.000000
0.255000 0.666840 0.000000
0.265000 0.666840 0.000000
0.260000 0.675500 0.000000
0.270000 0.675500 0.000000
0.265000 0.684160 0.000000
0.275000 0.684160 0.000000
0.270000 0.692820 0.000000
0.280000 0.692820 0.000000
0.285000 0.684160 0.000000
0.290000 0.692820 0.000000
0.295000 0.684160 0.000000
0.300000 0.692820 0.000000
0.275000 0.666840 0.000000
0.255000 0.684160 0.000000
0.305000 0.684160 0.000000
0.295000 0.701481 0.000000
0.310000 0.692820 0.000000
0.290000 0.675500 0.000000
0.805000 0.840045 0.000000
0.355000 0.632199 0.000000
0.135000 0.164545 0.000000
0.885000 0.580237 0.000000
0.045000 0.337750 0.000000
0.360000 0.381051 0.000000
0.470000 0.121244 0.000000
0.715000 0.303109 0.000000
0.800000 0.225167 0.000000
0.675000 0.961288 0.000000
0.680000 0.969948 0.000000
0.840000 0.415692 0.000000
0.565000 0.285788 0.000000
0.835000 0.493634 0.000000
0.830000 0.484974 0.000000
0.825000 0.493634 0.000000
0.635000 0.770763 0.000000
0.875000 0.355070 0.000000
0.870000 0.346410 0.000000
0.180000 0.346410 0.000000
0.375000 0.510955 0.000000
0.945000 0.025981 0.000000
0.145000 0.493634 0.000000
0.730000 0.831384 0.000000
0.810000 0.623538 0.000000
0.050000 0.207846 0.000000
0.040000 0.207846 0.000000
0.035000 0.216506 0.000000
0.030000 0.207846 0.000000
0.035000 0.199186 0.000000
0.765000 0.684160 0.000000
0.210000 0.051962 0.000000
0.655000 0.840045 0.000000
0.770000 0.675500 0.000000
0.325000 0.355070 0.000000
0.235000 0.580237 0.000000
0.245000 0.580237 0.000000
0.335000 0.285788 0.000000
0.120000 0.848705 0.000000
0.330000 0.866025 0.000000
0.830000 0.173205 0.000000
0.780000 0.277128 0.000000
0.110000 0.433013 0.000000
0.960000 0.259808 0.000000
0.555000 0.597558 0.000000
0.565000 0.597558 0.000000
0.685000 0.840045 0.000000
0.155000 0.528275 0.000000
0.165000 0.199186 0.000000
0.730000 0.623538 0.000000
0.720000 0.623538 0.000000
0.725000 0.632199 0.000000
0.715000 0.632199 0.000000
0.720000 0.640859 0.000000
0.710000 0.640859 0.000000
0.705000 0.632199 0.000000
0.700000 0.640859 0.000000
0.520000 0.346410 0.000000
0.590000 0.294449 0.000000
0.315000 0.077942 0.000000
0.435000 0.164545 0.000000
0.425000 0.164545 0.000000
0.445000 0.164545 0.000000
0.575000 0.372391 0.000000
0.570000 0.381051 0.000000
0.575000 0.389711 0.000000
0.565000 0.389711 0.000000
0.560000 0.381051 0.000000
0.555000 0.389711 0.000000
0.550000 0.381051 0.000000
0.365000 0.372391 0.000000
0.355000 0.372391 0.000000
0.360000 0.363731 0.000000
0.350000 0.363731 0.000000
0.560000 0.710141 0.000000
0.280000 0.173205 0.000000
0.835000 0.649519 0.000000
0.350000 0.692820 0.000000
0.345000 0.701481 0.000000
0.710000 0.571577 0.000000
0.700000 0.571577 0.000000
0.540000 0.710141 0.000000
0.095000 0.753442 0.000000
0.275000 0.614878 0.000000
0.100000 0.398372 0.000000
0.660000 0.311769 0.000000
0.720000 0.225167 0.000000
0.730000 0.225167 0.000000
0.735000 0.216506 0.000000
0.555000 0.528275 0.000000
0.290000 0.225167 0.000000
0.800000 0.207846 0.000000
0.670000 0.467654 0.000000
0.635000 0.840045 0.000000
0.260000 0.138564 0.000000
0.265000 0.147224 0.000000
0.260000 0.173205 0.000000
0.730000 0.415692 0.000000
0.325000 0.684160 0.000000
0.315000 0.147224 0.000000
0.340000 0.381051 0.000000
0.570000 0.640859 0.000000
0.790000 0.814064 0.000000
0.780000 0.814064 0.000000
0.785000 0.822724 0.000000
0.775000 0.805404 0.000000
0.465000 0.718801 0.000000
0.475000 0.718801 0.000000
0.425000 0.753442 0.000000
0.420000 0.762102 0.000000
0.415000 0.753442 0.000000
0.855000 0.943968 0.000000
0.450000 0.623538 0.000000
0.445000 0.632199 0.000000
0.440000 0.623538 0.000000
0.435000 0.632199 0.000000
0.430000 0.623538 0.000000
0.425000 0.632199 0.000000
0.100000 0.606218 0.000000
0.485000 0.545596 0.000000
0.705000 0.407032 0.000000
0.525000 0.355070 0.000000
0.370000 0.398372 0.000000
0.610000 0.588897 0.000000
0.435000 0.562917 0.000000
0.430000 0.554256 0.000000
0.835000 0.476314 0.000000
0.825000 0.476314 0.000000
0.830000 0.467654 0.000000
0.820000 0.467654 0.000000
0.825000 0.458993 0.000000
0.835000 0.458993 0.000000
0.650000 0.744782 0.000000
0.660000 0.744782 0.000000
0.490000 0.450333 0.000000
0.215000 0.285788 0.000000
0.290000 0.294449 0.000000
0.285000 0.285788 0.000000
0.405000 0.424352 0.000000
0.360000 0.398372 0.000000
0.395000 0.164545 0.000000
0.575000 0.251147 0.000000
0.685000 0.355070 0.000000
0.635000 0.562917 0.000000
0.555000 0.372391 0.000000
0.545000 0.372391 0.000000
0.535000 0.355070 0.000000
0.270000 0.346410 0.000000
0.090000 0.311769 0.000000
0.815000 0.753442 0.000000
0.515000 0.060622 0.000000
0.515000 0.268468 0.000000
0.165000 0.753442 0.000000
0.215000 0.580237 0.000000
0.205000 0.580237 0.000000
0.265000 0.458993 0.000000
0.455000 0.372391 0.000000
0.790000 0.640859 0.000000
0.820000 0.294449 0.000000
0.270000 0.433013 0.000000
0.725000 0.147224 0.000000
0.700000 0.173205 0.000000
0.705000 0.164545 0.000000
0.710000 0.173205 0.000000
0.715000 0.164545 0.000000
0.720000 0.173205 0.000000
0.605000 0.389711 0.000000
0.815000 0.337750 0.000000
0.490000 0.606218 0.000000
0.355000 0.666840 0.000000
0.360000 0.675500 0.000000
0.365000 0.666840 0.000000
0.480000 0.796743 0.000000
0.485000 0.788083 0.000000
0.650000 0.277128 0.000000
0.655000 0.268468 0.000000
0.320000 0.502295 0.000000
0.350000 0.779423 0.000000
0.345000 0.770763 0.000000
0.335000 0.770763 0.000000
0.375000 0.043301 0.000000
0.380000 0.034641 0.000000
0.385000 0.043301 0.000000
0.390000 0.034641 0.000000
0.770000 0.484974 0.000000
0.555000 0.545596 0.000000
0.045000 0.822724 0.000000
0.330000 0.917987 0.000000
0.490000 0.692820 0.000000
0.630000 0.623538 0.000000
0.625000 0.632199 0.000000
0.635000 0.632199 0.000000
0.630000 0.640859 0.000000
0.640000 0.640859 0.000000
0.635000 0.649519 0.000000
0.625000 0.649519 0.000000
0.440000 0.831384 0.000000
0.520000 0.069282 0.000000
0.860000 0.935307 0.000000
0.595000 0.840045 0.000000
0.310000 0.536936 0.000000
0.735000 0.562917 0.000000
0.640000 0.710141 0.000000
0.355000 0.476314 0.000000
0.360000 0.467654 0.000000
0.365000 0.476314 0.000000
0.215000 0.199186 0.000000
0.375000 0.112583 0.000000
0.460000 0.225167 0.000000
0.145000 0.892006 0.000000
0.750000 0.866025 0.000000
0.305000 0.545596 0.000000
0.310000 0.554256 0.000000
0.395000 0.199186 0.000000
0.530000 0.363731 0.000000
0.315000 0.632199 0.000000
0.240000 0.207846 0.000000
0.245000 0.216506 0.000000
0.730000 0.571577 0.000000
0.715000 0.649519 0.000000
0.155000 0.268468 0.000000
0.160000 0.259808 0.000000
0.170000 0.155885 0.000000
0.675000 0.303109 0.000000
0.490000 0.796743 0.000000
0.495000 0.788083 0.000000
0.280000 0.814064 0.000000
0.415000 0.372391 0.000000
0.690000 0.519615 0.000000
0.370000 0.259808 0.000000
0.370000 0.502295 0.000000
0.380000 0.502295 0.000000
0.035000 0.320429 0.000000
0.700000 0.311769 0.000000
0.555000 0.320429 0.000000
0.550000 0.311769 0.000000
0.540000 0.311769 0.000000
0.065000 0.493634 0.000000
0.070000 0.484974 0.000000
0.065000 0.476314 0.000000
0.075000 0.493634 0.000000
0.095000 0.857365 0.000000
0.555000 0.216506 0.000000
0.580000 0.710141 0.000000
0.590000 0.710141 0.000000
0.400000 0.363731 0.000000
0.685000 0.961288 0.000000
0.690000 0.969948 0.000000
0.695000 0.961288 0.000000
0.700000 0.969948 0.000000
0.690000 0.484974 0.000000
0.934994 0.961285 0.000000
0.929995 0.969946 0.000000
0.800000 0.779423 0.000000
0.375000 0.493634 0.000000
0.045000 0.112583 0.000000
0.275000 0.164545 0.000000
0.255000 0.805404 0.000000
0.595000 0.043301 0.000000
0.600000 0.034641 0.000000
0.605000 0.043301 0.000000
0.610000 0.034641 0.000000
0.615000 0.043301 0.000000
0.620000 0.034641 0.000000
0.655000 0.320429 0.000000
0.645000 0.320429 0.000000
0.235000 0.632199 0.000000
0.705000 0.718801 0.000000
0.260000 0.814064 0.000000
0.710000 0.225167 0.000000
0.365000 0.528275 0.000000
0.830000 0.814064 0.000000
0.650000 0.329090 0.000000
0.640000 0.329090 0.000000
0.550000 0.155885 0.000000
0.085000 0.181865 0.000000
0.600000 0.259808 0.000000
0.350000 0.190526 0.000000
0.215000 0.320429 0.000000
0.225000 0.320429 0.000000
0.220000 0.311769 0.000000
0.140000 0.311769 0.000000
0.395000 0.043301 0.000000
0.400000 0.034641 0.000000
0.405000 0.043301 0.000000
0.410000 0.034641 0.000000
0.415000 0.043301 0.000000
0.420000 0.034641 0.000000
0.210000 0.294449 0.000000
0.680000 0.502295 0.000000
0.075000 0.320429 0.000000
0.280000 0.242487 0.000000
0.270000 0.242487 0.000000
0.275000 0.251147 0.000000
0.175000 0.129904 0.000000
0.935000 0.632199 0.000000
0.540000 0.381051 0.000000
0.645000 0.632199 0.000000
0.650000 0.640859 0.000000
0.655000 0.632199 0.000000
0.660000 0.640859 0.000000
0.120000 0.658179 0.000000
0.195000 0.458993 0.000000
0.190000 0.450333 0.000000
0.200000 0.450333 0.000000
0.195000 0.441673 0.000000
0.185000 0.441673 0.000000
0.190000 0.433013 0.000000
0.205000 0.441673 0.000000
0.210000 0.450333 0.000000
0.215000 0.441673 0.000000
0.210000 0.433013 0.000000
0.950000 0.536936 0.000000
0.960010 0.467660 0.000000
0.970093 0.467640 0.000000
0.665000 0.632199 0.000000
0.670000 0.640859 0.000000
0.675000 0.632199 0.000000
0.680000 0.640859 0.000000
0.685000 0.632199 0.000000
0.925000 0.961288 0.000000
0.919999 0.969948 0.000000
0.915000 0.961288 0.000000
0.910000 0.969948 0.000000
0.905000 0.961288 0.000000
0.900000 0.969948 0.000000
0.315000 0.528275 0.000000
0.565000 0.216506 0.000000
0.545000 0.216506 0.000000
0.540000 0.225167 0.000000
0.230000 0.640859 0.000000
0.225000 0.632199 0.000000
0.950000 0.277128 0.000000
0.720000 0.796743 0.000000
0.960000 0.848705 0.000000
0.965000 0.857365 0.000000
0.705000 0.892006 0.000000
0.150000 0.623538 0.000000
0.125000 0.060622 0.000000
0.960000 0.277128 0.000000
0.965000 0.285788 0.000000
0.970000 0.277128 0.000000
0.475000 0.458993 0.000000
0.435000 0.355070 0.000000
0.445000 0.355070 0.000000
0.500000 0.796743 0.000000
0.315000 0.112583 0.000000
0.825000 0.060622 0.000000
0.625000 0.043301 0.000000
0.630000 0.034641 0.000000
0.205000 0.718801 0.000000
0.410000 0.207846 0.000000
0.070000 0.294449 0.000000
0.105000 0.943968 0.000000
0.100000 0.935307 0.000000
0.790000 0.554256 0.000000
0.080000 0.346410 0.000000
0.890000 0.242487 0.000000
0.885000 0.233827 0.000000
0.880000 0.242487 0.000000
0.530000 0.069282 0.000000
0.310000 0.103923 0.000000
0.755000 0.805404 0.000000
0.890000 0.311769 0.000000
0.500000 0.467654 0.000000
0.300000 0.554256 0.000000
0.750000 0.779423 0.000000
0.745000 0.770763 0.000000
0.735000 0.770763 0.000000
0.740000 0.762102 0.000000
0.395000 0.216506 0.000000
0.730000 0.935307 0.000000
0.425000 0.043301 0.000000
0.230000 0.051962 0.000000
0.215000 0.095263 0.000000
0.320000 0.848705 0.000000
0.315000 0.857365 0.000000
0.210000 0.606218 0.000000
0.215000 0.614878 0.000000
0.970000 0.848705 0.000000
0.900000 0.207846 0.000000
0.040000 0.069282 0.000000
0.035162 0.077848 0.000000
0.029743 0.069292 0.000000
0.040027 0.086587 0.000000
0.030710 0.086254 0.000000
0.250000 0.190526 0.000000
0.180000 0.242487 0.000000
0.565000 0.649519 0.000000
0.575000 0.649519 0.000000
0.115000 0.372391 0.000000
0.110000 0.363731 0.000000
0.845000 0.909327 0.000000
0.290000 0.762102 0.000000
0.300000 0.762102 0.000000
0.280000 0.762102 0.000000
0.275000 0.770763 0.000000
0.710000 0.363731 0.000000
0.720000 0.363731 0.000000
0.155000 0.874686 0.000000
0.810000 0.762102 0.000000
0.535000 0.216506 0.000000
0.530000 0.225167 0.000000
0.240000 0.658179 0.000000
0.045000 0.164545 0.000000
0.035000 0.164545 0.000000
0.040000 0.173205 0.000000
0.030000 0.173205 0.000000
0.030000 0.155885 0.000000
0.745000 0.112583 0.000000
0.425000 0.874686 0.000000
0.570000 0.398372 0.000000
0.955000 0.701481 0.000000
0.960000 0.692820 0.000000
0.965000 0.701481 0.000000
0.970000 0.692820 0.000000
0.965000 0.684160 0.000000
0.455000 0.199186 0.000000
0.465000 0.199186 0.000000
0.595000 0.770763 0.000000
0.954873 0.199259 0.000000
0.385000 0.355070 0.000000
0.375000 0.355070 0.000000
0.180000 0.848705 0.000000
0.220000 0.294449 0.000000
0.125000 0.389711 0.000000
0.165000 0.614878 0.000000
0.430000 0.848705 0.000000
0.235000 0.926647 0.000000
0.855000 0.892006 0.000000
0.115000 0.545596 0.000000
0.110000 0.554256 0.000000
0.105000 0.545596 0.000000
0.100000 0.554256 0.000000
0.065000 0.666840 0.000000
0.865000 0.770763 0.000000
0.870000 0.779423 0.000000
0.860000 0.762102 0.000000
0.570000 0.155885 0.000000
0.810000 0.138564 0.000000
0.890000 0.259808 0.000000
0.200000 0.363731 0.000000
0.410000 0.571577 0.000000
0.675000 0.458993 0.000000
0.095000 0.545596 0.000000
0.625000 0.458993 0.000000
0.830000 0.294449 0.000000
0.320000 0.121244 0.000000
0.330000 0.121244 0.000000
0.325000 0.129904 0.000000
0.335000 0.129904 0.000000
0.775000 0.822724 0.000000
0.315000 0.355070 0.000000
0.405000 0.164545 0.000000
0.465000 0.372391 0.000000
0.355000 0.874686 0.000000
0.365000 0.874686 0.000000
0.370000 0.866025 0.000000
0.375000 0.874686 0.000000
0.380000 0.866025 0.000000
0.345000 0.874686 0.000000
0.385000 0.874686 0.000000
0.410000 0.173205 0.000000
0.745000 0.874686 0.000000
0.755000 0.874686 0.000000
0.135000 0.268468 0.000000
0.495000 0.441673 0.000000
0.490000 0.433013 0.000000
0.500000 0.433013 0.000000
0.495000 0.424352 0.000000
0.645000 0.337750 0.000000
0.635000 0.337750 0.000000
0.210000 0.363731 0.000000
0.905000 0.060622 0.000000
0.230000 0.329090 0.000000
0.915000 0.476314 0.000000
0.830000 0.190526 0.000000
0.545000 0.129904 0.000000
0.295000 0.355070 0.000000
0.969930 0.623579 0.000000
0.665000 0.909327 0.000000
0.130000 0.398372 0.000000
0.105000 0.580237 0.000000
0.580000 0.398372 0.000000
0.635000 0.043301 0.000000
0.640000 0.034641 0.000000
0.140000 0.086603 0.000000
0.135000 0.077942 0.000000
0.405000 0.840045 0.000000
0.040000 0.848705 0.000000
0.030000 0.848705 0.000000
0.065000 0.632199 0.000000
0.445000 0.874686 0.000000
0.845000 0.961288 0.000000
0.950000 0.640859 0.000000
0.875000 0.337750 0.000000
0.215000 0.164545 0.000000
0.785000 0.112583 0.000000
0.215000 0.355070 0.000000
0.840000 0.433013 0.000000
0.400000 0.242487 0.000000
0.390000 0.866025 0.000000
0.395000 0.874686 0.000000
0.460000 0.363731 0.000000
0.400000 0.848705 0.000000
0.235000 0.320429 0.000000
0.210000 0.744782 0.000000
0.890000 0.086603 0.000000
0.740000 0.225167 0.000000
0.635000 0.458993 0.000000
0.845000 0.649519 0.000000
0.710000 0.710141 0.000000
0.715000 0.718801 0.000000
0.070000 0.259808 0.000000
0.075000 0.268468 0.000000
0.065000 0.251147 0.000000
0.760000 0.588897 0.000000
0.770000 0.588897 0.000000
0.740000 0.571577 0.000000
0.165000 0.909327 0.000000
0.110000 0.225167 0.000000
0.385000 0.493634 0.000000
0.380000 0.484974 0.000000
0.245000 0.926647 0.000000
0.075000 0.285788 0.000000
0.455000 0.874686 0.000000
0.665000 0.458993 0.000000
0.390000 0.242487 0.000000
0.385000 0.233827 0.000000
0.380000 0.242487 0.000000
0.510000 0.069282 0.000000
0.905000 0.476314 0.000000
0.760000 0.294449 0.000000
0.815000 0.458993 0.000000
0.410000 0.242487 0.000000
0.420000 0.259808 0.000000
0.100000 0.536936 0.000000
0.090000 0.536936 0.000000
0.120000 0.069282 0.000000
0.850000 0.155885 0.000000
0.855000 0.147224 0.000000
0.580000 0.155885 0.000000
0.645000 0.043301 0.000000
0.650000 0.034641 0.000000
0.655000 0.043301 0.000000
0.660000 0.034641 0.000000
0.665000 0.043301 0.000000
0.670000 0.034641 0.000000
0.675000 0.043301 0.000000
0.680000 0.034641 0.000000
0.760000 0.796743 0.000000
0.225000 0.199186 0.000000
0.810000 0.467654 0.000000
0.860000 0.692820 0.000000
0.850000 0.692820 0.000000
0.100000 0.571577 0.000000
0.655000 0.649519 0.000000
0.340000 0.762102 0.000000
0.330000 0.762102 0.000000
0.200000 0.173205 0.000000
0.435000 0.268468 0.000000
0.335000 0.355070 0.000000
0.135000 0.580237 0.000000
0.255000 0.788083 0.000000
0.505000 0.788083 0.000000
0.510000 0.796743 0.000000
0.685000 0.043301 0.000000
0.690000 0.034641 0.000000
0.695000 0.043301 0.000000
0.700000 0.034641 0.000000
0.705000 0.043301 0.000000
0.710000 0.034641 0.000000
0.815000 0.025981 0.000000
0.420000 0.623538 0.000000
0.840000 0.173205 0.000000
0.715000 0.043301 0.000000
0.720000 0.034641 0.000000
0.725000 0.043301 0.000000
0.730000 0.034641 0.000000
0.735000 0.043301 0.000000
0.740000 0.034641 0.000000
0.725000 0.025981 0.000000
0.745000 0.043301 0.000000
0.750000 0.034641 0.000000
0.095000 0.528275 0.000000
0.085000 0.528275 0.000000
0.125000 0.424352 0.000000
0.515000 0.788083 0.000000
0.520000 0.796743 0.000000
0.525000 0.788083 0.000000
0.480000 0.779423 0.000000
0.850000 0.138564 0.000000
0.860000 0.138564 0.000000
0.860000 0.727461 0.000000
0.095000 0.164545 0.000000
0.175000 0.857365 0.000000
0.180000 0.866025 0.000000
0.675000 0.649519 0.000000
0.685000 0.649519 0.000000
0.530000 0.796743 0.000000
0.535000 0.788083 0.000000
0.540000 0.796743 0.000000
0.545000 0.788083 0.000000
0.550000 0.796743 0.000000
0.555000 0.788083 0.000000
0.840000 0.969948 0.000000
0.335000 0.926647 0.000000
0.260000 0.779423 0.000000
0.195000 0.129904 0.000000
0.820000 0.450333 0.000000
0.850000 0.710141 0.000000
0.805000 0.233827 0.000000
0.810000 0.225167 0.000000
0.800000 0.242487 0.000000
0.565000 0.458993 0.000000
0.635000 0.909327 0.000000
0.130000 0.086603 0.000000
0.435000 0.788083 0.000000
0.665000 0.892006 0.000000
0.755000 0.043301 0.000000
0.760000 0.034641 0.000000
0.765000 0.043301 0.000000
0.770000 0.034641 0.000000
0.755000 0.025981 0.000000
0.110000 0.155885 0.000000
0.130000 0.173205 0.000000
0.540000 0.450333 0.000000
0.640000 0.935307 0.000000
0.120000 0.190526 0.000000
0.795000 0.043301 0.000000
0.790000 0.034641 0.000000
0.795000 0.025981 0.000000
0.480000 0.519615 0.000000
0.775000 0.043301 0.000000
0.575000 0.458993 0.000000
0.580000 0.467654 0.000000
0.585000 0.458993 0.000000
0.590000 0.467654 0.000000
0.595000 0.458993 0.000000
0.090000 0.519615 0.000000
0.075000 0.129904 0.000000
0.080000 0.294449 0.000000
0.325000 0.926647 0.000000
0.845000 0.025981 0.000000
0.860000 0.675500 0.000000
0.865000 0.666840 0.000000
0.825000 0.025981 0.000000
0.545000 0.614878 0.000000
0.540000 0.606218 0.000000
0.560000 0.796743 0.000000
0.565000 0.788083 0.000000
0.570000 0.796743 0.000000
0.575000 0.788083 0.000000
0.580000 0.796743 0.000000
0.585000 0.788083 0.000000
0.750000 0.103923 0.000000
0.740000 0.103923 0.000000
0.760000 0.103923 0.000000
0.780000 0.103923 0.000000
0.705000 0.025981 0.000000
0.905000 0.025981 0.000000
0.915000 0.025981 0.000000
0.685000 0.025981 0.000000
0.545000 0.476314 0.000000
0.185000 0.840045 0.000000
0.500000 0.519615 0.000000
0.865000 0.649519 0.000000
0.540000 0.640859 0.000000
0.545000 0.649519 0.000000
0.590000 0.796743 0.000000
0.820000 0.363731 0.000000
0.665000 0.025981 0.000000
0.785000 0.025981 0.000000
0.070000 0.121244 0.000000
0.830000 0.606218 0.000000
0.855000 0.025981 0.000000
0.830000 0.623538 0.000000
0.645000 0.025981 0.000000
0.445000 0.025981 0.000000
0.860000 0.554256 0.000000
0.880000 0.519615 0.000000
0.905000 0.407032 0.000000
0.910000 0.398372 0.000000
0.895000 0.025981 0.000000
0.425000 0.788083 0.000000
0.420000 0.779423 0.000000
0.625000 0.025981 0.000000
0.605000 0.025981 0.000000
0.805000 0.337750 0.000000
0.885000 0.458993 0.000000
0.585000 0.025981 0.000000
0.575000 0.025981 0.000000
0.920000 0.381051 0.000000
0.535000 0.649519 0.000000
0.835000 0.597558 0.000000
0.910000 0.173205 0.000000
0.345000 0.926647 0.000000
0.835000 0.285788 0.000000
0.810000 0.329090 0.000000
0.865000 0.545596 0.000000
0.875000 0.545596 0.000000
0.870000 0.536936 0.000000
0.825000 0.303109 0.000000
0.245000 0.025981 0.000000
0.405000 0.580237 0.000000
0.410000 0.588897 0.000000
0.400000 0.588897 0.000000
0.405000 0.597558 0.000000
0.315000 0.025981 0.000000
0.925000 0.147224 0.000000
0.405000 0.025981 0.000000
0.875000 0.233827 0.000000
0.385000 0.025981 0.000000
0.940000 0.121244 0.000000
0.365000 0.025981 0.000000
0.955000 0.095263 0.000000
0.185000 0.025981 0.000000
0.295000 0.025981 0.000000
0.870000 0.242487 0.000000
0.325000 0.025981 0.000000
0.045000 0.025981 0.000000
0.255000 0.025981 0.000000
0.260000 0.034641 0.000000
0.435000 0.025981 0.000000
0.880000 0.225167 0.000000
0.265000 0.025981 0.000000
0.920000 0.155885 0.000000
0.610000 0.935307 0.000000
0.625000 0.926647 0.000000
0.935000 0.129904 0.000000
0.355000 0.025981 0.000000
0.175000 0.025981 0.000000
0.170000 0.034641 0.000000
0.165000 0.025981 0.000000
0.160000 0.034641 0.000000
0.155000 0.025981 0.000000
0.150000 0.034641 0.000000
0.145000 0.025981 0.000000
0.035000 0.025981 0.000000
0.030000 0.034641 0.000000
0.600000 0.935307 0.000000
0.960000 0.086602 0.000000
0.969999 0.086602 0.000000
0.965000 0.077942 0.000000
0.974764 0.078079 0.000000
0.969961 0.069312 0.000000
0.025249 0.597701 0.000000
0.030042 0.588921 0.000000
0.040007 0.588901 0.000000
0.035008 0.580242 0.000000
0.975000 0.216662 0.000000
0.970000 0.207846 0.000000
0.025000 0.025981 0.000000
0.025186 0.770655 0.000000
0.974818 0.909432 0.000000
0.969970 0.900684 0.000000
0.974822 0.389760 0.000000
0.969970 0.381059 0.000000
0.025186 0.580202 0.000000
0.030032 0.571572 0.000000
0.040007 0.571577 0.000000
0.035007 0.562916 0.000000
0.025178 0.389760 0.000000
0.030030 0.398380 0.000000
0.040005 0.398373 0.000000
0.975000 0.684160 0.000000
0.970000 0.675500 0.000000
0.975000 0.025981 0.000000
0.025000 0.943968 0.000000
0.030000 0.935307 0.000000
0.040000 0.935307 0.000000
0.035000 0.926647 0.000000
0.025000 0.926647 0.000000
0.030117 0.918054 0.000000
0.040019 0.917998 0.000000
0.035140 0.909407 0.000000
0.045027 0.909342 0.000000
0.040028 0.900682 0.000000
0.030297 0.900662 0.000000
0.050009 0.900672 0.000000
0.045006 0.892010 0.000000
0.025000 0.216506 0.000000
0.030000 0.225167 0.000000
0.025202 0.251031 0.000000
0.975000 0.407032 0.000000
0.970000 0.415692 0.000000
0.975000 0.147224 0.000000
0.970000 0.155885 0.000000
0.018630 0.831137 0.000000
0.025254 0.112437 0.000000
0.979850 0.138651 0.000000
0.025650 0.372248 0.000000
0.974792 0.441553 0.000000
0.025263 0.701329 0.000000
0.030051 0.692791 0.000000
0.974745 0.857512 0.000000
0.969957 0.866050 0.000000
0.974742 0.822575 0.000000
0.025270 0.562763 0.000000
0.030046 0.554231 0.000000
0.974806 0.510843 0.000000
0.974731 0.302954 0.000000
0.025269 0.302954 0.000000
0.020086 0.207898 0.000000
0.974821 0.649599 0.000000
0.965000 0.788083 0.000000
0.975000 0.788083 0.000000
0.045000 0.424352 0.000000
0.460000 0.640859 0.000000
0.950000 0.779423 0.000000
0.940000 0.779423 0.000000
0.935000 0.770763 0.000000
0.930000 0.779423 0.000000
0.925000 0.770763 0.000000
0.030034 0.242468 0.000000
0.020241 0.242348 0.000000
0.050000 0.242487 0.000000
0.050006 0.710138 0.000000
0.035006 0.407033 0.000000
0.025271 0.407186 0.000000
0.535000 0.736122 0.000000
0.785000 0.961288 0.000000
0.945000 0.320429 0.000000
0.935000 0.320429 0.000000
0.060000 0.450333 0.000000
0.085000 0.753442 0.000000
0.090000 0.744782 0.000000
0.960000 0.329090 0.000000
0.970000 0.329090 0.000000
0.974757 0.337890 0.000000
0.725000 0.597558 0.000000
0.475000 0.701481 0.000000
0.470000 0.692820 0.000000
0.220000 0.190526 0.000000
0.415000 0.303109 0.000000
0.085000 0.147224 0.000000
0.950000 0.588897 0.000000
0.075000 0.476314 0.000000
0.500000 0.051962 0.000000
0.495000 0.043301 0.000000
0.185000 0.233827 0.000000
0.630000 0.658179 0.000000
0.345000 0.407032 0.000000
0.969967 0.432994 0.000000
0.165000 0.528275 0.000000
0.725000 0.164545 0.000000
0.730000 0.173205 0.000000
0.950000 0.519615 0.000000
0.545000 0.493634 0.000000
0.595000 0.788083 0.000000
0.305000 0.562917 0.000000
0.295000 0.562917 0.000000
0.885000 0.303109 0.000000
0.810000 0.866025 0.000000
0.820000 0.866025 0.000000
0.265000 0.251147 0.000000
0.270000 0.259808 0.000000
0.260000 0.242487 0.000000
0.155000 0.510955 0.000000
0.790000 0.744782 0.000000
0.890000 0.536936 0.000000
0.900000 0.536936 0.000000
0.965000 0.580237 0.000000
0.975000 0.580237 0.000000
0.045001 0.407032 0.000000
0.860000 0.588897 0.000000
0.850000 0.588897 0.000000
0.690000 0.155885 0.000000
0.030096 0.103930 0.000000
0.840000 0.866025 0.000000
0.850000 0.866025 0.000000
0.855000 0.874686 0.000000
0.860000 0.866025 0.000000
0.065000 0.268468 0.000000
0.105000 0.441673 0.000000
0.340000 0.294449 0.000000
0.330000 0.294449 0.000000
0.350000 0.294449 0.000000
0.090000 0.329090 0.000000
0.095000 0.337750 0.000000
0.130000 0.796743 0.000000
0.135000 0.805404 0.000000
0.130000 0.814064 0.000000
0.780000 0.831384 0.000000
0.215000 0.840045 0.000000
0.220000 0.848705 0.000000
0.055000 0.389711 0.000000
0.205000 0.251147 0.000000
0.725000 0.528275 0.000000
0.240000 0.571577 0.000000
0.220000 0.744782 0.000000
0.725000 0.181865 0.000000
0.735000 0.181865 0.000000
0.895000 0.268468 0.000000
0.085000 0.112583 0.000000
0.165000 0.095263 0.000000
0.275000 0.701481 0.000000
0.265000 0.701481 0.000000
0.080000 0.069282 0.000000
0.965000 0.528275 0.000000
0.974776 0.528405 0.000000
0.145000 0.632199 0.000000
0.155000 0.632199 0.000000
0.910000 0.242487 0.000000
0.770000 0.398372 0.000000
0.380000 0.519615 0.000000
0.930000 0.606218 0.000000
0.030031 0.779405 0.000000
0.018577 0.779593 0.000000
0.840000 0.640859 0.000000
0.220000 0.277128 0.000000
0.965000 0.926647 0.000000
0.975000 0.926647 0.000000
0.790000 0.831384 0.000000
0.325000 0.077942 0.000000
0.330000 0.034641 0.000000
0.335000 0.025981 0.000000
0.180000 0.692820 0.000000
0.185000 0.684160 0.000000
0.750000 0.675500 0.000000
0.295000 0.753442 0.000000
0.140000 0.173205 0.000000
0.440000 0.155885 0.000000
0.780000 0.883346 0.000000
0.650000 0.762102 0.000000
0.180000 0.433013 0.000000
0.185000 0.424352 0.000000
0.195000 0.424352 0.000000
0.175000 0.441673 0.000000
0.605000 0.736122 0.000000
0.165000 0.493634 0.000000
0.865000 0.874686 0.000000
0.470000 0.173205 0.000000
0.465000 0.164545 0.000000
0.475000 0.181865 0.000000
0.560000 0.588897 0.000000
0.280000 0.259808 0.000000
0.275000 0.268468 0.000000
0.855000 0.909327 0.000000
0.850000 0.917987 0.000000
0.175000 0.233827 0.000000
0.680000 0.277128 0.000000
0.380000 0.173205 0.000000
0.175000 0.112583 0.000000
0.070000 0.242487 0.000000
0.635000 0.320429 0.000000
0.525000 0.147224 0.000000
0.530000 0.155885 0.000000
0.160000 0.103923 0.000000
0.525000 0.216506 0.000000
0.520000 0.225167 0.000000
0.525000 0.233827 0.000000
0.515000 0.233827 0.000000
0.520000 0.242487 0.000000
0.510000 0.242487 0.000000
0.320000 0.277128 0.000000
0.330000 0.069282 0.000000
0.670000 0.762102 0.000000
0.110000 0.138564 0.000000
0.910000 0.762102 0.000000
0.575000 0.268468 0.000000
0.330000 0.138564 0.000000
0.340000 0.138564 0.000000
0.115000 0.840045 0.000000
0.685000 0.822724 0.000000
0.680000 0.814064 0.000000
0.730000 0.311769 0.000000
0.735000 0.320429 0.000000
0.730000 0.329090 0.000000
0.740000 0.329090 0.000000
0.735000 0.337750 0.000000
0.745000 0.320429 0.000000
0.455000 0.407032 0.000000
0.465000 0.407032 0.000000
0.030045 0.294423 0.000000
0.515000 0.355070 0.000000
0.740000 0.623538 0.000000
0.035000 0.181865 0.000000
0.025000 0.181865 0.000000
0.700000 0.294449 0.000000
0.705000 0.285788 0.000000
0.515000 0.320429 0.000000
0.510000 0.329090 0.000000
0.520000 0.311769 0.000000
0.690000 0.848705 0.000000
0.695000 0.840045 0.000000
0.550000 0.363731 0.000000
0.295000 0.389711 0.000000
0.285000 0.389711 0.000000
0.280000 0.381051 0.000000
0.275000 0.389711 0.000000
0.280000 0.398372 0.000000
0.270000 0.398372 0.000000
0.275000 0.407032 0.000000
0.270000 0.381051 0.000000
0.275000 0.372391 0.000000
0.225000 0.961288 0.000000
0.230000 0.969948 0.000000
0.440000 0.554256 0.000000
0.435000 0.545596 0.000000
0.425000 0.545596 0.000000
0.430000 0.536936 0.000000
0.440000 0.536936 0.000000
0.435000 0.528275 0.000000
0.445000 0.528275 0.000000
0.135000 0.892006 0.000000
0.375000 0.233827 0.000000
0.580000 0.363731 0.000000
0.715000 0.840045 0.000000
0.605000 0.476314 0.000000
0.485000 0.597558 0.000000
0.800000 0.259808 0.000000
0.415000 0.632199 0.000000
0.765000 0.389711 0.000000
0.665000 0.268468 0.000000
0.640000 0.467654 0.000000
0.645000 0.458993 0.000000
0.045000 0.788083 0.000000
0.320000 0.796743 0.000000
0.570000 0.536936 0.000000
0.580000 0.536936 0.000000
0.585000 0.528275 0.000000
0.590000 0.536936 0.000000
0.890000 0.606218 0.000000
0.885000 0.597558 0.000000
0.545000 0.303109 0.000000
0.765000 0.285788 0.000000
0.760000 0.277128 0.000000
0.175000 0.355070 0.000000
0.170000 0.346410 0.000000
0.180000 0.363731 0.000000
0.660000 0.259808 0.000000
0.125000 0.961288 0.000000
0.130000 0.969948 0.000000
0.425000 0.614878 0.000000
0.415000 0.614878 0.000000
0.270000 0.086603 0.000000
0.650000 0.831384 0.000000
0.120000 0.779423 0.000000
0.300000 0.536936 0.000000
0.150000 0.121244 0.000000
0.125000 0.840045 0.000000
0.675000 0.510955 0.000000
0.665000 0.510955 0.000000
0.775000 0.597558 0.000000
0.330000 0.623538 0.000000
0.335000 0.614878 0.000000
0.345000 0.614878 0.000000
0.915000 0.199186 0.000000
0.585000 0.216506 0.000000
0.595000 0.216506 0.000000
0.600000 0.225167 0.000000
0.295000 0.233827 0.000000
0.300000 0.225167 0.000000
0.460000 0.207846 0.000000
0.800000 0.848705 0.000000
0.080000 0.519615 0.000000
0.085000 0.510955 0.000000
0.585000 0.701481 0.000000
0.680000 0.623538 0.000000
0.570000 0.311769 0.000000
0.580000 0.311769 0.000000
0.840000 0.762102 0.000000
0.515000 0.251147 0.000000
0.860000 0.796743 0.000000
0.855000 0.805404 0.000000
0.355000 0.355070 0.000000
0.275000 0.043301 0.000000
0.280000 0.051962 0.000000
0.700000 0.363731 0.000000
0.695000 0.372391 0.000000
0.050000 0.640859 0.000000
0.850000 0.935307 0.000000
0.865000 0.753442 0.000000
0.095000 0.303109 0.000000
0.550000 0.207846 0.000000
0.210000 0.831384 0.000000
0.200000 0.831384 0.000000
0.170000 0.277128 0.000000
0.105000 0.597558 0.000000
0.730000 0.762102 0.000000
0.735000 0.753442 0.000000
0.325000 0.770763 0.000000
0.320000 0.762102 0.000000
0.265000 0.407032 0.000000
0.260000 0.398372 0.000000
0.270000 0.415692 0.000000
0.870000 0.588897 0.000000
0.880000 0.086603 0.000000
0.885000 0.095263 0.000000
0.900000 0.727461 0.000000
0.905000 0.718801 0.000000
0.060000 0.606218 0.000000
0.655000 0.822724 0.000000
0.150000 0.103923 0.000000
0.100000 0.779423 0.000000
0.090000 0.779423 0.000000
0.835000 0.199186 0.000000
0.835000 0.909327 0.000000
0.370000 0.467654 0.000000
0.170000 0.536936 0.000000
0.130000 0.779423 0.000000
0.960000 0.484974 0.000000
0.970111 0.484910 0.000000
0.975019 0.493624 0.000000
0.930000 0.311769 0.000000
0.170000 0.086603 0.000000
0.335000 0.441673 0.000000
0.325000 0.441673 0.000000
0.090000 0.554256 0.000000
0.170000 0.917987 0.000000
0.800000 0.883346 0.000000
0.265000 0.060622 0.000000
0.830000 0.762102 0.000000
0.380000 0.883346 0.000000
0.920000 0.034641 0.000000
0.925000 0.025981 0.000000
0.600000 0.398372 0.000000
0.610000 0.398372 0.000000
0.815000 0.060622 0.000000
0.320000 0.346410 0.000000
0.350000 0.883346 0.000000
0.035000 0.632199 0.000000
0.024947 0.632125 0.000000
0.520000 0.138564 0.000000
0.285000 0.355070 0.000000
0.680000 0.900666 0.000000
0.690000 0.900666 0.000000
0.715000 0.355070 0.000000
0.725000 0.355070 0.000000
0.045000 0.181865 0.000000
0.890000 0.952628 0.000000
0.885000 0.961288 0.000000
0.855000 0.129904 0.000000
0.865000 0.129904 0.000000
0.365000 0.458993 0.000000
0.795000 0.874686 0.000000
0.790000 0.017321 0.000000
0.770000 0.883346 0.000000
0.155000 0.892006 0.000000
0.150000 0.900666 0.000000
0.805000 0.129904 0.000000
0.270000 0.762102 0.000000
0.200000 0.121244 0.000000
0.210000 0.121244 0.000000
0.775000 0.251147 0.000000
0.630000 0.450333 0.000000
0.600000 0.796743 0.000000
0.775000 0.268468 0.000000
0.755000 0.095263 0.000000
0.525000 0.129904 0.000000
0.180000 0.138564 0.000000
0.855000 0.736122 0.000000
0.120000 0.242487 0.000000
0.125000 0.233827 0.000000
0.115000 0.251147 0.000000
0.855000 0.753442 0.000000
0.740000 0.051962 0.000000
0.450000 0.779423 0.000000
0.455000 0.770763 0.000000
0.110000 0.069282 0.000000
0.460000 0.277128 0.000000
0.455000 0.268468 0.000000
0.465000 0.285788 0.000000
0.460000 0.294449 0.000000
0.545000 0.805404 0.000000
0.170000 0.848705 0.000000
0.450000 0.796743 0.000000
0.110000 0.207846 0.000000
0.170000 0.866025 0.000000
0.175000 0.874686 0.000000
0.550000 0.502295 0.000000
0.500000 0.779423 0.000000
0.835000 0.441673 0.000000
0.845000 0.441673 0.000000
0.410000 0.762102 0.000000
0.405000 0.753442 0.000000
0.410000 0.744782 0.000000
0.400000 0.744782 0.000000
0.405000 0.736122 0.000000
0.395000 0.736122 0.000000
0.400000 0.727461 0.000000
0.410000 0.727461 0.000000
0.405000 0.718801 0.000000
0.835000 0.701481 0.000000
0.830000 0.692820 0.000000
0.800000 0.051962 0.000000
0.969970 0.658193 0.000000
0.959995 0.658182 0.000000
0.805000 0.372391 0.000000
0.795000 0.372391 0.000000
0.575000 0.805404 0.000000
0.155000 0.736122 0.000000
0.145000 0.736122 0.000000
0.550000 0.519615 0.000000
0.545000 0.528275 0.000000
0.840000 0.398372 0.000000
0.835000 0.389711 0.000000
0.770000 0.051962 0.000000
0.820000 0.017321 0.000000
0.530000 0.536936 0.000000
0.525000 0.545596 0.000000
0.515000 0.545596 0.000000
0.140000 0.034641 0.000000
0.135000 0.025981 0.000000
0.145000 0.043301 0.000000
0.875000 0.025981 0.000000
0.330000 0.935307 0.000000
0.420000 0.536936 0.000000
0.820000 0.381051 0.000000
0.530000 0.623538 0.000000
0.165000 0.736122 0.000000
0.440000 0.519615 0.000000
0.450000 0.519615 0.000000
0.840000 0.294449 0.000000
0.900000 0.450333 0.000000
0.905000 0.441673 0.000000
0.915000 0.441673 0.000000
0.910000 0.433013 0.000000
0.920000 0.433013 0.000000
0.915000 0.424352 0.000000
0.890000 0.467654 0.000000
0.885000 0.476314 0.000000
0.885000 0.493634 0.000000
0.880000 0.502295 0.000000
0.580000 0.017321 0.000000
0.180000 0.744782 0.000000
0.185000 0.753442 0.000000
0.195000 0.753442 0.000000
0.190000 0.762102 0.000000
0.200000 0.762102 0.000000
0.195000 0.770763 0.000000
0.185000 0.770763 0.000000
0.920000 0.363731 0.000000
0.915000 0.355070 0.000000
0.890000 0.207846 0.000000
0.895000 0.199186 0.000000
0.630000 0.952628 0.000000
0.635281 0.960744 0.000000
0.320000 0.017321 0.000000
0.140000 0.017321 0.000000
0.250000 0.017321 0.000000
0.205000 0.025981 0.000000
0.215000 0.025981 0.000000
0.915000 0.147224 0.000000
0.930000 0.121244 0.000000
0.085000 0.025981 0.000000
0.075000 0.025981 0.000000
0.095000 0.025981 0.000000
0.055000 0.978609 0.000000
0.314719 0.978447 0.000000
0.164719 0.978447 0.000000
0.214719 0.978447 0.000000
0.685000 0.978222 0.000000
0.865000 0.978222 0.000000
0.115000 0.978609 0.000000
0.075000 0.978609 0.000000
0.805281 0.978447 0.000000
0.655000 0.978609 0.000000
0.905000 0.978609 0.000000
0.925000 0.978609 0.000000
0.775281 0.978447 0.000000
0.945254 0.978432 0.000000
0.025178 0.320358 0.000000
0.030030 0.329078 0.000000
0.974706 0.285958 0.000000
0.025000 0.649519 0.000000
0.025296 0.424181 0.000000
0.974700 0.805577 0.000000
0.020208 0.952508 0.000000
0.974785 0.701356 0.000000
0.969964 0.710120 0.000000
0.025301 0.874512 0.000000
0.020360 0.865823 0.000000
0.030050 0.883317 0.000000
0.025283 0.476477 0.000000
0.785047 0.978195 0.000000
0.815047 0.978195 0.000000
0.954058 0.979974 0.000000
0.304953 0.978195 0.000000
0.299992 0.969880 0.000000
0.204953 0.978195 0.000000
0.021215 0.882451 0.000000
0.981281 0.278081 0.000000
0.020142 0.484986 0.000000
0.025306 0.493474 0.000000
0.979937 0.225000 0.000000
0.020391 0.294525 0.000000
0.020390 0.554370 0.000000
0.025370 0.545782 0.000000
0.035069 0.545623 0.000000
0.030073 0.536971 0.000000
0.018523 0.537896 0.000000
0.024766 0.528441 0.000000
0.015277 0.527856 0.000000
0.981343 0.311141 0.000000
0.979617 0.865857 0.000000
0.974628 0.874488 0.000000
0.981356 0.830910 0.000000
0.981359 0.849143 0.000000
0.020920 0.172488 0.000000
0.015432 0.180524 0.000000
0.294998 0.978388 0.000000
0.324960 0.979417 0.000000
0.645033 0.977224 0.000000
0.174673 0.978037 0.000000
0.179945 0.969853 0.000000
0.184977 0.978289 0.000000
0.085000 0.978609 0.000000
0.765327 0.978037 0.000000
0.895000 0.978609 0.000000
0.875000 0.978392 0.000000
0.981372 0.329373 0.000000
0.981570 0.241669 0.000000
0.984062 0.250670 0.000000
0.020684 0.519663 0.000000
0.020744 0.190182 0.000000
0.985074 0.216064 0.000000
0.981416 0.710074 0.000000
0.975000 0.718801 0.000000
0.018652 0.658818 0.000000
0.025000 0.666840 0.000000
0.020717 0.259837 0.000000
0.981692 0.589703 0.000000
0.984350 0.580306 0.000000
0.981529 0.570948 0.000000
0.981373 0.380739 0.000000
0.975000 0.372391 0.000000
0.981383 0.640627 0.000000
0.035000 0.978609 0.000000
0.025000 0.978609 0.000000
0.309384 0.985643 0.000000
0.209384 0.985643 0.000000
0.845281 0.978064 0.000000
0.835017 0.978297 0.000000
0.810616 0.985643 0.000000
0.780616 0.985643 0.000000
0.950000 0.987269 0.000000
0.981382 0.900512 0.000000
0.975000 0.892006 0.000000
0.018580 0.329397 0.000000
0.025000 0.337750 0.000000
0.018527 0.970059 0.000000
0.019087 0.710115 0.000000
0.981507 0.450206 0.000000
0.980000 0.658179 0.000000
0.981403 0.069588 0.000000
0.975000 0.060622 0.000000
0.020000 0.762102 0.000000
0.025000 0.753442 0.000000
0.014992 0.753726 0.000000
0.019941 0.745172 0.000000
0.018594 0.120756 0.000000
0.020000 0.692820 0.000000
0.025009 0.684155 0.000000
0.015203 0.684489 0.000000
0.020300 0.917551 0.000000
0.980060 0.432963 0.000000
0.979802 0.086629 0.000000
0.020155 0.623506 0.000000
0.980075 0.017040 0.000000
0.020215 0.606290 0.000000
0.020505 0.104292 0.000000
0.020617 0.814156 0.000000
0.980177 0.155800 0.000000
0.975029 0.164470 0.000000
0.985039 0.164646 0.000000
0.979904 0.173402 0.000000
0.984041 0.182708 0.000000
0.974281 0.181593 0.000000
0.978498 0.190631 0.000000
0.969293 0.190251 0.000000
0.988368 0.191173 0.000000
0.980104 0.415657 0.000000
0.019711 0.225143 0.000000
0.980429 0.484902 0.000000
0.980216 0.675452 0.000000
0.984921 0.684245 0.000000
0.019827 0.034672 0.000000
0.024971 0.043306 0.000000
0.014924 0.025620 0.000000
0.019912 0.016979 0.000000
0.985025 0.493868 0.000000
0.985534 0.475549 0.000000
0.985052 0.025695 0.000000
0.980312 0.034712 0.000000
0.985330 0.044230 0.000000
0.015165 0.944082 0.000000
0.015000 0.043301 0.000000
0.020175 0.051859 0.000000
0.984064 0.198729 0.000000
0.015094 0.925957 0.000000
0.016446 0.908135 0.000000
0.975307 0.043572 0.000000
0.009693 0.953518 0.000000
0.984999 0.406508 0.000000
0.985177 0.424534 0.000000
0.985105 0.666373 0.000000
0.009676 0.053014 0.000000
0.975668 0.475928 0.000000
0.980669 0.467294 0.000000
0.980212 0.052501 0.000000
0.985029 0.147224 0.000000
0.989168 0.139059 0.000000
0.975228 0.458991 0.000000
0.970000 0.779423 0.000000
0.979329 0.779554 0.000000
0.984601 0.789368 0.000000
0.974703 0.770677 0.000000
0.969950 0.762088 0.000000
0.979851 0.762031 0.000000
0.975051 0.753428 0.000000
0.970009 0.744779 0.000000
0.980293 0.744807 0.000000
0.975050 0.736125 0.000000
0.985014 0.736025 0.000000
0.984996 0.753773 0.000000
0.990617 0.763676 0.000000
0.020305 0.675710 0.000000
0.009719 0.675341 0.000000
0.225000 0.736122 0.000000
0.420000 0.640859 0.000000
0.935000 0.788083 0.000000
0.925000 0.788083 0.000000
0.930000 0.796743 0.000000
0.935000 0.805404 0.000000
0.925000 0.805404 0.000000
0.930000 0.814064 0.000000
0.920000 0.814064 0.000000
0.215000 0.718801 0.000000
0.440000 0.640859 0.000000
0.200000 0.692820 0.000000
0.205000 0.701481 0.000000
0.035010 0.684154 0.000000
0.395000 0.597558 0.000000
0.390000 0.588897 0.000000
0.065000 0.441673 0.000000
0.060000 0.433013 0.000000
0.915000 0.805404 0.000000
0.910000 0.814064 0.000000
0.915000 0.822724 0.000000
0.905000 0.822724 0.000000
0.910000 0.831384 0.000000
0.095000 0.562917 0.000000
0.395000 0.718801 0.000000
0.960000 0.779423 0.000000
0.570000 0.658179 0.000000
0.795335 0.977964 0.000000
0.695000 0.632199 0.000000
0.750000 0.259808 0.000000
0.495000 0.614878 0.000000
0.490000 0.623538 0.000000
0.640000 0.658179 0.000000
0.024999 0.233811 0.000000
0.015085 0.233942 0.000000
0.014997 0.216180 0.000000
0.009619 0.243407 0.000000
0.009371 0.206299 0.000000
0.515000 0.736122 0.000000
0.500000 0.606218 0.000000
0.505000 0.597558 0.000000
0.515000 0.597558 0.000000
0.835000 0.632199 0.000000
0.540000 0.484974 0.000000
0.530000 0.484974 0.000000
0.075000 0.753442 0.000000
0.080000 0.138564 0.000000
0.080000 0.744782 0.000000
0.085000 0.736122 0.000000
0.075000 0.736122 0.000000
0.080000 0.727461 0.000000
0.090000 0.727461 0.000000
0.070000 0.277128 0.000000
0.080000 0.277128 0.000000
0.680000 0.658179 0.000000
0.795000 0.251147 0.000000
0.605000 0.788083 0.000000
0.350000 0.762102 0.000000
0.345000 0.753442 0.000000
0.925000 0.753442 0.000000
0.555000 0.736122 0.000000
0.070000 0.450333 0.000000
0.065000 0.458993 0.000000
0.220000 0.831384 0.000000
0.070000 0.433013 0.000000
0.405000 0.303109 0.000000
0.400000 0.294449 0.000000
0.345000 0.355070 0.000000
0.590000 0.779423 0.000000
0.865000 0.147224 0.000000
0.080000 0.536936 0.000000
0.575000 0.736122 0.000000
0.265000 0.770763 0.000000
0.075000 0.510955 0.000000
0.125000 0.077942 0.000000
0.690000 0.640859 0.000000
0.695000 0.649519 0.000000
0.705000 0.649519 0.000000
0.755000 0.268468 0.000000
0.340000 0.363731 0.000000
0.180000 0.225167 0.000000
0.175000 0.528275 0.000000
0.150000 0.277128 0.000000
0.205000 0.822724 0.000000
0.120000 0.363731 0.000000
0.960000 0.571577 0.000000
0.950000 0.571577 0.000000
0.969963 0.536957 0.000000
0.981276 0.537937 0.000000
0.975000 0.545596 0.000000
0.875000 0.251147 0.000000
0.865000 0.251147 0.000000
0.705000 0.701481 0.000000
0.715000 0.701481 0.000000
0.970000 0.554256 0.000000
0.979663 0.554400 0.000000
0.975000 0.562917 0.000000
0.780000 0.935307 0.000000
0.790000 0.935307 0.000000
0.981353 0.519711 0.000000
0.105000 0.562917 0.000000
0.395000 0.303109 0.000000
0.289998 0.969900 0.000000
0.285000 0.978398 0.000000
0.280000 0.969905 0.000000
0.275000 0.978399 0.000000
0.270000 0.969906 0.000000
0.265000 0.978399 0.000000
0.260000 0.969906 0.000000
0.254719 0.978022 0.000000
0.249953 0.969844 0.000000
0.244665 0.978331 0.000000
0.925000 0.424352 0.000000
0.040009 0.883342 0.000000
0.255000 0.251147 0.000000
0.190000 0.225167 0.000000
0.175000 0.216506 0.000000
0.585000 0.736122 0.000000
0.735000 0.874686 0.000000
0.740000 0.883346 0.000000
0.135000 0.493634 0.000000
0.130000 0.484974 0.000000
0.140000 0.502295 0.000000
0.740000 0.242487 0.000000
0.795000 0.129904 0.000000
0.975051 0.424365 0.000000
0.345000 0.303109 0.000000
0.770000 0.935307 0.000000
0.760000 0.935307 0.000000
0.765000 0.926647 0.000000
0.325000 0.753442 0.000000
0.700000 0.623538 0.000000
0.210000 0.692820 0.000000
0.085000 0.718801 0.000000
0.075000 0.718801 0.000000
0.080000 0.710141 0.000000
0.855327 0.978292 0.000000
0.860616 0.985622 0.000000
0.390000 0.502295 0.000000
0.395000 0.493634 0.000000
0.745000 0.216506 0.000000
0.740000 0.207846 0.000000
0.750000 0.225167 0.000000
0.915000 0.164545 0.000000
0.775000 0.389711 0.000000
0.265000 0.268468 0.000000
0.495000 0.528275 0.000000
0.500000 0.536936 0.000000
0.645000 0.701481 0.000000
0.635000 0.701481 0.000000
0.270000 0.779423 0.000000
0.715000 0.614878 0.000000
0.860000 0.917987 0.000000
0.865000 0.025981 0.000000
0.240000 0.190526 0.000000
0.105000 0.337750 0.000000
0.100000 0.346410 0.000000
0.110000 0.346410 0.000000
0.105000 0.355070 0.000000
0.570000 0.779423 0.000000
0.900000 0.086603 0.000000
0.905000 0.077942 0.000000
0.720000 0.155885 0.000000
0.940000 0.588897 0.000000
0.090000 0.069282 0.000000
0.030054 0.675533 0.000000
0.890000 0.294449 0.000000
0.070000 0.034641 0.000000
0.065000 0.025981 0.000000
0.055000 0.025981 0.000000
0.050000 0.017321 0.000000
0.965003 0.424351 0.000000
0.220000 0.051962 0.000000
0.150000 0.640859 0.000000
0.160000 0.640859 0.000000
0.155000 0.649519 0.000000
0.165000 0.649519 0.000000
0.160000 0.658179 0.000000
0.170000 0.658179 0.000000
0.165000 0.666840 0.000000
0.175000 0.666840 0.000000
0.170000 0.675500 0.000000
0.180000 0.675500 0.000000
0.205000 0.614878 0.000000
0.855000 0.857365 0.000000
0.865000 0.857365 0.000000
0.270000 0.277128 0.000000
0.790000 0.138564 0.000000
0.790000 0.121244 0.000000
0.795000 0.112583 0.000000
0.959997 0.433011 0.000000
0.835000 0.025981 0.000000
0.270000 0.710141 0.000000
0.260000 0.710141 0.000000
0.095000 0.736122 0.000000
0.100000 0.744782 0.000000
0.715000 0.545596 0.000000
0.280000 0.294449 0.000000
0.125000 0.181865 0.000000
0.915000 0.060622 0.000000
0.920000 0.051962 0.000000
0.080000 0.762102 0.000000
0.235000 0.216506 0.000000
0.970151 0.935401 0.000000
0.980505 0.935352 0.000000
0.985032 0.926357 0.000000
0.985678 0.944626 0.000000
0.975839 0.944499 0.000000
0.980738 0.953400 0.000000
0.970340 0.953269 0.000000
0.974389 0.962116 0.000000
0.968705 0.971365 0.000000
0.977679 0.971078 0.000000
0.972070 0.980306 0.000000
0.982640 0.980377 0.000000
0.975516 0.989394 0.000000
0.730000 0.190526 0.000000
0.740000 0.190526 0.000000
0.800000 0.866025 0.000000
0.095000 0.355070 0.000000
0.735000 0.164545 0.000000
0.435000 0.043301 0.000000
0.945000 0.788083 0.000000
0.615000 0.025981 0.000000
0.705000 0.961288 0.000000
0.700000 0.952628 0.000000
0.830000 0.207846 0.000000
0.295000 0.303109 0.000000
0.305000 0.303109 0.000000
0.190000 0.155885 0.000000
0.305000 0.753442 0.000000
0.710000 0.554256 0.000000
0.785000 0.736122 0.000000
0.790000 0.727461 0.000000
0.780000 0.727461 0.000000
0.785000 0.718801 0.000000
0.930000 0.433013 0.000000
0.860000 0.034641 0.000000
0.018683 0.311131 0.000000
0.490000 0.519615 0.000000
0.160000 0.519615 0.000000
0.250000 0.571577 0.000000
0.255000 0.580237 0.000000
0.275000 0.285788 0.000000
0.300000 0.571577 0.000000
0.290000 0.571577 0.000000
0.285000 0.562917 0.000000
0.280000 0.571577 0.000000
0.285000 0.580237 0.000000
0.275000 0.580237 0.000000
0.280000 0.588897 0.000000
0.290000 0.588897 0.000000
0.270000 0.588897 0.000000
0.275000 0.597558 0.000000
0.270000 0.571577 0.000000
0.720000 0.588897 0.000000
0.725000 0.857365 0.000000
0.025000 0.788083 0.000000
0.175000 0.147224 0.000000
0.215000 0.268468 0.000000
0.070000 0.519615 0.000000
0.245000 0.181865 0.000000
0.250000 0.173205 0.000000
0.239936 0.969885 0.000000
0.234934 0.978165 0.000000
0.239372 0.985619 0.000000
0.100000 0.848705 0.000000
0.710000 0.692820 0.000000
0.115000 0.788083 0.000000
0.090000 0.969948 0.000000
0.095000 0.978609 0.000000
0.105000 0.978609 0.000000
0.200000 0.155885 0.000000
0.130000 0.051962 0.000000
0.425000 0.303109 0.000000
0.110000 0.173205 0.000000
0.875000 0.528275 0.000000
0.410000 0.311769 0.000000
0.180000 0.207846 0.000000
0.785000 0.147224 0.000000
0.055000 0.407032 0.000000
0.050000 0.415692 0.000000
0.105000 0.753442 0.000000
0.050000 0.952628 0.000000
0.135000 0.476314 0.000000
0.130000 0.467654 0.000000
0.960096 0.935366 0.000000
0.915000 0.718801 0.000000
0.910000 0.710141 0.000000
0.915000 0.701481 0.000000
0.900000 0.710141 0.000000
0.110000 0.935307 0.000000
0.105000 0.926647 0.000000
0.090000 0.571577 0.000000
0.880000 0.294449 0.000000
0.895000 0.285788 0.000000
0.515000 0.147224 0.000000
0.120000 0.952628 0.000000
0.695000 0.701481 0.000000
0.685000 0.701481 0.000000
0.940000 0.277128 0.000000
0.730000 0.848705 0.000000
0.730000 0.866025 0.000000
0.785000 0.943968 0.000000
0.110000 0.917987 0.000000
0.925000 0.164545 0.000000
0.275000 0.303109 0.000000
0.140000 0.069282 0.000000
0.045000 0.632199 0.000000
0.800000 0.762102 0.000000
0.978961 0.797711 0.000000
0.335000 0.077942 0.000000
0.725000 0.580237 0.000000
0.224662 0.977959 0.000000
0.280000 0.277128 0.000000
0.195000 0.233827 0.000000
0.195000 0.684160 0.000000
0.200000 0.675500 0.000000
0.825000 0.770763 0.000000
0.390000 0.969948 0.000000
0.395000 0.978609 0.000000
0.405000 0.978609 0.000000
0.385000 0.978609 0.000000
0.375000 0.978609 0.000000
0.035005 0.788080 0.000000
0.021147 0.797593 0.000000
0.920000 0.727461 0.000000
0.930000 0.727461 0.000000
0.125000 0.562917 0.000000
0.930000 0.034641 0.000000
0.895000 0.545596 0.000000
0.905000 0.545596 0.000000
0.355000 0.753442 0.000000
0.800000 0.329090 0.000000
0.645000 0.909327 0.000000
0.650000 0.900666 0.000000
0.090000 0.103923 0.000000
0.315000 0.562917 0.000000
0.730000 0.883346 0.000000
0.880000 0.311769 0.000000
0.775000 0.407032 0.000000
0.770000 0.415692 0.000000
0.335000 0.562917 0.000000
0.345000 0.562917 0.000000
0.350000 0.554256 0.000000
0.355000 0.562917 0.000000
0.350000 0.571577 0.000000
0.230000 0.103923 0.000000
0.140000 0.814064 0.000000
0.145000 0.805404 0.000000
0.135000 0.822724 0.000000
0.125000 0.822724 0.000000
0.018637 0.380437 0.000000
0.019888 0.935181 0.000000
0.745000 0.753442 0.000000
0.040000 0.190526 0.000000
0.255000 0.129904 0.000000
0.265000 0.129904 0.000000
0.150000 0.519615 0.000000
0.325000 0.424352 0.000000
0.320000 0.866025 0.000000
0.310000 0.866025 0.000000
0.935000 0.892006 0.000000
0.930000 0.883346 0.000000
0.925000 0.892006 0.000000
0.920000 0.883346 0.000000
0.925000 0.874686 0.000000
0.915000 0.874686 0.000000
0.920000 0.866025 0.000000
0.910000 0.866025 0.000000
0.915000 0.857365 0.000000
0.910000 0.848705 0.000000
0.920000 0.848705 0.000000
0.915000 0.892006 0.000000
0.920000 0.900666 0.000000
0.910000 0.883346 0.000000
0.930000 0.866025 0.000000
0.935000 0.874686 0.000000
0.600000 0.710141 0.000000
0.605000 0.701481 0.000000
0.615000 0.701481 0.000000
0.979968 0.917936 0.000000
0.075000 0.112583 0.000000
0.065000 0.112583 0.000000
0.060000 0.103923 0.000000
0.320000 0.086603 0.000000
0.165000 0.632199 0.000000
0.190000 0.415692 0.000000
0.180000 0.415692 0.000000
0.200000 0.415692 0.000000
0.205000 0.407032 0.000000
0.210000 0.415692 0.000000
0.039947 0.831415 0.000000
0.910000 0.554256 0.000000
0.710000 0.086603 0.000000
0.715000 0.095263 0.000000
0.725000 0.095263 0.000000
0.720000 0.103923 0.000000
0.710000 0.103923 0.000000
0.705000 0.095263 0.000000
0.695000 0.095263 0.000000
0.700000 0.103923 0.000000
0.690000 0.103923 0.000000
0.685000 0.095263 0.000000
0.680000 0.103923 0.000000
0.675000 0.095263 0.000000
0.670000 0.103923 0.000000
0.665000 0.095263 0.000000
0.660000 0.103923 0.000000
0.655000 0.095263 0.000000
0.650000 0.103923 0.000000
0.645000 0.095263 0.000000
0.640000 0.103923 0.000000
0.635000 0.095263 0.000000
0.630000 0.103923 0.000000
0.635000 0.112583 0.000000
0.625000 0.112583 0.000000
0.620000 0.103923 0.000000
0.615000 0.112583 0.000000
0.620000 0.121244 0.000000
0.715000 0.112583 0.000000
0.795000 0.562917 0.000000
0.790000 0.571577 0.000000
0.600000 0.103923 0.000000
0.610000 0.103923 0.000000
0.605000 0.095263 0.000000
0.615000 0.095263 0.000000
0.925000 0.441673 0.000000
0.090000 0.866025 0.000000
0.095000 0.874686 0.000000
0.110000 0.450333 0.000000
0.915000 0.389711 0.000000
0.735000 0.025981 0.000000
0.730000 0.017321 0.000000
0.745000 0.025981 0.000000
0.775000 0.874686 0.000000
0.180000 0.554256 0.000000
0.185000 0.562917 0.000000
0.925000 0.632199 0.000000
0.560000 0.779423 0.000000
0.250000 0.242487 0.000000
0.350000 0.069282 0.000000
0.480000 0.173205 0.000000
0.485000 0.181865 0.000000
0.665281 0.978064 0.000000
0.480000 0.692820 0.000000
0.475000 0.684160 0.000000
0.465000 0.684160 0.000000
0.905000 0.251147 0.000000
0.540000 0.658179 0.000000
0.530000 0.658179 0.000000
0.550000 0.658179 0.000000
0.525000 0.666840 0.000000
0.520000 0.658179 0.000000
0.755000 0.770763 0.000000
0.225000 0.043301 0.000000
0.225000 0.060622 0.000000
0.680000 0.155885 0.000000
0.730000 0.519615 0.000000
0.740000 0.519615 0.000000
0.735000 0.510955 0.000000
0.745000 0.510955 0.000000
0.740000 0.502295 0.000000
0.750000 0.502295 0.000000
0.745000 0.493634 0.000000
0.755000 0.493634 0.000000
0.740000 0.484974 0.000000
0.125000 0.978609 0.000000
0.135000 0.978609 0.000000
0.660000 0.883346 0.000000
0.145000 0.458993 0.000000
0.340000 0.034641 0.000000
0.335000 0.043301 0.000000
0.440000 0.969948 0.000000
0.445000 0.978609 0.000000
0.434719 0.978064 0.000000
0.454927 0.978368 0.000000
0.350000 0.034641 0.000000
0.135000 0.562917 0.000000
0.775000 0.718801 0.000000
0.780000 0.155885 0.000000
0.785000 0.164545 0.000000
0.950000 0.069282 0.000000
0.415000 0.025981 0.000000
0.425000 0.025981 0.000000
0.190000 0.952628 0.000000
0.185000 0.943968 0.000000
0.190000 0.935307 0.000000
0.345000 0.129904 0.000000
0.080000 0.484974 0.000000
0.045002 0.684159 0.000000
0.040005 0.692818 0.000000
0.730000 0.779423 0.000000
0.345000 0.025981 0.000000
0.795000 0.943968 0.000000
0.800000 0.935307 0.000000
0.790000 0.952628 0.000000
0.795000 0.961288 0.000000
0.810000 0.935307 0.000000
0.225000 0.614878 0.000000
0.470000 0.069282 0.000000
0.475000 0.077942 0.000000
0.485000 0.077942 0.000000
0.480000 0.086603 0.000000
0.470000 0.086603 0.000000
0.475000 0.095263 0.000000
0.465000 0.095263 0.000000
0.470000 0.103923 0.000000
0.460000 0.103923 0.000000
0.455000 0.095263 0.000000
0.450000 0.103923 0.000000
0.445000 0.095263 0.000000
0.440000 0.103923 0.000000
0.435000 0.095263 0.000000
0.430000 0.103923 0.000000
0.425000 0.095263 0.000000
0.420000 0.103923 0.000000
0.415000 0.095263 0.000000
0.410000 0.103923 0.000000
0.405000 0.095263 0.000000
0.400000 0.103923 0.000000
0.395000 0.095263 0.000000
0.390000 0.103923 0.000000
0.390000 0.086603 0.000000
0.115000 0.424352 0.000000
0.105000 0.424352 0.000000
0.450000 0.883346 0.000000
0.150000 0.658179 0.000000
0.380000 0.346410 0.000000
0.220000 0.623538 0.000000
0.955000 0.216506 0.000000
0.915000 0.632199 0.000000
0.535000 0.129904 0.000000
0.540000 0.121244 0.000000
0.240000 0.848705 0.000000
0.245000 0.857365 0.000000
0.235000 0.857365 0.000000
0.240000 0.866025 0.000000
0.250000 0.866025 0.000000
0.230000 0.866025 0.000000
0.235000 0.874686 0.000000
0.230000 0.848705 0.000000
0.910000 0.640859 0.000000
0.200000 0.883346 0.000000
0.190000 0.883346 0.000000
0.170000 0.433013 0.000000
0.775000 0.147224 0.000000
0.975000 0.632199 0.000000
0.979770 0.624100 0.000000
0.304999 0.961277 0.000000
0.535000 0.943968 0.000000
0.540000 0.935307 0.000000
0.550000 0.935307 0.000000
0.530000 0.935307 0.000000
0.545000 0.926647 0.000000
0.895000 0.909327 0.000000
0.900000 0.917987 0.000000
0.905000 0.909327 0.000000
0.910000 0.917987 0.000000
0.565000 0.112583 0.000000
0.560000 0.121244 0.000000
0.905000 0.389711 0.000000
0.979736 0.692690 0.000000
0.990308 0.693629 0.000000
0.065000 0.892006 0.000000
0.795000 0.649519 0.000000
0.785000 0.649519 0.000000
0.765000 0.025981 0.000000
0.760000 0.017321 0.000000
0.185000 0.407032 0.000000
0.905000 0.805404 0.000000
0.765000 0.095263 0.000000
0.945000 0.510955 0.000000
0.115000 0.355070 0.000000
0.960001 0.415692 0.000000
0.770000 0.103923 0.000000
0.825000 0.614878 0.000000
0.920000 0.744782 0.000000
0.290000 0.277128 0.000000
0.050000 0.381051 0.000000
0.780000 0.744782 0.000000
0.090000 0.848705 0.000000
0.485000 0.943968 0.000000
0.480000 0.935307 0.000000
0.470000 0.935307 0.000000
0.490000 0.935307 0.000000
0.500000 0.935307 0.000000
0.265000 0.164545 0.000000
0.880000 0.606218 0.000000
0.140000 0.588897 0.000000
0.145000 0.597558 0.000000
0.150000 0.588897 0.000000
0.095000 0.926647 0.000000
0.350000 0.086603 0.000000
0.320000 0.692820 0.000000
0.325000 0.701481 0.000000
0.805000 0.770763 0.000000
0.199992 0.969880 0.000000
0.194995 0.978280 0.000000
0.365000 0.857365 0.000000
0.200000 0.242487 0.000000
0.755000 0.943968 0.000000
0.750000 0.935307 0.000000
0.285000 0.025981 0.000000
0.210000 0.069282 0.000000
0.974964 0.095266 0.000000
0.984911 0.095205 0.000000
0.980091 0.104104 0.000000
0.984969 0.113616 0.000000
0.745000 0.181865 0.000000
0.570000 0.086603 0.000000
0.665000 0.822724 0.000000
0.300000 0.051962 0.000000
0.915000 0.978609 0.000000
0.095000 0.389711 0.000000
0.090000 0.398372 0.000000
0.140000 0.640859 0.000000
0.055000 0.580237 0.000000
0.355000 0.770763 0.000000
0.360000 0.779423 0.000000
0.415000 0.060622 0.000000
0.860000 0.277128 0.000000
0.855000 0.268468 0.000000
0.850000 0.277128 0.000000
0.860000 0.259808 0.000000
0.959995 0.381053 0.000000
0.110000 0.831384 0.000000
0.295000 0.095263 0.000000
0.245000 0.562917 0.000000
0.964994 0.372392 0.000000
0.969999 0.363731 0.000000
0.979671 0.363975 0.000000
0.974641 0.355287 0.000000
0.665000 0.736122 0.000000
0.375000 0.025981 0.000000
0.760000 0.692820 0.000000
0.765000 0.701481 0.000000
0.085000 0.961288 0.000000
0.270000 0.138564 0.000000
0.275000 0.147224 0.000000
0.905000 0.268468 0.000000
0.340000 0.121244 0.000000
0.355000 0.129904 0.000000
0.795000 0.840045 0.000000
0.920000 0.675500 0.000000
0.915000 0.684160 0.000000
0.510000 0.225167 0.000000
0.860000 0.640859 0.000000
0.650000 0.259808 0.000000
0.145000 0.961288 0.000000
0.735000 0.303109 0.000000
0.830000 0.866025 0.000000
0.835000 0.857365 0.000000
0.160000 0.277128 0.000000
0.720000 0.519615 0.000000
0.820000 0.207846 0.000000
0.855000 0.580237 0.000000
0.845000 0.580237 0.000000
0.695000 0.978392 0.000000
0.705000 0.978400 0.000000
0.710000 0.969914 0.000000
0.715000 0.978609 0.000000
0.945000 0.216506 0.000000
0.065000 0.233827 0.000000
0.830000 0.034641 0.000000
0.060000 0.831384 0.000000
0.130000 0.883346 0.000000
0.125000 0.892006 0.000000
0.795000 0.926647 0.000000
0.935000 0.597558 0.000000
0.450000 0.086603 0.000000
0.460000 0.086603 0.000000
0.865000 0.337750 0.000000
0.870000 0.329090 0.000000
0.860000 0.346410 0.000000
0.850000 0.346410 0.000000
0.450000 0.155885 0.000000
0.055000 0.926647 0.000000
0.050000 0.935307 0.000000
0.485000 0.701481 0.000000
0.935000 0.909327 0.000000
0.930000 0.900666 0.000000
0.125000 0.493634 0.000000
0.180000 0.762102 0.000000
0.145000 0.510955 0.000000
0.100000 0.225167 0.000000
0.505000 0.043301 0.000000
0.500000 0.034641 0.000000
0.490000 0.034641 0.000000
0.495000 0.025981 0.000000
0.505000 0.025981 0.000000
0.485000 0.025981 0.000000
0.974996 0.268752 0.000000
0.154953 0.978195 0.000000
0.159384 0.985643 0.000000
0.505000 0.424352 0.000000
0.510000 0.433013 0.000000
0.310000 0.935307 0.000000
0.305000 0.926647 0.000000
0.295000 0.926647 0.000000
0.300000 0.917987 0.000000
0.905000 0.580237 0.000000
0.380000 0.225167 0.000000
0.585000 0.251147 0.000000
0.195000 0.025981 0.000000
0.190000 0.017321 0.000000
0.030047 0.467681 0.000000
0.025000 0.458993 0.000000
0.525000 0.077942 0.000000
0.535000 0.077942 0.000000
0.915000 0.909327 0.000000
0.340000 0.346410 0.000000
0.910000 0.900666 0.000000
0.470000 0.848705 0.000000
0.475000 0.857365 0.000000
0.470000 0.866025 0.000000
0.480000 0.866025 0.000000
0.485000 0.857365 0.000000
0.490000 0.866025 0.000000
0.485000 0.874686 0.000000
0.495000 0.874686 0.000000
0.500000 0.866025 0.000000
0.505000 0.874686 0.000000
0.510000 0.866025 0.000000
0.515000 0.874686 0.000000
0.520000 0.866025 0.000000
0.525000 0.874686 0.000000
0.530000 0.866025 0.000000
0.535000 0.874686 0.000000
0.540000 0.866025 0.000000
0.545000 0.874686 0.000000
0.550000 0.866025 0.000000
0.555000 0.874686 0.000000
0.560000 0.866025 0.000000
0.565000 0.874686 0.000000
0.570000 0.866025 0.000000
0.575000 0.874686 0.000000
0.580000 0.866025 0.000000
0.585000 0.874686 0.000000
0.590000 0.866025 0.000000
0.505000 0.857365 0.000000
0.595000 0.874686 0.000000
0.525000 0.857365 0.000000
0.545000 0.857365 0.000000
0.565000 0.857365 0.000000
0.585000 0.857365 0.000000
0.600000 0.866025 0.000000
0.570000 0.883346 0.000000
0.590000 0.883346 0.000000
0.600000 0.883346 0.000000
0.540000 0.883346 0.000000
0.595000 0.892006 0.000000
0.520000 0.883346 0.000000
0.500000 0.883346 0.000000
0.475000 0.874686 0.000000
0.465000 0.874686 0.000000
0.550000 0.883346 0.000000
0.175000 0.649519 0.000000
0.325000 0.043301 0.000000
0.330000 0.051962 0.000000
0.220000 0.433013 0.000000
0.760000 0.675500 0.000000
0.018683 0.398952 0.000000
0.580000 0.883346 0.000000
0.665000 0.181865 0.000000
0.660000 0.190526 0.000000
0.660000 0.173205 0.000000
0.665000 0.164545 0.000000
0.665000 0.199186 0.000000
0.655000 0.199186 0.000000
0.650000 0.190526 0.000000
0.655000 0.181865 0.000000
0.645000 0.181865 0.000000
0.640000 0.190526 0.000000
0.025120 0.268473 0.000000
0.015501 0.267975 0.000000
0.018539 0.277951 0.000000
0.760000 0.138564 0.000000
0.665000 0.718801 0.000000
0.670000 0.710141 0.000000
0.665000 0.701481 0.000000
0.350000 0.311769 0.000000
0.845000 0.857365 0.000000
0.700000 0.225167 0.000000
0.100000 0.727461 0.000000
0.100000 0.623538 0.000000
0.860000 0.398372 0.000000
0.855000 0.407032 0.000000
0.915000 0.528275 0.000000
0.945000 0.562917 0.000000
0.785000 0.216506 0.000000
0.520000 0.969948 0.000000
0.525000 0.978222 0.000000
0.534719 0.978382 0.000000
0.529392 0.985637 0.000000
0.515000 0.978392 0.000000
0.505000 0.978400 0.000000
0.865000 0.043301 0.000000
0.870000 0.051962 0.000000
0.395000 0.147224 0.000000
0.100000 0.363731 0.000000
0.770000 0.831384 0.000000
0.425000 0.181865 0.000000
0.250000 0.796743 0.000000
0.245000 0.805404 0.000000
0.240000 0.796743 0.000000
0.820008 0.969880 0.000000
0.735000 0.233827 0.000000
0.095000 0.580237 0.000000
0.795000 0.718801 0.000000
0.500000 0.086603 0.000000
0.600000 0.086603 0.000000
0.610000 0.086603 0.000000
0.955000 0.407032 0.000000
0.140000 0.917987 0.000000
0.560000 0.034641 0.000000
0.555000 0.025981 0.000000
0.545000 0.025981 0.000000
0.730000 0.917987 0.000000
0.570000 0.917987 0.000000
0.575000 0.926647 0.000000
0.585000 0.926647 0.000000
0.565000 0.926647 0.000000
0.190000 0.536936 0.000000
0.195000 0.528275 0.000000
0.205000 0.528275 0.000000
0.570000 0.588897 0.000000
0.575000 0.597558 0.000000
0.890000 0.588897 0.000000
0.310000 0.121244 0.000000
0.655000 0.164545 0.000000
0.925000 0.597558 0.000000
0.835000 0.718801 0.000000
0.765000 0.666840 0.000000
0.775000 0.666840 0.000000
0.770000 0.658179 0.000000
0.170000 0.207846 0.000000
0.270000 0.883346 0.000000
0.275000 0.874686 0.000000
0.285000 0.874686 0.000000
0.265000 0.874686 0.000000
0.255000 0.216506 0.000000
0.250000 0.225167 0.000000
0.080000 0.658179 0.000000
0.075000 0.649519 0.000000
0.700000 0.277128 0.000000
0.710000 0.277128 0.000000
0.280000 0.779423 0.000000
0.285000 0.788083 0.000000
0.250000 0.779423 0.000000
0.305000 0.025981 0.000000
0.695000 0.580237 0.000000
0.690000 0.571577 0.000000
0.145000 0.164545 0.000000
0.375000 0.458993 0.000000
0.485000 0.095263 0.000000
0.150000 0.311769 0.000000
0.155000 0.320429 0.000000
0.165000 0.320429 0.000000
0.160000 0.329090 0.000000
0.145000 0.320429 0.000000
0.055001 0.718801 0.000000
0.060001 0.710140 0.000000
0.035005 0.233821 0.000000
0.050000 0.606218 0.000000
0.205000 0.268468 0.000000
0.265000 0.718801 0.000000
0.135000 0.684160 0.000000
0.125000 0.684160 0.000000
0.120000 0.675500 0.000000
0.130000 0.692820 0.000000
0.115000 0.684160 0.000000
0.500000 0.969914 0.000000
0.495000 0.978609 0.000000
0.485073 0.978368 0.000000
0.095000 0.407032 0.000000
0.920000 0.952628 0.000000
0.930000 0.138564 0.000000
0.230000 0.571577 0.000000
0.325000 0.562917 0.000000
0.175000 0.684160 0.000000
0.355000 0.303109 0.000000
0.365000 0.303109 0.000000
0.505000 0.943968 0.000000
0.510000 0.935307 0.000000
0.710000 0.155885 0.000000
0.950000 0.103923 0.000000
0.945000 0.095263 0.000000
0.885000 0.874686 0.000000
0.875000 0.874686 0.000000
0.969907 0.814068 0.000000
0.979557 0.814249 0.000000
0.710000 0.952628 0.000000
0.325000 0.840045 0.000000
0.315000 0.840045 0.000000
0.320000 0.831384 0.000000
0.964991 0.129907 0.000000
0.080000 0.640859 0.000000
0.930000 0.173205 0.000000
0.265000 0.389711 0.000000
0.675000 0.770763 0.000000
0.595000 0.736122 0.000000
0.600000 0.744782 0.000000
0.750000 0.207846 0.000000
0.640000 0.346410 0.000000
0.210000 0.242487 0.000000
0.435000 0.147224 0.000000
0.035009 0.666845 0.000000
0.315000 0.684160 0.000000
0.310000 0.675500 0.000000
0.555000 0.943968 0.000000
0.215000 0.303109 0.000000
0.740000 0.969948 0.000000
0.745000 0.978609 0.000000
0.735000 0.978609 0.000000
0.725000 0.978609 0.000000
0.210000 0.259808 0.000000
0.905000 0.684160 0.000000
0.285000 0.216506 0.000000
0.900000 0.415692 0.000000
0.895000 0.614878 0.000000
0.290000 0.883346 0.000000
0.295000 0.874686 0.000000
0.180000 0.484974 0.000000
0.820000 0.173205 0.000000
0.955000 0.840045 0.000000
0.055000 0.476314 0.000000
0.060000 0.467654 0.000000
0.750000 0.190526 0.000000
0.760000 0.190526 0.000000
0.060000 0.242487 0.000000
0.055000 0.251147 0.000000
0.050000 0.121244 0.000000
0.970108 0.034706 0.000000
0.970086 0.052108 0.000000
0.495000 0.181865 0.000000
0.085000 0.701481 0.000000
0.725000 0.926647 0.000000
0.735000 0.926647 0.000000
0.820000 0.329090 0.000000
0.815000 0.320429 0.000000
0.825000 0.320429 0.000000
0.820000 0.311769 0.000000
0.835000 0.320429 0.000000
0.715000 0.233827 0.000000
0.974767 0.130036 0.000000
0.415000 0.874686 0.000000
0.715000 0.147224 0.000000
0.325000 0.788083 0.000000
0.705000 0.216506 0.000000
0.065000 0.043301 0.000000
0.075000 0.043301 0.000000
0.045002 0.874685 0.000000
0.865000 0.788083 0.000000
0.835000 0.181865 0.000000
0.845000 0.181865 0.000000
0.990803 0.954217 0.000000
0.045000 0.991340 0.000000
0.120000 0.138564 0.000000
0.115000 0.129904 0.000000
0.610000 0.744782 0.000000
0.880000 0.363731 0.000000
0.870000 0.363731 0.000000
0.330000 0.883346 0.000000
0.675000 0.060622 0.000000
0.875000 0.095263 0.000000
0.880000 0.103923 0.000000
0.890000 0.103923 0.000000
0.870000 0.103923 0.000000
0.875000 0.112583 0.000000
0.865000 0.112583 0.000000
0.580000 0.658179 0.000000
0.585000 0.649519 0.000000
0.590000 0.658179 0.000000
0.595000 0.649519 0.000000
0.925012 0.991678 0.000000
0.575000 0.892006 0.000000
0.200000 0.502295 0.000000
0.205000 0.510955 0.000000
0.210000 0.502295 0.000000
0.215000 0.510955 0.000000
0.060000 0.381051 0.000000
0.065000 0.822724 0.000000
0.815000 0.216506 0.000000
0.110000 0.623538 0.000000
0.755000 0.701481 0.000000
0.680000 0.952628 0.000000
0.785000 0.545596 0.000000
0.795000 0.545596 0.000000
0.790000 0.536936 0.000000
0.800000 0.536936 0.000000
0.795000 0.528275 0.000000
0.805000 0.528275 0.000000
0.800000 0.519615 0.000000
0.810000 0.519615 0.000000
0.805000 0.510955 0.000000
0.815000 0.510955 0.000000
0.810000 0.502295 0.000000
0.820000 0.502295 0.000000
0.805000 0.493634 0.000000
0.810000 0.484974 0.000000
0.805000 0.476314 0.000000
0.805000 0.545596 0.000000
0.940000 0.606218 0.000000
0.950000 0.225167 0.000000
0.255000 0.961288 0.000000
0.075000 0.233827 0.000000
0.825000 0.857365 0.000000
0.405000 0.181865 0.000000
0.865000 0.510955 0.000000
0.340000 0.814064 0.000000
0.350000 0.814064 0.000000
0.155000 0.251147 0.000000
0.585000 0.303109 0.000000
0.025647 0.891628 0.000000
0.025000 0.961288 0.000000
0.805000 0.857365 0.000000
0.940000 0.519615 0.000000
0.310000 0.086603 0.000000
0.045000 0.753442 0.000000
0.095000 0.060622 0.000000
0.480000 0.121244 0.000000
0.060000 0.952628 0.000000
0.195000 0.788083 0.000000
0.845000 0.545596 0.000000
0.800000 0.831384 0.000000
0.310000 0.207846 0.000000
0.320000 0.207846 0.000000
0.315000 0.216506 0.000000
0.325000 0.199186 0.000000
0.330000 0.207846 0.000000
0.335000 0.199186 0.000000
0.305000 0.216506 0.000000
0.310000 0.225167 0.000000
0.320000 0.225167 0.000000
0.315000 0.233827 0.000000
0.325000 0.233827 0.000000
0.325000 0.216506 0.000000
0.335000 0.216506 0.000000
0.775000 0.840045 0.000000
0.685000 0.147224 0.000000
0.670000 0.155885 0.000000
0.429953 0.969858 0.000000
0.424665 0.978341 0.000000
0.414944 0.978177 0.000000
0.419374 0.985623 0.000000
0.845000 0.805404 0.000000
0.495000 0.320429 0.000000
0.370000 0.173205 0.000000
0.235000 0.441673 0.000000
0.550000 0.588897 0.000000
0.640000 0.779423 0.000000
0.790000 0.658179 0.000000
0.285000 0.597558 0.000000
0.280000 0.606218 0.000000
0.270000 0.606218 0.000000
0.295000 0.597558 0.000000
0.840000 0.502295 0.000000
0.535000 0.303109 0.000000
0.710000 0.796743 0.000000
0.715000 0.788083 0.000000
0.095000 0.805404 0.000000
0.090000 0.796743 0.000000
0.570000 0.277128 0.000000
0.560000 0.277128 0.000000
0.555000 0.285788 0.000000
0.555000 0.268468 0.000000
0.525000 0.736122 0.000000
0.430000 0.155885 0.000000
0.420000 0.155885 0.000000
0.555000 0.857365 0.000000
0.075000 0.008660 0.000000
0.915000 0.043301 0.000000
0.745000 0.684160 0.000000
0.455000 0.718801 0.000000
0.460000 0.727461 0.000000
0.654987 0.992359 0.000000
0.795000 0.770763 0.000000
0.295000 0.164545 0.000000
0.875000 0.684160 0.000000
0.320000 0.242487 0.000000
0.915000 0.233827 0.000000
0.060000 0.138564 0.000000
0.265000 0.649519 0.000000
0.385000 0.095263 0.000000
0.325000 0.285788 0.000000
0.320000 0.294449 0.000000
0.325000 0.303109 0.000000
0.991191 0.074899 0.000000
0.830000 0.848705 0.000000
0.870000 0.848705 0.000000
0.670000 0.242487 0.000000
0.695000 0.147224 0.000000
0.420000 0.121244 0.000000
0.920000 0.606218 0.000000
0.605000 0.216506 0.000000
0.600000 0.207846 0.000000
0.910000 0.536936 0.000000
0.650000 0.086603 0.000000
0.510000 0.311769 0.000000
0.515000 0.303109 0.000000
0.355000 0.822724 0.000000
0.360000 0.814064 0.000000
0.370000 0.814064 0.000000
0.365000 0.805404 0.000000
0.355000 0.805404 0.000000
0.360000 0.796743 0.000000
0.370000 0.796743 0.000000
0.925000 0.840045 0.000000
0.885000 0.510955 0.000000
0.130000 0.225167 0.000000
0.355000 0.943968 0.000000
0.360000 0.935307 0.000000
0.370000 0.935307 0.000000
0.570000 0.969948 0.000000
0.575000 0.978609 0.000000
0.585200 0.977629 0.000000
0.565000 0.978609 0.000000
0.555000 0.978609 0.000000
0.550000 0.969948 0.000000
0.655000 0.753442 0.000000
0.110000 0.467654 0.000000
0.115000 0.458993 0.000000
0.125000 0.458993 0.000000
0.470000 0.779423 0.000000
0.030095 0.415690 0.000000
0.020448 0.415556 0.000000
0.165000 0.147224 0.000000
0.670000 0.796743 0.000000
0.110000 0.606218 0.000000
0.570000 0.173205 0.000000
0.890000 0.658179 0.000000
0.650000 0.588897 0.000000
0.655000 0.580237 0.000000
0.665000 0.580237 0.000000
0.660000 0.571577 0.000000
0.670000 0.571577 0.000000
0.650000 0.571577 0.000000
0.665000 0.562917 0.000000
0.855000 0.043301 0.000000
0.195000 0.268468 0.000000
0.280000 0.363731 0.000000
0.735000 0.840045 0.000000
0.175000 0.407032 0.000000
0.200000 0.069282 0.000000
0.939997 0.952626 0.000000
0.805000 0.251147 0.000000
0.790000 0.242487 0.000000
0.140000 0.796743 0.000000
0.685000 0.458993 0.000000
0.695000 0.458993 0.000000
0.700000 0.467654 0.000000
0.230000 0.606218 0.000000
0.230000 0.623538 0.000000
0.215000 0.632199 0.000000
0.515000 0.112583 0.000000
0.210000 0.190526 0.000000
0.215000 0.181865 0.000000
0.155000 0.458993 0.000000
0.160000 0.450333 0.000000
0.150000 0.398372 0.000000
0.145000 0.407032 0.000000
0.295000 0.580237 0.000000
0.225000 0.718801 0.000000
0.525000 0.770763 0.000000
0.300000 0.242487 0.000000
0.175000 0.493634 0.000000
0.955002 0.441674 0.000000
0.630000 0.710141 0.000000
0.665000 0.874686 0.000000
0.650000 0.883346 0.000000
0.720000 0.866025 0.000000
0.500000 0.814064 0.000000
0.920000 0.415692 0.000000
0.755000 0.684160 0.000000
0.018683 0.571020 0.000000
0.008686 0.654892 0.000000
0.835000 0.095263 0.000000
0.830000 0.086603 0.000000
0.835000 0.077942 0.000000
0.845000 0.077942 0.000000
0.825000 0.874686 0.000000
0.545000 0.770763 0.000000
0.115000 0.095263 0.000000
0.505000 0.251147 0.000000
0.500000 0.242487 0.000000
0.170000 0.484974 0.000000
0.135000 0.961288 0.000000
0.340000 0.415692 0.000000
0.185000 0.892006 0.000000
0.180000 0.883346 0.000000
0.170000 0.883346 0.000000
0.675327 0.978292 0.000000
0.680616 0.985622 0.000000
0.860000 0.900666 0.000000
0.640000 0.311769 0.000000
0.145000 0.095263 0.000000
0.490000 0.779423 0.000000
0.485000 0.770763 0.000000
0.435000 0.805404 0.000000
0.360000 0.294449 0.000000
0.370000 0.294449 0.000000
0.805000 0.614878 0.000000
0.275000 0.129904 0.000000
0.285000 0.268468 0.000000
0.720000 0.536936 0.000000
0.490000 0.381051 0.000000
0.480000 0.381051 0.000000
0.485000 0.389711 0.000000
0.235000 0.233827 0.000000
0.155000 0.355070 0.000000
0.260000 0.571577 0.000000
0.185000 0.337750 0.000000
0.445000 0.943968 0.000000
0.440000 0.935307 0.000000
0.430000 0.935307 0.000000
0.435000 0.926647 0.000000
0.450000 0.935307 0.000000
0.355000 0.389711 0.000000
0.635000 0.060622 0.000000
0.105000 0.147224 0.000000
0.055000 0.458993 0.000000
0.665000 0.753442 0.000000
0.675000 0.753442 0.000000
0.645000 0.285788 0.000000
0.640000 0.277128 0.000000
0.960000 0.727461 0.000000
0.670000 0.727461 0.000000
0.595000 0.251147 0.000000
0.600000 0.242487 0.000000
0.260000 0.259808 0.000000
0.075000 0.077942 0.000000
0.070000 0.069282 0.000000
0.175000 0.701481 0.000000
0.355000 0.701481 0.000000
0.360000 0.692820 0.000000
0.560000 0.155885 0.000000
0.555000 0.164545 0.000000
0.550000 0.415692 0.000000
0.555000 0.407032 0.000000
0.545000 0.407032 0.000000
0.080000 0.103923 0.000000
0.830000 0.675500 0.000000
0.820000 0.675500 0.000000
0.815000 0.684160 0.000000
0.820000 0.692820 0.000000
0.090000 0.883346 0.000000
0.785000 0.424352 0.000000
0.775000 0.424352 0.000000
0.770000 0.433013 0.000000
0.765000 0.424352 0.000000
0.760000 0.433013 0.000000
0.765000 0.441673 0.000000
0.755000 0.441673 0.000000
0.750000 0.433013 0.000000
0.745000 0.441673 0.000000
0.750000 0.450333 0.000000
0.740000 0.433013 0.000000
0.780000 0.415692 0.000000
0.770000 0.450333 0.000000
0.925000 0.008660 0.000000
0.215000 0.770763 0.000000
0.210000 0.762102 0.000000
0.100000 0.502295 0.000000
0.095000 0.493634 0.000000
0.085000 0.493634 0.000000
0.920000 0.329090 0.000000
0.925000 0.337750 0.000000
0.930000 0.329090 0.000000
0.775000 0.545596 0.000000
0.695000 0.562917 0.000000
0.685000 0.562917 0.000000
0.945000 0.008660 0.000000
0.940000 0.017321 0.000000
0.150000 0.450333 0.000000
0.770000 0.363731 0.000000
0.775000 0.372391 0.000000
0.780000 0.363731 0.000000
0.785000 0.355070 0.000000
0.790000 0.363731 0.000000
0.785000 0.372391 0.000000
0.780000 0.381051 0.000000
0.840000 0.467654 0.000000
0.845000 0.458993 0.000000
0.755000 0.788083 0.000000
0.765000 0.788083 0.000000
0.775000 0.632199 0.000000
0.410000 0.086603 0.000000
0.035000 0.147224 0.000000
0.025259 0.147374 0.000000
0.020378 0.155739 0.000000
0.018646 0.139059 0.000000
0.025516 0.164228 0.000000
0.025062 0.614885 0.000000
0.015197 0.614930 0.000000
0.140000 0.606218 0.000000
0.150000 0.606218 0.000000
0.018623 0.589321 0.000000
0.170000 0.415692 0.000000
0.070000 0.762102 0.000000
0.590000 0.727461 0.000000
0.018695 0.468468 0.000000
0.235000 0.909327 0.000000
0.800000 0.900666 0.000000
0.955000 0.424352 0.000000
0.375000 0.528275 0.000000
0.720000 0.242487 0.000000
0.085000 0.389711 0.000000
0.340000 0.051962 0.000000
0.595327 0.991593 0.000000
0.600171 0.983172 0.000000
0.610309 0.983306 0.000000
0.615000 0.857365 0.000000
0.650000 0.848705 0.000000
0.620000 0.242487 0.000000
0.055000 0.372391 0.000000
0.040001 0.225166 0.000000
0.865000 0.493634 0.000000
0.655000 0.147224 0.000000
0.445000 0.805404 0.000000
0.505000 0.892006 0.000000
0.110000 0.329090 0.000000
0.810000 0.398372 0.000000
0.820000 0.398372 0.000000
0.825000 0.649519 0.000000
0.675000 0.320429 0.000000
0.400000 0.779423 0.000000
0.880000 0.796743 0.000000
0.885000 0.788083 0.000000
0.075000 0.991340 0.000000
0.008663 0.074916 0.000000
0.016786 0.080382 0.000000
0.016347 0.089721 0.000000
0.615000 0.545596 0.000000
0.070000 0.207846 0.000000
0.500000 0.623538 0.000000
0.485000 0.632199 0.000000
0.490000 0.640859 0.000000
0.480000 0.640859 0.000000
0.470000 0.640859 0.000000
0.465000 0.649519 0.000000
0.175000 0.251147 0.000000
0.520000 0.710141 0.000000
0.270000 0.658179 0.000000
0.280000 0.658179 0.000000
0.285000 0.666840 0.000000
0.275000 0.649519 0.000000
0.285000 0.649519 0.000000
0.280000 0.640859 0.000000
0.695000 0.181865 0.000000
0.029553 0.450278 0.000000
0.554988 0.991678 0.000000
0.730000 0.502295 0.000000
0.425000 0.892006 0.000000
0.430000 0.883346 0.000000
0.325000 0.666840 0.000000
0.630000 0.381051 0.000000
0.635000 0.389711 0.000000
0.645000 0.389711 0.000000
0.640000 0.398372 0.000000
0.630000 0.398372 0.000000
0.650000 0.398372 0.000000
0.340000 0.069282 0.000000
0.335000 0.701481 0.000000
0.330000 0.710141 0.000000
0.320000 0.710141 0.000000
0.340000 0.710141 0.000000
0.325000 0.718801 0.000000
0.315000 0.718801 0.000000
0.625000 0.701481 0.000000
0.465000 0.251147 0.000000
0.455000 0.251147 0.000000
0.525000 0.840045 0.000000
0.730000 0.640859 0.000000
0.735000 0.649519 0.000000
0.085000 0.077942 0.000000
0.305000 0.077942 0.000000
0.370000 0.675500 0.000000
0.675000 0.580237 0.000000
0.670000 0.588897 0.000000
0.675000 0.822724 0.000000
0.360000 0.640859 0.000000
0.365000 0.649519 0.000000
0.365000 0.632199 0.000000
0.360000 0.623538 0.000000
0.390000 0.225167 0.000000
0.450000 0.640859 0.000000
0.835023 0.991834 0.000000
0.175000 0.822724 0.000000
0.815000 0.857365 0.000000
0.480000 0.502295 0.000000
0.300000 0.744782 0.000000
0.750000 0.623538 0.000000
0.745000 0.632199 0.000000
0.480000 0.207846 0.000000
0.475000 0.199186 0.000000
0.375000 0.181865 0.000000
0.355000 0.199186 0.000000
0.560000 0.554256 0.000000
0.795000 0.701481 0.000000
0.610000 0.484974 0.000000
0.415000 0.788083 0.000000
0.180000 0.155885 0.000000
0.695000 0.025981 0.000000
0.505000 0.458993 0.000000
0.260000 0.744782 0.000000
0.520000 0.381051 0.000000
0.525000 0.389711 0.000000
0.470000 0.346410 0.000000
0.525000 0.493634 0.000000
0.250000 0.311769 0.000000
0.240000 0.311769 0.000000
0.235000 0.303109 0.000000
0.245000 0.251147 0.000000
0.140000 0.155885 0.000000
0.660000 0.121244 0.000000
0.635000 0.528275 0.000000
0.640000 0.519615 0.000000
0.635000 0.510955 0.000000
0.480000 0.155885 0.000000
0.475000 0.147224 0.000000
0.470000 0.155885 0.000000
0.540000 0.467654 0.000000
0.605000 0.285788 0.000000
0.520000 0.917987 0.000000
0.510000 0.346410 0.000000
0.480000 0.917987 0.000000
0.600000 0.519615 0.000000
0.525000 0.268468 0.000000
0.815000 0.407032 0.000000
0.290000 0.398372 0.000000
0.300000 0.398372 0.000000
0.585000 0.510955 0.000000
0.670000 0.086603 0.000000
0.535000 0.251147 0.000000
0.750000 0.277128 0.000000
0.715000 0.285788 0.000000
0.580000 0.744782 0.000000
0.565000 0.268468 0.000000
0.720000 0.190526 0.000000
0.715000 0.181865 0.000000
0.505000 0.510955 0.000000
0.155000 0.216506 0.000000
0.060000 0.502295 0.000000
0.575000 0.476314 0.000000
0.660000 0.502295 0.000000
0.655000 0.510955 0.000000
0.760000 0.415692 0.000000
0.190000 0.363731 0.000000
0.625000 0.389711 0.000000
0.620000 0.398372 0.000000
0.505000 0.216506 0.000000
0.515000 0.216506 0.000000
0.515000 0.701481 0.000000
0.575000 0.077942 0.000000
0.675000 0.164545 0.000000
0.705000 0.233827 0.000000
0.325000 0.268468 0.000000
0.490000 0.883346 0.000000
0.615000 0.458993 0.000000
0.585000 0.476314 0.000000
0.008660 0.775000 0.000000
0.010246 0.554654 0.000000
0.490000 0.329090 0.000000
0.510000 0.294449 0.000000
0.735000 0.718801 0.000000
0.730000 0.727461 0.000000
0.735000 0.736122 0.000000
0.725000 0.736122 0.000000
0.730000 0.744782 0.000000
0.720000 0.744782 0.000000
0.740000 0.744782 0.000000
0.355000 0.441673 0.000000
0.345000 0.441673 0.000000
0.370000 0.363731 0.000000
0.615052 0.991444 0.000000
0.620341 0.982963 0.000000
0.629776 0.982889 0.000000
0.625078 0.974281 0.000000
0.634981 0.975779 0.000000
0.755000 0.528275 0.000000
0.275000 0.857365 0.000000
0.770000 0.259808 0.000000
0.525000 0.199186 0.000000
0.220000 0.727461 0.000000
0.545000 0.736122 0.000000
0.540000 0.744782 0.000000
0.008989 0.825431 0.000000
0.008660 0.835000 0.000000
0.008822 0.594808 0.000000
0.820000 0.242487 0.000000
0.195000 0.597558 0.000000
0.200000 0.588897 0.000000
0.120000 0.346410 0.000000
0.595000 0.320429 0.000000
0.765000 0.510955 0.000000
0.575000 0.632199 0.000000
0.959999 0.363731 0.000000
0.975000 0.233827 0.000000
0.220000 0.381051 0.000000
0.330000 0.277128 0.000000
0.300000 0.450333 0.000000
0.310000 0.450333 0.000000
0.315000 0.441673 0.000000
0.705000 0.545596 0.000000
0.610000 0.051962 0.000000
0.045011 0.701474 0.000000
0.210000 0.519615 0.000000
0.220000 0.519615 0.000000
0.225000 0.510955 0.000000
0.230000 0.519615 0.000000
0.235000 0.510955 0.000000
0.240000 0.519615 0.000000
0.245000 0.510955 0.000000
0.250000 0.519615 0.000000
0.255000 0.510955 0.000000
0.250000 0.502295 0.000000
0.260000 0.502295 0.000000
0.255000 0.493634 0.000000
0.265000 0.493634 0.000000
0.260000 0.484974 0.000000
0.270000 0.484974 0.000000
0.265000 0.476314 0.000000
0.255000 0.476314 0.000000
0.245000 0.493634 0.000000
0.275000 0.476314 0.000000
0.280000 0.484974 0.000000
0.230000 0.502295 0.000000
0.215000 0.528275 0.000000
0.260000 0.467654 0.000000
0.250000 0.484974 0.000000
0.235000 0.493634 0.000000
0.895000 0.164545 0.000000
0.890000 0.173205 0.000000
0.895000 0.181865 0.000000
0.385000 0.666840 0.000000
0.390000 0.658179 0.000000
0.380000 0.658179 0.000000
0.375000 0.684160 0.000000
0.610000 0.173205 0.000000
0.605000 0.164545 0.000000
0.595000 0.164545 0.000000
0.600000 0.155885 0.000000
0.610000 0.155885 0.000000
0.605000 0.147224 0.000000
0.615000 0.147224 0.000000
0.625000 0.147224 0.000000
0.620000 0.138564 0.000000
0.675000 0.216506 0.000000
0.920000 0.346410 0.000000
0.610000 0.346410 0.000000
0.295000 0.216506 0.000000
0.260000 0.536936 0.000000
0.230000 0.536936 0.000000
0.595000 0.095263 0.000000
0.170000 0.363731 0.000000
0.175000 0.372391 0.000000
0.330000 0.415692 0.000000
0.320000 0.415692 0.000000
0.205000 0.181865 0.000000
0.255000 0.372391 0.000000
0.145000 0.528275 0.000000
0.390000 0.848705 0.000000
0.355000 0.528275 0.000000
0.125000 0.407032 0.000000
0.040006 0.779419 0.000000
0.825000 0.147224 0.000000
0.830000 0.138564 0.000000
0.840000 0.138564 0.000000
0.835000 0.129904 0.000000
0.130000 0.259808 0.000000
0.105000 0.840045 0.000000
0.991340 0.515000 0.000000
0.008588 0.784715 0.000000
0.325000 0.597558 0.000000
0.330000 0.606218 0.000000
0.735000 0.632199 0.000000
0.645000 0.268468 0.000000
0.645000 0.251147 0.000000
0.040011 0.346404 0.000000
0.420000 0.588897 0.000000
0.655000 0.562917 0.000000
0.945000 0.597558 0.000000
0.355000 0.718801 0.000000
0.345000 0.718801 0.000000
0.409991 0.969877 0.000000
0.954999 0.649519 0.000000
0.630000 0.329090 0.000000
0.625000 0.337750 0.000000
0.615000 0.337750 0.000000
0.620000 0.346410 0.000000
0.225000 0.666840 0.000000
0.235000 0.666840 0.000000
0.240000 0.675500 0.000000
0.520000 0.692820 0.000000
0.265000 0.355070 0.000000
0.460000 0.866025 0.000000
0.470000 0.519615 0.000000
0.210000 0.571577 0.000000
0.200000 0.571577 0.000000
0.195000 0.580237 0.000000
0.990900 0.345310 0.000000
0.195000 0.181865 0.000000
0.385000 0.649519 0.000000
0.450000 0.727461 0.000000
0.480000 0.623538 0.000000
0.320000 0.554256 0.000000
0.915000 0.649519 0.000000
0.890000 0.623538 0.000000
0.470000 0.311769 0.000000
0.465000 0.303109 0.000000
0.455000 0.303109 0.000000
0.695000 0.510955 0.000000
0.285000 0.701481 0.000000
0.290000 0.710141 0.000000
0.300000 0.710141 0.000000
0.575017 0.991652 0.000000
0.695000 0.441673 0.000000
0.410000 0.675500 0.000000
0.505000 0.268468 0.000000
0.310000 0.623538 0.000000
0.660000 0.519615 0.000000
0.510000 0.744782 0.000000
0.450000 0.398372 0.000000
0.410000 0.779423 0.000000
0.710000 0.727461 0.000000
0.780000 0.571577 0.000000
0.335000 0.372391 0.000000
0.755000 0.303109 0.000000
0.750000 0.311769 0.000000
0.115000 0.008660 0.000000
0.120000 0.017321 0.000000
0.785000 0.285788 0.000000
0.355000 0.597558 0.000000
0.415000 0.649519 0.000000
0.215000 0.649519 0.000000
0.225000 0.649519 0.000000
0.140000 0.554256 0.000000
0.140000 0.571577 0.000000
0.330000 0.571577 0.000000
0.370000 0.640859 0.000000
0.445000 0.216506 0.000000
0.290000 0.536936 0.000000
0.375000 0.666840 0.000000
0.195000 0.303109 0.000000
0.350000 0.623538 0.000000
0.355000 0.614878 0.000000
0.350000 0.606218 0.000000
0.170000 0.259808 0.000000
0.275000 0.961288 0.000000
0.420000 0.848705 0.000000
0.495000 0.597558 0.000000
0.375000 0.060622 0.000000
0.455000 0.614878 0.000000
0.990738 0.466035 0.000000
0.989769 0.554630 0.000000
0.444988 0.991678 0.000000
0.620000 0.415692 0.000000
0.465000 0.337750 0.000000
0.460000 0.346410 0.000000
0.390000 0.762102 0.000000
0.365000 0.337750 0.000000
0.370000 0.346410 0.000000
0.390000 0.814064 0.000000
0.470000 0.814064 0.000000
0.300000 0.173205 0.000000
0.295000 0.181865 0.000000
0.220000 0.917987 0.000000
0.430000 0.086603 0.000000
0.330000 0.502295 0.000000
0.400000 0.155885 0.000000
0.415000 0.597558 0.000000
0.380000 0.259808 0.000000
0.070000 0.640859 0.000000
0.810000 0.259808 0.000000
0.540000 0.415692 0.000000
0.375000 0.545596 0.000000
0.365000 0.545596 0.000000
0.370000 0.536936 0.000000
0.510000 0.363731 0.000000
0.485000 0.285788 0.000000
0.245000 0.407032 0.000000
0.240000 0.398372 0.000000
0.800000 0.814064 0.000000
0.125000 0.285788 0.000000
0.130000 0.277128 0.000000
0.120000 0.277128 0.000000
0.490000 0.173205 0.000000
0.465000 0.147224 0.000000
0.460000 0.155885 0.000000
0.435000 0.060622 0.000000
0.460000 0.069282 0.000000
0.305000 0.389711 0.000000
0.050001 0.779422 0.000000
0.465000 0.043301 0.000000
0.470000 0.034641 0.000000
0.465000 0.025981 0.000000
0.455000 0.025981 0.000000
0.450000 0.017321 0.000000
0.700000 0.381051 0.000000
0.695000 0.389711 0.000000
0.690000 0.381051 0.000000
0.685000 0.389711 0.000000
0.690000 0.398372 0.000000
0.680000 0.398372 0.000000
0.675000 0.389711 0.000000
0.670000 0.398372 0.000000
0.685000 0.372391 0.000000
0.685000 0.407032 0.000000
0.969900 0.346470 0.000000
0.455000 0.164545 0.000000
0.555000 0.458993 0.000000
0.545000 0.597558 0.000000
0.535000 0.597558 0.000000
0.530000 0.606218 0.000000
0.645000 0.649519 0.000000
0.500000 0.329090 0.000000
0.780000 0.086603 0.000000
0.790000 0.086603 0.000000
0.634635 0.991627 0.000000
0.775000 0.303109 0.000000
0.755000 0.337750 0.000000
0.660000 0.554256 0.000000
0.505000 0.562917 0.000000
0.500000 0.554256 0.000000
0.264988 0.991678 0.000000
0.690000 0.692820 0.000000
0.440000 0.121244 0.000000
0.595000 0.303109 0.000000
0.825000 0.337750 0.000000
0.460000 0.536936 0.000000
0.680000 0.831384 0.000000
0.340000 0.606218 0.000000
0.585000 0.545596 0.000000
0.575000 0.545596 0.000000
0.008956 0.115365 0.000000
0.800000 0.311769 0.000000
0.535000 0.407032 0.000000
0.540000 0.398372 0.000000
0.205000 0.632199 0.000000
0.470000 0.207846 0.000000
0.355000 0.285788 0.000000
0.835000 0.822724 0.000000
0.655000 0.216506 0.000000
0.979813 0.346484 0.000000
0.570000 0.415692 0.000000
0.430000 0.502295 0.000000
0.475000 0.840045 0.000000
0.600000 0.814064 0.000000
0.140000 0.381051 0.000000
0.130000 0.381051 0.000000
0.415000 0.458993 0.000000
0.425000 0.458993 0.000000
0.430000 0.467654 0.000000
0.435000 0.458993 0.000000
0.430000 0.450333 0.000000
0.440000 0.450333 0.000000
0.445000 0.458993 0.000000
0.420000 0.450333 0.000000
0.415000 0.441673 0.000000
0.425000 0.441673 0.000000
0.700000 0.121244 0.000000
0.650000 0.381051 0.000000
0.215000 0.008660 0.000000
0.225000 0.008660 0.000000
0.230000 0.017321 0.000000
0.991340 0.325000 0.000000
0.991304 0.315153 0.000000
0.470000 0.502295 0.000000
0.330000 0.640859 0.000000
0.545000 0.666840 0.000000
0.165000 0.545596 0.000000
0.755000 0.666840 0.000000
0.260000 0.692820 0.000000
0.250000 0.692820 0.000000
0.345000 0.008660 0.000000
0.990371 0.224956 0.000000
0.991340 0.385000 0.000000
0.184977 0.991834 0.000000
0.008626 0.635103 0.000000
0.018168 0.640405 0.000000
0.585000 0.770763 0.000000
0.160000 0.433013 0.000000
0.565000 0.251147 0.000000
0.070000 0.329090 0.000000
0.175000 0.337750 0.000000
0.235000 0.822724 0.000000
0.695000 0.476314 0.000000
0.700000 0.484974 0.000000
0.565000 0.372391 0.000000
0.730000 0.155885 0.000000
0.165000 0.008660 0.000000
0.255000 0.458993 0.000000
0.640000 0.744782 0.000000
0.645000 0.753442 0.000000
0.640000 0.762102 0.000000
0.280000 0.831384 0.000000
0.275000 0.822724 0.000000
0.990081 0.364613 0.000000
0.450000 0.675500 0.000000
0.440000 0.675500 0.000000
0.435000 0.684160 0.000000
0.425000 0.684160 0.000000
0.430000 0.692820 0.000000
0.420000 0.692820 0.000000
0.445000 0.684160 0.000000
0.915000 0.788083 0.000000
0.500000 0.727461 0.000000
0.490000 0.727461 0.000000
0.555000 0.008660 0.000000
0.008464 0.445141 0.000000
0.018428 0.450229 0.000000
0.650000 0.692820 0.000000
0.670000 0.692820 0.000000
0.235000 0.355070 0.000000
0.230000 0.346410 0.000000
0.180000 0.917987 0.000000
0.135000 0.458993 0.000000
0.130000 0.450333 0.000000
0.160000 0.484974 0.000000
0.295000 0.008660 0.000000
0.989803 0.294726 0.000000
0.991533 0.604923 0.000000
0.983839 0.609439 0.000000
0.991340 0.645000 0.000000
0.989904 0.865408 0.000000
0.885000 0.991340 0.000000
0.485000 0.991557 0.000000
0.395000 0.991340 0.000000
0.355000 0.991726 0.000000
0.350200 0.983705 0.000000
0.340314 0.983773 0.000000
0.135000 0.991340 0.000000
0.295000 0.718801 0.000000
0.310000 0.710141 0.000000
0.715000 0.666840 0.000000
0.440000 0.311769 0.000000
0.220000 0.467654 0.000000
0.865000 0.372391 0.000000
0.370000 0.415692 0.000000
0.580000 0.329090 0.000000
0.610000 0.381051 0.000000
0.690000 0.346410 0.000000
0.445000 0.407032 0.000000
0.440000 0.398372 0.000000
0.450000 0.433013 0.000000
0.555000 0.303109 0.000000
0.465000 0.458993 0.000000
0.710000 0.623538 0.000000
0.690000 0.831384 0.000000
0.700000 0.831384 0.000000
0.420000 0.606218 0.000000
0.410000 0.606218 0.000000
0.405000 0.614878 0.000000
0.991340 0.445000 0.000000
0.991161 0.534282 0.000000
0.990025 0.624675 0.000000
0.991340 0.715000 0.000000
0.991323 0.835063 0.000000
0.992156 0.885358 0.000000
0.991340 0.905000 0.000000
0.905000 0.991340 0.000000
0.745000 0.991340 0.000000
0.705000 0.991340 0.000000
0.505000 0.991340 0.000000
0.465000 0.991791 0.000000
0.470000 0.982897 0.000000
0.375000 0.991340 0.000000
0.335333 0.991684 0.000000
0.285000 0.991340 0.000000
0.115000 0.991340 0.000000
0.008660 0.705000 0.000000
0.017182 0.720704 0.000000
0.008619 0.725101 0.000000
0.415000 0.337750 0.000000
0.420000 0.346410 0.000000
0.410000 0.346410 0.000000
0.430000 0.346410 0.000000
0.415000 0.355070 0.000000
0.330000 0.311769 0.000000
0.295000 0.337750 0.000000
0.300000 0.346410 0.000000
0.460000 0.917987 0.000000
0.265000 0.528275 0.000000
0.430000 0.710141 0.000000
0.420000 0.710141 0.000000
0.425000 0.701481 0.000000
0.415000 0.701481 0.000000
0.410000 0.710141 0.000000
0.405000 0.701481 0.000000
0.345000 0.805404 0.000000
0.640000 0.814064 0.000000
0.500000 0.917987 0.000000
0.660000 0.848705 0.000000
0.645000 0.840045 0.000000
0.645000 0.822724 0.000000
0.735000 0.407032 0.000000
0.700000 0.415692 0.000000
0.675000 0.441673 0.000000
0.660000 0.415692 0.000000
0.665000 0.407032 0.000000
0.640000 0.415692 0.000000
0.610000 0.415692 0.000000
0.475000 0.476314 0.000000
0.560000 0.692820 0.000000
0.565000 0.701481 0.000000
0.585000 0.666840 0.000000
0.405000 0.441673 0.000000
0.885000 0.666840 0.000000
0.880000 0.658179 0.000000
0.885000 0.649519 0.000000
0.610000 0.606218 0.000000
0.560000 0.329090 0.000000
0.560000 0.363731 0.000000
0.590000 0.363731 0.000000
0.585000 0.355070 0.000000
0.665000 0.337750 0.000000
0.825000 0.718801 0.000000
0.595000 0.632199 0.000000
0.725000 0.337750 0.000000
0.870000 0.121244 0.000000
0.565000 0.666840 0.000000
0.825000 0.580237 0.000000
0.450000 0.311769 0.000000
0.630000 0.190526 0.000000
0.745000 0.164545 0.000000
0.650000 0.779423 0.000000
0.680000 0.796743 0.000000
0.085000 0.805404 0.000000
0.565000 0.736122 0.000000
0.285000 0.372391 0.000000
0.365000 0.008660 0.000000
0.405000 0.008660 0.000000
0.605000 0.666840 0.000000
0.610000 0.658179 0.000000
0.600000 0.658179 0.000000
0.605000 0.649519 0.000000
0.610000 0.692820 0.000000
0.685000 0.528275 0.000000
0.645000 0.528275 0.000000
0.640000 0.554256 0.000000
0.380000 0.121244 0.000000
0.325000 0.181865 0.000000
0.580000 0.554256 0.000000
0.370000 0.103923 0.000000
0.080000 0.467654 0.000000
0.535000 0.562917 0.000000
0.525000 0.562917 0.000000
0.560000 0.744782 0.000000
0.275000 0.753442 0.000000
0.655000 0.614878 0.000000
0.550000 0.779423 0.000000
0.705000 0.822724 0.000000
0.189989 0.969852 0.000000
0.475000 0.008660 0.000000
0.515000 0.199186 0.000000
0.410000 0.415692 0.000000
0.290000 0.103923 0.000000
0.400000 0.190526 0.000000
0.008969 0.435852 0.000000
0.008698 0.315152 0.000000
0.840000 0.259808 0.000000
0.545000 0.441673 0.000000
0.250000 0.762102 0.000000
0.470000 0.675500 0.000000
0.630000 0.692820 0.000000
0.205000 0.788083 0.000000
0.135000 0.736122 0.000000
0.140000 0.727461 0.000000
0.135000 0.718801 0.000000
0.600000 0.554256 0.000000
0.595000 0.545596 0.000000
0.585000 0.580237 0.000000
0.590000 0.588897 0.000000
0.555000 0.580237 0.000000
0.285000 0.614878 0.000000
0.220000 0.502295 0.000000
0.215000 0.493634 0.000000
0.205000 0.493634 0.000000
0.520000 0.588897 0.000000
0.925000 0.320429 0.000000
0.465000 0.892006 0.000000
0.460000 0.571577 0.000000
0.450000 0.571577 0.000000
0.330000 0.242487 0.000000
0.215000 0.562917 0.000000
0.725000 0.822724 0.000000
0.720000 0.831384 0.000000
0.580000 0.519615 0.000000
0.560000 0.536936 0.000000
0.550000 0.536936 0.000000
0.685000 0.493634 0.000000
0.535000 0.857365 0.000000
0.385000 0.008660 0.000000
0.470000 0.259808 0.000000
0.490000 0.675500 0.000000
0.655000 0.666840 0.000000
0.660000 0.658179 0.000000
0.380000 0.744782 0.000000
0.905000 0.355070 0.000000
0.605000 0.580237 0.000000
0.640000 0.588897 0.000000
0.900000 0.294449 0.000000
0.605000 0.493634 0.000000
0.790000 0.675500 0.000000
0.715000 0.597558 0.000000
0.600000 0.606218 0.000000
0.605000 0.597558 0.000000
0.595000 0.597558 0.000000
0.820000 0.433013 0.000000
0.570000 0.606218 0.000000
0.550000 0.623538 0.000000
0.585000 0.597558 0.000000
0.580000 0.588897 0.000000
0.580000 0.606218 0.000000
0.645000 0.510955 0.000000
0.445000 0.268468 0.000000
0.720000 0.606218 0.000000
0.640000 0.623538 0.000000
0.685000 0.580237 0.000000
0.989898 0.814646 0.000000
0.235000 0.736122 0.000000
0.545000 0.164545 0.000000
0.585000 0.840045 0.000000
0.360000 0.138564 0.000000
0.780000 0.207846 0.000000
0.475000 0.597558 0.000000
0.375000 0.164545 0.000000
0.385000 0.164545 0.000000
0.290000 0.814064 0.000000
0.285000 0.822724 0.000000
0.680000 0.571577 0.000000
0.850000 0.242487 0.000000
0.370000 0.623538 0.000000
0.815000 0.597558 0.000000
0.180000 0.814064 0.000000
0.185000 0.822724 0.000000
0.485000 0.840045 0.000000
0.245000 0.476314 0.000000
0.315000 0.476314 0.000000
0.320000 0.467654 0.000000
0.315000 0.458993 0.000000
0.565000 0.580237 0.000000
0.945000 0.251147 0.000000
0.450000 0.606218 0.000000
0.750000 0.588897 0.000000
0.755000 0.580237 0.000000
0.430000 0.606218 0.000000
0.350000 0.484974 0.000000
0.440000 0.571577 0.000000
0.400000 0.259808 0.000000
0.450000 0.294449 0.000000
0.600000 0.588897 0.000000
0.510000 0.883346 0.000000
0.805000 0.268468 0.000000
0.765000 0.320429 0.000000
0.605000 0.441673 0.000000
0.590000 0.415692 0.000000
0.565000 0.441673 0.000000
0.500000 0.502295 0.000000
0.450000 0.502295 0.000000
0.405000 0.493634 0.000000
0.425000 0.510955 0.000000
0.505000 0.407032 0.000000
0.495000 0.407032 0.000000
0.500000 0.415692 0.000000
0.490000 0.415692 0.000000
0.485000 0.407032 0.000000
0.480000 0.415692 0.000000
0.480000 0.363731 0.000000
0.265000 0.285788 0.000000
0.610000 0.207846 0.000000
0.260000 0.433013 0.000000
0.625000 0.233827 0.000000
0.615000 0.233827 0.000000
0.450000 0.831384 0.000000
0.445000 0.840045 0.000000
0.390000 0.467654 0.000000
0.380000 0.467654 0.000000
0.375000 0.441673 0.000000
0.700000 0.242487 0.000000
0.490000 0.398372 0.000000
0.610000 0.536936 0.000000
0.685000 0.268468 0.000000
0.675000 0.268468 0.000000
0.905000 0.770763 0.000000
0.130000 0.900666 0.000000
0.755000 0.181865 0.000000
0.705000 0.268468 0.000000
0.765000 0.476314 0.000000
0.760000 0.484974 0.000000
0.780000 0.173205 0.000000
0.790000 0.173205 0.000000
0.775000 0.164545 0.000000
0.610000 0.294449 0.000000
0.635000 0.285788 0.000000
0.410000 0.917987 0.000000
0.415000 0.926647 0.000000
0.275000 0.909327 0.000000
0.270000 0.917987 0.000000
0.260000 0.917987 0.000000
0.280000 0.917987 0.000000
0.625000 0.510955 0.000000
0.480000 0.554256 0.000000
0.485000 0.562917 0.000000
0.795000 0.199186 0.000000
0.775000 0.493634 0.000000
0.395000 0.060622 0.000000
0.690000 0.086603 0.000000
0.950000 0.259808 0.000000
0.370000 0.051962 0.000000
0.330000 0.381051 0.000000
0.555000 0.355070 0.000000
0.545000 0.355070 0.000000
0.575000 0.355070 0.000000
0.580000 0.484974 0.000000
0.865000 0.805404 0.000000
0.860000 0.814064 0.000000
0.695000 0.320429 0.000000
0.690000 0.311769 0.000000
0.795000 0.164545 0.000000
0.445000 0.372391 0.000000
0.850000 0.623538 0.000000
0.610000 0.242487 0.000000
0.540000 0.346410 0.000000
0.845000 0.943968 0.000000
0.850000 0.952628 0.000000
0.845000 0.476314 0.000000
0.145000 0.285788 0.000000
0.820000 0.744782 0.000000
0.735000 0.199186 0.000000
0.355000 0.458993 0.000000
0.485000 0.424352 0.000000
0.660000 0.467654 0.000000
0.535000 0.320429 0.000000
0.740000 0.415692 0.000000
0.350327 0.969377 0.000000
0.460000 0.519615 0.000000
0.450000 0.363731 0.000000
0.510000 0.536936 0.000000
0.515000 0.337750 0.000000
0.585000 0.389711 0.000000
0.445000 0.562917 0.000000
0.450000 0.554256 0.000000
0.690000 0.277128 0.000000
0.520000 0.363731 0.000000
0.535000 0.372391 0.000000
0.540000 0.363731 0.000000
0.544673 0.978026 0.000000
0.655000 0.389711 0.000000
0.570000 0.363731 0.000000
0.425000 0.008660 0.000000
0.515000 0.008660 0.000000
0.520000 0.017321 0.000000
0.530000 0.017321 0.000000
0.535000 0.008660 0.000000
0.605000 0.008660 0.000000
0.645000 0.008660 0.000000
0.865000 0.008660 0.000000
0.007642 0.885352 0.000000
0.010220 0.484989 0.000000
0.008697 0.394859 0.000000
0.008589 0.355503 0.000000
0.016195 0.360541 0.000000
0.008677 0.134935 0.000000
0.895000 0.112583 0.000000
0.595000 0.701481 0.000000
0.415000 0.389711 0.000000
0.405000 0.389711 0.000000
0.008686 0.575098 0.000000
0.610000 0.554256 0.000000
0.605000 0.545596 0.000000
0.935000 0.164545 0.000000
0.495000 0.008660 0.000000
0.625000 0.008660 0.000000
0.705000 0.008660 0.000000
0.885000 0.008660 0.000000
0.008082 0.804313 0.000000
0.008770 0.505598 0.000000
0.008724 0.464541 0.000000
0.010259 0.415325 0.000000
0.008670 0.375073 0.000000
0.008939 0.334728 0.000000
0.010247 0.294747 0.000000
0.240000 0.294449 0.000000
0.385000 0.822724 0.000000
0.600000 0.536936 0.000000
0.595000 0.528275 0.000000
0.665000 0.008660 0.000000
0.755000 0.008660 0.000000
0.905000 0.008660 0.000000
0.010028 0.865496 0.000000
0.009439 0.745220 0.000000
0.880000 0.190526 0.000000
0.710000 0.398372 0.000000
0.655000 0.441673 0.000000
0.495000 0.389711 0.000000
0.255000 0.320429 0.000000
0.560000 0.658179 0.000000
0.625000 0.320429 0.000000
0.790000 0.467654 0.000000
0.140000 0.692820 0.000000
0.135000 0.701481 0.000000
0.310000 0.294449 0.000000
0.505000 0.840045 0.000000
0.865000 0.424352 0.000000
0.855000 0.424352 0.000000
0.935000 0.562917 0.000000
0.805000 0.943968 0.000000
0.425000 0.268468 0.000000
0.430000 0.259808 0.000000
0.490000 0.848705 0.000000
0.745000 0.476314 0.000000
0.265000 0.095263 0.000000
0.260000 0.086603 0.000000
0.415000 0.562917 0.000000
0.405000 0.562917 0.000000
0.420000 0.554256 0.000000
0.400000 0.433013 0.000000
0.385000 0.407032 0.000000
0.380000 0.415692 0.000000
0.375000 0.407032 0.000000
0.350000 0.917987 0.000000
0.875000 0.926647 0.000000
0.590000 0.051962 0.000000
0.480000 0.433013 0.000000
0.455000 0.441673 0.000000
0.580000 0.259808 0.000000
0.685000 0.008660 0.000000
0.540000 0.692820 0.000000
0.545000 0.701481 0.000000
0.535000 0.701481 0.000000
0.275000 0.510955 0.000000
0.925000 0.909327 0.000000
0.455000 0.528275 0.000000
0.450000 0.536936 0.000000
0.860000 0.225167 0.000000
0.525000 0.701481 0.000000
0.275000 0.458993 0.000000
0.880000 0.450333 0.000000
0.445000 0.580237 0.000000
0.305000 0.233827 0.000000
0.435000 0.649519 0.000000
0.180000 0.086603 0.000000
0.360000 0.658179 0.000000
0.350000 0.138564 0.000000
0.345000 0.147224 0.000000
0.360000 0.259808 0.000000
0.780000 0.346410 0.000000
0.435000 0.337750 0.000000
0.245000 0.129904 0.000000
0.790000 0.415692 0.000000
0.375000 0.372391 0.000000
0.530000 0.311769 0.000000
0.485000 0.458993 0.000000
0.460000 0.398372 0.000000
0.470000 0.398372 0.000000
0.675000 0.407032 0.000000
0.375000 0.632199 0.000000
0.170000 0.519615 0.000000
0.110000 0.952628 0.000000
0.480000 0.277128 0.000000
0.390000 0.311769 0.000000
0.385000 0.303109 0.000000
0.310000 0.311769 0.000000
0.225000 0.372391 0.000000
0.200000 0.381051 0.000000
0.200000 0.900666 0.000000
0.080000 0.796743 0.000000
0.085000 0.788083 0.000000
0.080000 0.779423 0.000000
0.234989 0.961278 0.000000
0.229998 0.952626 0.000000
0.220000 0.952628 0.000000
0.585000 0.441673 0.000000
0.455000 0.476314 0.000000
0.425000 0.476314 0.000000
0.175000 0.562917 0.000000
0.720000 0.467654 0.000000
0.490000 0.588897 0.000000
0.480000 0.588897 0.000000
0.655000 0.355070 0.000000
0.335000 0.303109 0.000000
0.260000 0.640859 0.000000
0.590000 0.207846 0.000000
0.755012 0.991678 0.000000
0.610000 0.814064 0.000000
0.380000 0.086603 0.000000
0.365000 0.701481 0.000000
0.780000 0.796743 0.000000
0.455000 0.337750 0.000000
0.420000 0.727461 0.000000
0.430000 0.294449 0.000000
0.630000 0.831384 0.000000
0.620000 0.796743 0.000000
0.160000 0.762102 0.000000
0.610000 0.917987 0.000000
0.600000 0.779423 0.000000
0.220000 0.103923 0.000000
0.055000 0.991340 0.000000
0.205000 0.199186 0.000000
0.155000 0.805404 0.000000
0.830000 0.519615 0.000000
0.800000 0.658179 0.000000
0.420000 0.381051 0.000000
0.530000 0.519615 0.000000
0.335000 0.510955 0.000000
0.170000 0.311769 0.000000
0.175000 0.320429 0.000000
0.110000 0.519615 0.000000
0.435000 0.614878 0.000000
0.745000 0.355070 0.000000
0.820000 0.536936 0.000000
0.810000 0.433013 0.000000
0.860000 0.779423 0.000000
0.700000 0.398372 0.000000
0.695000 0.857365 0.000000
0.685000 0.857365 0.000000
0.630000 0.571577 0.000000
0.640000 0.571577 0.000000
0.110000 0.259808 0.000000
0.310000 0.502295 0.000000
0.315000 0.510955 0.000000
0.305000 0.510955 0.000000
0.615000 0.632199 0.000000
0.965005 0.164471 0.000000
0.025594 0.805734 0.000000
0.615000 0.597558 0.000000
0.200000 0.225167 0.000000
0.545000 0.840045 0.000000
0.150000 0.571577 0.000000
0.735000 0.147224 0.000000
0.390000 0.917987 0.000000
0.395000 0.926647 0.000000
0.385000 0.926647 0.000000
0.455000 0.580237 0.000000
0.095000 0.991340 0.000000
0.525000 0.476314 0.000000
0.575000 0.199186 0.000000
0.570000 0.207846 0.000000
0.560000 0.207846 0.000000
0.070000 0.467654 0.000000
0.525000 0.632199 0.000000
0.265000 0.614878 0.000000
0.460000 0.692820 0.000000
0.485000 0.718801 0.000000
0.320000 0.640859 0.000000
0.545000 0.233827 0.000000
0.330000 0.467654 0.000000
0.495000 0.476314 0.000000
0.430000 0.744782 0.000000
0.680000 0.311769 0.000000
0.210000 0.536936 0.000000
0.350000 0.658179 0.000000
0.600000 0.484974 0.000000
0.740000 0.554256 0.000000
0.745000 0.562917 0.000000
0.630000 0.502295 0.000000
0.430000 0.640859 0.000000
0.665000 0.476314 0.000000
0.445000 0.545596 0.000000
0.425000 0.770763 0.000000
0.955000 0.251147 0.000000
0.790000 0.969948 0.000000
0.150000 0.173205 0.000000
0.145000 0.181865 0.000000
0.450000 0.225167 0.000000
0.185000 0.926647 0.000000
0.350000 0.259808 0.000000
0.991192 0.274390 0.000000
0.495000 0.251147 0.000000
0.490000 0.242487 0.000000
0.495000 0.233827 0.000000
0.470000 0.225167 0.000000
0.875000 0.476314 0.000000
0.320000 0.155885 0.000000
0.380000 0.207846 0.000000
0.290000 0.207846 0.000000
0.240000 0.138564 0.000000
0.920000 0.450333 0.000000
0.405000 0.337750 0.000000
0.400000 0.346410 0.000000
0.445000 0.614878 0.000000
0.255000 0.822724 0.000000
0.355000 0.788083 0.000000
0.415000 0.805404 0.000000
0.275000 0.337750 0.000000
0.400000 0.121244 0.000000
0.490000 0.554256 0.000000
0.400000 0.502295 0.000000
0.505000 0.303109 0.000000
0.170000 0.190526 0.000000
0.675000 0.251147 0.000000
0.875000 0.372391 0.000000
0.495000 0.337750 0.000000
0.370000 0.917987 0.000000
0.420000 0.415692 0.000000
0.285000 0.407032 0.000000
0.785000 0.528275 0.000000
0.360000 0.502295 0.000000
0.415000 0.424352 0.000000
0.350000 0.415692 0.000000
0.460000 0.969948 0.000000
0.345000 0.597558 0.000000
0.295000 0.528275 0.000000
0.410000 0.433013 0.000000
0.275000 0.008660 0.000000
0.525000 0.892006 0.000000
0.010093 0.155335 0.000000
0.008474 0.094492 0.000000
0.360000 0.606218 0.000000
0.325000 0.407032 0.000000
0.345000 0.545596 0.000000
0.725000 0.991340 0.000000
0.990598 0.053867 0.000000
0.635000 0.268468 0.000000
0.135000 0.510955 0.000000
0.590000 0.329090 0.000000
0.565000 0.060622 0.000000
0.560000 0.069282 0.000000
0.725000 0.649519 0.000000
0.720000 0.658179 0.000000
0.725000 0.666840 0.000000
0.410000 0.381051 0.000000
0.305000 0.666840 0.000000
0.295000 0.666840 0.000000
0.825000 0.684160 0.000000
0.185000 0.580237 0.000000
0.420000 0.675500 0.000000
0.170000 0.381051 0.000000
0.135000 0.199186 0.000000
0.210000 0.346410 0.000000
0.310000 0.433013 0.000000
0.465000 0.736122 0.000000
0.255000 0.389711 0.000000
0.350000 0.381051 0.000000
0.745000 0.199186 0.000000
0.890000 0.433013 0.000000
0.140000 0.744782 0.000000
0.365000 0.788083 0.000000
0.260000 0.415692 0.000000
0.680000 0.415692 0.000000
0.435000 0.476314 0.000000
0.430000 0.831384 0.000000
0.630000 0.311769 0.000000
0.295000 0.857365 0.000000
0.365000 0.407032 0.000000
0.070000 0.710141 0.000000
0.120000 0.536936 0.000000
0.080000 0.242487 0.000000
0.645000 0.926647 0.000000
0.645000 0.580237 0.000000
0.095000 0.008660 0.000000
0.230000 0.433013 0.000000
0.880000 0.623538 0.000000
0.885000 0.614878 0.000000
0.915000 0.545596 0.000000
0.635000 0.614878 0.000000
0.675000 0.614878 0.000000
0.705000 0.562917 0.000000
0.830000 0.225167 0.000000
0.220000 0.415692 0.000000
0.130000 0.848705 0.000000
0.130000 0.363731 0.000000
0.445000 0.147224 0.000000
0.650000 0.519615 0.000000
0.170000 0.329090 0.000000
0.420000 0.433013 0.000000
0.225000 0.285788 0.000000
0.875000 0.407032 0.000000
0.330000 0.346410 0.000000
0.245000 0.320429 0.000000
0.365000 0.770763 0.000000
0.505000 0.320429 0.000000
0.180000 0.450333 0.000000
0.325000 0.476314 0.000000
0.330000 0.779423 0.000000
0.605000 0.840045 0.000000
0.320000 0.433013 0.000000
0.770000 0.866025 0.000000
0.835000 0.562917 0.000000
0.845000 0.562917 0.000000
0.855000 0.528275 0.000000
0.855000 0.718801 0.000000
0.565000 0.840045 0.000000
0.220000 0.640859 0.000000
0.615000 0.788083 0.000000
0.565000 0.770763 0.000000
0.660000 0.727461 0.000000
0.550000 0.710141 0.000000
0.530000 0.710141 0.000000
0.555000 0.701481 0.000000
0.495000 0.684160 0.000000
0.825000 0.805404 0.000000
0.815000 0.181865 0.000000
0.565000 0.320429 0.000000
0.485000 0.805404 0.000000
0.480000 0.814064 0.000000
0.635000 0.476314 0.000000
0.645000 0.476314 0.000000
0.650000 0.467654 0.000000
0.575000 0.857365 0.000000
0.700000 0.883346 0.000000
0.350000 0.155885 0.000000
0.690000 0.762102 0.000000
0.685000 0.770763 0.000000
0.615000 0.736122 0.000000
0.150000 0.710141 0.000000
0.635000 0.718801 0.000000
0.720000 0.969943 0.000000
0.480000 0.883346 0.000000
0.555000 0.649519 0.000000
0.320000 0.606218 0.000000
0.590000 0.917987 0.000000
0.450000 0.762102 0.000000
0.680000 0.744782 0.000000
0.700000 0.727461 0.000000
0.115000 0.649519 0.000000
0.580000 0.640859 0.000000
0.595000 0.476314 0.000000
0.330000 0.675500 0.000000
0.035000 0.510955 0.000000
0.115000 0.147224 0.000000
0.475000 0.303109 0.000000
0.565000 0.545596 0.000000
0.520000 0.484974 0.000000
0.695000 0.666840 0.000000
0.770000 0.727461 0.000000
0.595000 0.199186 0.000000
0.605000 0.199186 0.000000
0.425000 0.233827 0.000000
0.310000 0.519615 0.000000
0.135000 0.632199 0.000000
0.670000 0.744782 0.000000
0.775000 0.701481 0.000000
0.900000 0.554256 0.000000
0.530000 0.883346 0.000000
0.285000 0.718801 0.000000
0.300000 0.121244 0.000000
0.250000 0.121244 0.000000
0.755000 0.857365 0.000000
0.375000 0.285788 0.000000
0.865000 0.355070 0.000000
0.795000 0.822724 0.000000
0.645000 0.562917 0.000000
0.445000 0.303109 0.000000
0.805000 0.788083 0.000000
0.785000 0.597558 0.000000
0.310000 0.363731 0.000000
0.830000 0.277128 0.000000
0.725000 0.424352 0.000000
0.255000 0.268468 0.000000
0.255000 0.424352 0.000000
0.620000 0.225167 0.000000
0.810000 0.831384 0.000000
0.410000 0.831384 0.000000
0.615000 0.164545 0.000000
0.890000 0.831384 0.000000
0.520000 0.294449 0.000000
0.630000 0.277128 0.000000
0.715000 0.458993 0.000000
0.515000 0.164545 0.000000
0.520000 0.173205 0.000000
0.525000 0.164545 0.000000
0.530000 0.173205 0.000000
0.875000 0.753442 0.000000
0.765000 0.649519 0.000000
0.520000 0.086603 0.000000
0.535000 0.476314 0.000000
0.505000 0.355070 0.000000
0.405000 0.892006 0.000000
0.380000 0.398372 0.000000
0.720000 0.277128 0.000000
0.720000 0.294449 0.000000
0.590000 0.519615 0.000000
0.175000 0.424352 0.000000
0.475000 0.164545 0.000000
0.225000 0.926647 0.000000
0.955000 0.684160 0.000000
0.700000 0.190526 0.000000
0.795000 0.510955 0.000000
0.440000 0.467654 0.000000
0.365000 0.493634 0.000000
0.360000 0.484974 0.000000
0.705000 0.181865 0.000000
0.175000 0.285788 0.000000
0.640000 0.502295 0.000000
0.615000 0.389711 0.000000
0.780000 0.952628 0.000000
0.765000 0.112583 0.000000
0.705000 0.303109 0.000000
0.670000 0.277128 0.000000
0.725000 0.372391 0.000000
0.730000 0.381051 0.000000
0.590000 0.398372 0.000000
0.600000 0.467654 0.000000
0.605000 0.458993 0.000000
0.885000 0.025981 0.000000
0.655000 0.458993 0.000000
0.280000 0.710141 0.000000
0.035007 0.285784 0.000000
0.845000 0.008660 0.000000
0.991340 0.845000 0.000000
0.870000 0.207846 0.000000
0.405000 0.684160 0.000000
0.415000 0.684160 0.000000
0.640000 0.831384 0.000000
0.910000 0.346410 0.000000
0.080000 0.173205 0.000000
0.930000 0.692820 0.000000
0.335000 0.840045 0.000000
0.740000 0.259808 0.000000
0.650000 0.623538 0.000000
0.070000 0.675500 0.000000
0.830000 0.952628 0.000000
0.174991 0.961272 0.000000
0.184994 0.961271 0.000000
0.240000 0.623538 0.000000
0.460000 0.935307 0.000000
0.525000 0.372391 0.000000
0.305000 0.458993 0.000000
0.400000 0.381051 0.000000
0.405000 0.372391 0.000000
0.385000 0.147224 0.000000
0.280000 0.207846 0.000000
0.495000 0.805404 0.000000
0.770000 0.606218 0.000000
0.780000 0.606218 0.000000
0.205000 0.320429 0.000000
0.165000 0.337750 0.000000
0.155000 0.337750 0.000000
0.545000 0.199186 0.000000
0.085000 0.926647 0.000000
0.375000 0.822724 0.000000
0.485000 0.684160 0.000000
0.120000 0.814064 0.000000
0.680000 0.554256 0.000000
0.665000 0.528275 0.000000
0.325000 0.909327 0.000000
0.145000 0.926647 0.000000
0.150000 0.917987 0.000000
0.080000 0.363731 0.000000
0.355000 0.251147 0.000000
0.630000 0.086603 0.000000
0.925000 0.199186 0.000000
0.075000 0.303109 0.000000
0.195000 0.718801 0.000000
0.750000 0.814064 0.000000
0.780000 0.398372 0.000000
0.760000 0.381051 0.000000
0.370000 0.658179 0.000000
0.245000 0.337750 0.000000
0.345000 0.112583 0.000000
0.250000 0.588897 0.000000
0.120000 0.710141 0.000000
0.280000 0.433013 0.000000
0.225000 0.909327 0.000000
0.940000 0.536936 0.000000
0.320000 0.675500 0.000000
0.870000 0.796743 0.000000
0.280000 0.675500 0.000000
0.230000 0.069282 0.000000
0.255000 0.095263 0.000000
0.250000 0.086603 0.000000
0.925000 0.476314 0.000000
0.920000 0.484974 0.000000
0.925000 0.493634 0.000000
0.320000 0.623538 0.000000
0.200000 0.519615 0.000000
0.195000 0.562917 0.000000
0.220000 0.814064 0.000000
0.230000 0.814064 0.000000
0.270000 0.814064 0.000000
0.315000 0.788083 0.000000
0.310000 0.796743 0.000000
0.795000 0.753442 0.000000
0.785000 0.753442 0.000000
0.310000 0.571577 0.000000
0.545000 0.892006 0.000000
0.445000 0.441673 0.000000
0.350000 0.710141 0.000000
0.835000 0.684160 0.000000
0.620000 0.710141 0.000000
0.860000 0.744782 0.000000
0.380000 0.796743 0.000000
0.150000 0.796743 0.000000
0.345000 0.181865 0.000000
0.310000 0.138564 0.000000
0.505000 0.077942 0.000000
0.495000 0.077942 0.000000
0.400000 0.051962 0.000000
0.580000 0.121244 0.000000
0.315000 0.805404 0.000000
0.585000 0.147224 0.000000
0.260000 0.069282 0.000000
0.405000 0.199186 0.000000
0.185000 0.129904 0.000000
0.290000 0.415692 0.000000
0.385000 0.510955 0.000000
0.215000 0.407032 0.000000
0.500000 0.138564 0.000000
0.430000 0.433013 0.000000
0.595000 0.285788 0.000000
0.250000 0.935307 0.000000
0.440000 0.848705 0.000000
0.370047 0.969921 0.000000
0.365171 0.978122 0.000000
0.035007 0.337747 0.000000
0.040006 0.329087 0.000000
0.695000 0.303109 0.000000
0.200000 0.433013 0.000000
0.105000 0.614878 0.000000
0.460000 0.762102 0.000000
0.675000 0.025981 0.000000
0.745000 0.614878 0.000000
0.655000 0.701481 0.000000
0.590000 0.640859 0.000000
0.325000 0.510955 0.000000
0.320000 0.519615 0.000000
0.520000 0.207846 0.000000
0.685000 0.805404 0.000000
0.905000 0.528275 0.000000
0.405000 0.926647 0.000000
0.590000 0.259808 0.000000
0.590000 0.692820 0.000000
0.630000 0.762102 0.000000
0.315000 0.268468 0.000000
0.720000 0.329090 0.000000
0.170000 0.692820 0.000000
0.795000 0.216506 0.000000
0.670000 0.623538 0.000000
0.505000 0.337750 0.000000
0.450000 0.467654 0.000000
0.200000 0.051962 0.000000
0.065000 0.199186 0.000000
0.055000 0.199186 0.000000
0.060000 0.207846 0.000000
0.865000 0.320429 0.000000
0.405000 0.285788 0.000000
0.470000 0.727461 0.000000
0.870000 0.814064 0.000000
0.855000 0.458993 0.000000
0.650000 0.935307 0.000000
0.250000 0.536936 0.000000
0.095000 0.840045 0.000000
0.080000 0.848705 0.000000
0.375000 0.736122 0.000000
0.170000 0.779423 0.000000
0.360000 0.848705 0.000000
0.395000 0.285788 0.000000
0.620000 0.640859 0.000000
0.320000 0.450333 0.000000
0.959979 0.207858 0.000000
0.964515 0.199055 0.000000
0.155000 0.493634 0.000000
0.145000 0.129904 0.000000
0.660000 0.623538 0.000000
0.090000 0.173205 0.000000
0.200000 0.935307 0.000000
0.135000 0.424352 0.000000
0.220000 0.346410 0.000000
0.165000 0.441673 0.000000
0.130000 0.311769 0.000000
0.420000 0.744782 0.000000
0.385000 0.736122 0.000000
0.435000 0.441673 0.000000
0.865000 0.164545 0.000000
0.855000 0.164545 0.000000
0.810000 0.294449 0.000000
0.640000 0.848705 0.000000
0.075000 0.632199 0.000000
0.950000 0.710141 0.000000
0.930000 0.640859 0.000000
0.570000 0.259808 0.000000
0.175000 0.458993 0.000000
0.730000 0.588897 0.000000
0.920000 0.762102 0.000000
0.915000 0.770763 0.000000
0.930000 0.917987 0.000000
0.675000 0.805404 0.000000
0.260000 0.155885 0.000000
0.685000 0.303109 0.000000
0.570000 0.710141 0.000000
0.860000 0.883346 0.000000
0.870000 0.883346 0.000000
0.195000 0.666840 0.000000
0.120000 0.935307 0.000000
0.670000 0.519615 0.000000
0.700000 0.848705 0.000000
0.175000 0.095263 0.000000
0.170000 0.103923 0.000000
0.920000 0.242487 0.000000
0.915000 0.251147 0.000000
0.725000 0.770763 0.000000
0.960000 0.294449 0.000000
0.240000 0.502295 0.000000
0.505000 0.736122 0.000000
0.485000 0.736122 0.000000
0.520000 0.814064 0.000000
0.735000 0.441673 0.000000
0.365000 0.251147 0.000000
0.685000 0.614878 0.000000
0.940000 0.225167 0.000000
0.720000 0.571577 0.000000
0.400000 0.207846 0.000000
0.390000 0.207846 0.000000
0.690000 0.623538 0.000000
0.979875 0.398026 0.000000
0.375000 0.649519 0.000000
0.325000 0.528275 0.000000
0.885000 0.129904 0.000000
0.375000 0.788083 0.000000
0.175000 0.788083 0.000000
0.780000 0.588897 0.000000
0.290000 0.259808 0.000000
0.890000 0.277128 0.000000
0.220000 0.450333 0.000000
0.800000 0.727461 0.000000
0.685000 0.510955 0.000000
0.380000 0.814064 0.000000
0.765000 0.892006 0.000000
0.095000 0.614878 0.000000
0.750000 0.554256 0.000000
0.505000 0.233827 0.000000
0.705000 0.441673 0.000000
0.830000 0.796743 0.000000
0.610000 0.259808 0.000000
0.460000 0.121244 0.000000
0.605000 0.303109 0.000000
0.715000 0.268468 0.000000
0.790000 0.900666 0.000000
0.565000 0.892006 0.000000
0.260000 0.883346 0.000000
0.540000 0.086603 0.000000
0.545000 0.077942 0.000000
0.555000 0.077942 0.000000
0.550000 0.277128 0.000000
0.670000 0.259808 0.000000
0.050002 0.346409 0.000000
0.790000 0.381051 0.000000
0.860000 0.363731 0.000000
0.605000 0.251147 0.000000
0.730000 0.363731 0.000000
0.850000 0.883346 0.000000
0.570000 0.225167 0.000000
0.875000 0.580237 0.000000
0.665000 0.303109 0.000000
0.395000 0.943968 0.000000
0.974549 0.597809 0.000000
0.195000 0.892006 0.000000
0.560000 0.311769 0.000000
0.325000 0.458993 0.000000
0.540000 0.034641 0.000000
0.670000 0.311769 0.000000
0.665000 0.320429 0.000000
0.735000 0.355070 0.000000
0.390000 0.051962 0.000000
0.785000 0.632199 0.000000
0.205000 0.112583 0.000000
0.008660 0.855000 0.000000
0.017814 0.849567 0.000000
0.100000 0.450333 0.000000
0.934999 0.943967 0.000000
0.355000 0.684160 0.000000
0.740000 0.917987 0.000000
0.600000 0.051962 0.000000
0.845000 0.597558 0.000000
0.610200 0.968922 0.000000
0.690000 0.588897 0.000000
0.320000 0.917987 0.000000
0.085000 0.770763 0.000000
0.340000 0.883346 0.000000
0.170000 0.606218 0.000000
0.165000 0.355070 0.000000
0.415000 0.736122 0.000000
0.790000 0.346410 0.000000
0.935000 0.372391 0.000000
0.115000 0.943968 0.000000
0.370000 0.484974 0.000000
0.175000 0.164545 0.000000
0.645000 0.805404 0.000000
0.260000 0.831384 0.000000
0.600000 0.640859 0.000000
0.795000 0.580237 0.000000
0.650000 0.242487 0.000000
0.225000 0.216506 0.000000
0.710000 0.779423 0.000000
0.045001 0.320429 0.000000
0.115000 0.597558 0.000000
0.805000 0.025981 0.000000
0.085000 0.268468 0.000000
0.300000 0.311769 0.000000
0.365000 0.684160 0.000000
0.830000 0.363731 0.000000
0.700000 0.917987 0.000000
0.160000 0.675500 0.000000
0.520000 0.034641 0.000000
0.080000 0.675500 0.000000
0.900000 0.588897 0.000000
0.830000 0.917987 0.000000
0.045000 0.528275 0.000000
0.760000 0.225167 0.000000
0.840000 0.069282 0.000000
0.630000 0.900666 0.000000
0.285000 0.147224 0.000000
0.255000 0.909327 0.000000
0.420000 0.207846 0.000000
0.390000 0.294449 0.000000
0.695000 0.407032 0.000000
0.025324 0.992152 0.000000
0.165000 0.251147 0.000000
0.425000 0.355070 0.000000
0.695000 0.493634 0.000000
0.050001 0.398372 0.000000
0.190000 0.519615 0.000000
0.220000 0.571577 0.000000
0.715000 0.528275 0.000000
0.325000 0.614878 0.000000
0.745000 0.736122 0.000000
0.380000 0.051962 0.000000
0.955000 0.580237 0.000000
0.065000 0.978609 0.000000
0.375000 0.805404 0.000000
0.865000 0.718801 0.000000
0.705000 0.788083 0.000000
0.190000 0.866025 0.000000
0.185000 0.874686 0.000000
0.285000 0.251147 0.000000
0.440000 0.346410 0.000000
0.125000 0.857365 0.000000
0.800000 0.710141 0.000000
0.305000 0.857365 0.000000
0.270000 0.935307 0.000000
0.450000 0.450333 0.000000
0.620000 0.866025 0.000000
0.610000 0.866025 0.000000
0.745000 0.528275 0.000000
0.575000 0.320429 0.000000
0.585000 0.320429 0.000000
0.590000 0.311769 0.000000
0.270000 0.121244 0.000000
0.775000 0.441673 0.000000
0.810000 0.779423 0.000000
0.450000 0.173205 0.000000
0.370000 0.883346 0.000000
0.465000 0.355070 0.000000
0.305000 0.528275 0.000000
0.165000 0.285788 0.000000
0.645000 0.216506 0.000000
0.025000 0.285788 0.000000
0.975000 0.008660 0.000000
0.565000 0.077942 0.000000
0.690000 0.917987 0.000000
0.840000 0.381051 0.000000
0.120000 0.103923 0.000000
0.105000 0.251147 0.000000
0.485000 0.892006 0.000000
0.055000 0.788083 0.000000
0.140000 0.398372 0.000000
0.665000 0.147224 0.000000
0.890000 0.034641 0.000000
0.955000 0.528275 0.000000
0.580000 0.207846 0.000000
0.575000 0.216506 0.000000
0.205000 0.424352 0.000000
0.215000 0.424352 0.000000
0.540000 0.294449 0.000000
0.770000 0.381051 0.000000
0.955016 0.926657 0.000000
0.710000 0.831384 0.000000
0.390000 0.519615 0.000000
0.410000 0.883346 0.000000
0.375000 0.857365 0.000000
0.125000 0.666840 0.000000
0.115000 0.666840 0.000000
0.560000 0.294449 0.000000
0.085000 0.407032 0.000000
0.710000 0.900666 0.000000
0.065000 0.909327 0.000000
0.675000 0.701481 0.000000
0.295000 0.649519 0.000000
0.145000 0.909327 0.000000
0.465000 0.077942 0.000000
0.655000 0.251147 0.000000
0.325000 0.632199 0.000000
0.900000 0.900666 0.000000
0.800000 0.450333 0.000000
0.285000 0.164545 0.000000
0.540000 0.588897 0.000000
0.815000 0.632199 0.000000
0.850000 0.069282 0.000000
0.680000 0.519615 0.000000
0.480000 0.848705 0.000000
0.680000 0.121244 0.000000
0.690000 0.502295 0.000000
0.575000 0.943968 0.000000
0.050000 0.433013 0.000000
0.520000 0.433013 0.000000
0.695000 0.233827 0.000000
0.900000 0.762102 0.000000
0.870000 0.744782 0.000000
0.930000 0.571577 0.000000
0.595000 0.060622 0.000000
0.830000 0.900666 0.000000
0.675000 0.199186 0.000000
0.535000 0.233827 0.000000
0.530000 0.242487 0.000000
0.515000 0.129904 0.000000
0.850000 0.658179 0.000000
0.290000 0.935307 0.000000
0.455000 0.458993 0.000000
0.810000 0.051962 0.000000
0.645000 0.874686 0.000000
0.055000 0.164545 0.000000
0.475000 0.805404 0.000000
0.290000 0.744782 0.000000
0.525000 0.303109 0.000000
0.260000 0.190526 0.000000
0.450000 0.346410 0.000000
0.740000 0.311769 0.000000
0.600000 0.294449 0.000000
0.008600 0.975000 0.000000
0.024981 0.857438 0.000000
0.024342 0.840170 0.000000
0.655000 0.025981 0.000000
0.580000 0.692820 0.000000
0.310000 0.883346 0.000000
0.370000 0.848705 0.000000
0.210000 0.311769 0.000000
0.090000 0.190526 0.000000
0.335000 0.112583 0.000000
0.520000 0.935307 0.000000
0.900000 0.381051 0.000000
0.895000 0.320429 0.000000
0.200000 0.467654 0.000000
0.250000 0.814064 0.000000
0.050000 0.848705 0.000000
0.950002 0.467655 0.000000
0.575000 0.112583 0.000000
0.920000 0.502295 0.000000
0.910000 0.502295 0.000000
0.991963 0.975114 0.000000
0.185000 0.528275 0.000000
0.300000 0.103923 0.000000
0.550000 0.173205 0.000000
0.625000 0.095263 0.000000
0.750000 0.571577 0.000000
0.510000 0.259808 0.000000
0.230000 0.277128 0.000000
0.085000 0.476314 0.000000
0.085000 0.874686 0.000000
0.530000 0.381051 0.000000
0.285000 0.181865 0.000000
0.930000 0.415692 0.000000
0.225000 0.095263 0.000000
0.655000 0.060622 0.000000
0.225000 0.580237 0.000000
0.110000 0.415692 0.000000
0.075000 0.857365 0.000000
0.445000 0.199186 0.000000
0.770000 0.917987 0.000000
0.900000 0.277128 0.000000
0.945000 0.666840 0.000000
0.295000 0.545596 0.000000
0.420000 0.883346 0.000000
0.195000 0.840045 0.000000
0.095000 0.909327 0.000000
0.540000 0.779423 0.000000
0.290000 0.242487 0.000000
0.315000 0.303109 0.000000
0.230000 0.311769 0.000000
0.350000 0.398372 0.000000
0.415000 0.718801 0.000000
0.430000 0.034641 0.000000
0.935000 0.389711 0.000000
0.949846 0.190608 0.000000
0.730000 0.207846 0.000000
0.645374 0.961008 0.000000
0.900000 0.069282 0.000000
0.045001 0.597558 0.000000
0.140000 0.900666 0.000000
0.969906 0.294451 0.000000
0.979295 0.294512 0.000000
0.030631 0.363917 0.000000
0.850000 0.848705 0.000000
0.935000 0.736122 0.000000
0.950000 0.017321 0.000000
0.055000 0.562917 0.000000
0.410000 0.051962 0.000000
0.225000 0.441673 0.000000
0.455000 0.736122 0.000000
0.390000 0.155885 0.000000
0.535000 0.389711 0.000000
0.060000 0.814064 0.000000
0.135000 0.060622 0.000000
0.540000 0.069282 0.000000
0.665000 0.251147 0.000000
0.145000 0.822724 0.000000
0.070000 0.606218 0.000000
0.320000 0.138564 0.000000
0.890000 0.710141 0.000000
0.070000 0.900666 0.000000
0.870000 0.259808 0.000000
0.955000 0.788083 0.000000
0.610000 0.640859 0.000000
0.030082 0.346363 0.000000
0.020447 0.345926 0.000000
0.060000 0.658179 0.000000
0.490000 0.467654 0.000000
0.570000 0.034641 0.000000
0.565000 0.025981 0.000000
0.835000 0.753442 0.000000
0.640000 0.883346 0.000000
0.785000 0.199186 0.000000
0.790000 0.207846 0.000000
0.820000 0.086603 0.000000
0.695000 0.909327 0.000000
0.225000 0.458993 0.000000
0.115000 0.199186 0.000000
0.205000 0.458993 0.000000
0.265000 0.822724 0.000000
0.235000 0.684160 0.000000
0.285000 0.060622 0.000000
0.135000 0.840045 0.000000
0.605000 0.770763 0.000000
0.525000 0.251147 0.000000
0.190000 0.571577 0.000000
0.720000 0.762102 0.000000
0.285000 0.303109 0.000000
0.735000 0.372391 0.000000
0.920000 0.311769 0.000000
0.595000 0.943968 0.000000
0.555000 0.199186 0.000000
0.805000 0.926647 0.000000
0.055000 0.874686 0.000000
0.305000 0.770763 0.000000
0.815000 0.147224 0.000000
0.595000 0.233827 0.000000
0.770000 0.814064 0.000000
0.960000 0.883346 0.000000
0.725000 0.233827 0.000000
0.265000 0.233827 0.000000
0.710000 0.294449 0.000000
0.225000 0.528275 0.000000
0.095000 0.216506 0.000000
0.275000 0.424352 0.000000
0.755000 0.389711 0.000000
0.515000 0.424352 0.000000
0.645000 0.164545 0.000000
0.135000 0.320429 0.000000
0.740000 0.121244 0.000000
0.710000 0.484974 0.000000
0.880000 0.779423 0.000000
0.610000 0.225167 0.000000
0.605000 0.233827 0.000000
0.825000 0.909327 0.000000
0.695000 0.060622 0.000000
0.950000 0.484974 0.000000
0.960000 0.675500 0.000000
0.660000 0.329090 0.000000
0.200000 0.744782 0.000000
0.540000 0.155885 0.000000
0.545000 0.389711 0.000000
0.600000 0.848705 0.000000
0.355000 0.077942 0.000000
0.340000 0.866025 0.000000
0.550000 0.484974 0.000000
0.840000 0.588897 0.000000
0.290000 0.173205 0.000000
0.205000 0.095263 0.000000
0.795000 0.476314 0.000000
0.125000 0.718801 0.000000
0.175000 0.043301 0.000000
0.765000 0.493634 0.000000
0.130000 0.952628 0.000000
0.265000 0.424352 0.000000
0.105000 0.649519 0.000000
0.760000 0.866025 0.000000
0.455000 0.216506 0.000000
0.395000 0.857365 0.000000
0.940000 0.762102 0.000000
0.959993 0.866029 0.000000
0.964999 0.268515 0.000000
0.515000 0.077942 0.000000
0.550000 0.294449 0.000000
0.595000 0.025981 0.000000
0.170000 0.450333 0.000000
0.460000 0.467654 0.000000
0.045000 0.060622 0.000000
0.275000 0.788083 0.000000
0.470000 0.190526 0.000000
0.840000 0.814064 0.000000
0.705000 0.493634 0.000000
0.670000 0.952628 0.000000
0.385000 0.857365 0.000000
0.220000 0.155885 0.000000
0.940000 0.346410 0.000000
0.865000 0.580237 0.000000
0.405000 0.355070 0.000000
0.235000 0.528275 0.000000
0.675000 0.562917 0.000000
0.800000 0.554256 0.000000
0.280000 0.311769 0.000000
0.195000 0.060622 0.000000
0.100000 0.883346 0.000000
0.035051 0.493608 0.000000
0.040009 0.294444 0.000000
0.230000 0.190526 0.000000
0.870000 0.935307 0.000000
0.415000 0.147224 0.000000
0.205000 0.060622 0.000000
0.505000 0.147224 0.000000
0.465000 0.943968 0.000000
0.680000 0.710141 0.000000
0.065000 0.597558 0.000000
0.055000 0.597558 0.000000
0.730000 0.796743 0.000000
0.410000 0.363731 0.000000
0.335000 0.060622 0.000000
0.115000 0.614878 0.000000
0.930000 0.450333 0.000000
0.200000 0.294449 0.000000
0.050005 0.086600 0.000000
0.120000 0.831384 0.000000
0.680000 0.762102 0.000000
0.105000 0.666840 0.000000
0.780000 0.710141 0.000000
0.725000 0.840045 0.000000
0.140000 0.121244 0.000000
0.825000 0.181865 0.000000
0.285000 0.753442 0.000000
0.630000 0.138564 0.000000
0.875000 0.857365 0.000000
0.520000 0.155885 0.000000
0.395000 0.025981 0.000000
0.215000 0.458993 0.000000
0.165000 0.372391 0.000000
0.100000 0.294449 0.000000
0.955002 0.476315 0.000000
0.965147 0.476238 0.000000
0.740000 0.173205 0.000000
0.045001 0.389712 0.000000
0.480000 0.467654 0.000000
0.650000 0.814064 0.000000
0.530000 0.744782 0.000000
0.315000 0.770763 0.000000
0.485000 0.649519 0.000000
0.960001 0.155872 0.000000
0.535000 0.060622 0.000000
0.260000 0.588897 0.000000
0.150000 0.866025 0.000000
0.235000 0.562917 0.000000
0.310000 0.831384 0.000000
0.705000 0.458993 0.000000
0.320000 0.779423 0.000000
0.515000 0.857365 0.000000
0.615000 0.355070 0.000000
0.305000 0.095263 0.000000
0.065000 0.303109 0.000000
0.100000 0.034641 0.000000
0.385000 0.718801 0.000000
0.770000 0.710141 0.000000
0.290000 0.484974 0.000000
0.320000 0.190526 0.000000
0.910000 0.207846 0.000000
0.905000 0.199186 0.000000
0.780000 0.640859 0.000000
0.360000 0.536936 0.000000
0.385000 0.528275 0.000000
0.870000 0.086603 0.000000
0.590000 0.173205 0.000000
0.870000 0.398372 0.000000
0.870000 0.606218 0.000000
0.660000 0.155885 0.000000
0.525000 0.943968 0.000000
0.539899 0.969814 0.000000
0.725000 0.303109 0.000000
0.700000 0.155885 0.000000
0.840000 0.917987 0.000000
0.440000 0.692820 0.000000
0.715000 0.025981 0.000000
0.540000 0.207846 0.000000
0.470000 0.467654 0.000000
0.095000 0.112583 0.000000
0.195000 0.614878 0.000000
0.150000 0.329090 0.000000
0.959985 0.814065 0.000000
0.615000 0.060622 0.000000
0.075000 0.355070 0.000000
0.294998 0.961267 0.000000
0.120000 0.034641 0.000000
0.715000 0.060622 0.000000
0.880000 0.588897 0.000000
0.495000 0.458993 0.000000
0.245000 0.528275 0.000000
0.925000 0.303109 0.000000
0.485000 0.043301 0.000000
0.845000 0.407032 0.000000
0.345000 0.199186 0.000000
0.410000 0.190526 0.000000
0.935318 0.978032 0.000000
0.815000 0.476314 0.000000
0.470000 0.883346 0.000000
0.040017 0.415692 0.000000
0.170000 0.051962 0.000000
0.290000 0.554256 0.000000
0.415000 0.233827 0.000000
0.625000 0.355070 0.000000
0.415000 0.199186 0.000000
0.420000 0.242487 0.000000
0.260000 0.519615 0.000000
0.275000 0.077942 0.000000
0.255000 0.181865 0.000000
0.135000 0.770763 0.000000
0.470000 0.415692 0.000000
0.175000 0.199186 0.000000
0.780000 0.017321 0.000000
0.280000 0.415692 0.000000
0.045005 0.095260 0.000000
0.440000 0.051962 0.000000
0.705000 0.840045 0.000000
0.725000 0.753442 0.000000
0.655000 0.407032 0.000000
0.860000 0.103923 0.000000
0.050004 0.917989 0.000000
0.045004 0.926649 0.000000
0.550000 0.398372 0.000000
0.650000 0.173205 0.000000
0.410000 0.692820 0.000000
0.305000 0.840045 0.000000
0.870000 0.692820 0.000000
0.780000 0.675500 0.000000
0.365000 0.562917 0.000000
0.145000 0.112583 0.000000
0.140000 0.103923 0.000000
0.695000 0.892006 0.000000
0.250000 0.675500 0.000000
0.345000 0.337750 0.000000
0.940000 0.138564 0.000000
0.645000 0.770763 0.000000
0.735000 0.943968 0.000000
0.290000 0.640859 0.000000
0.730000 0.086603 0.000000
0.645000 0.355070 0.000000
0.755000 0.753442 0.000000
0.905000 0.285788 0.000000
0.930000 0.277128 0.000000
0.385000 0.216506 0.000000
0.465000 0.216506 0.000000
0.018703 0.069584 0.000000
0.285000 0.476314 0.000000
0.450000 0.207846 0.000000
0.255000 0.407032 0.000000
0.660000 0.814064 0.000000
0.785000 0.666840 0.000000
0.255000 0.857365 0.000000
0.875000 0.303109 0.000000
0.580000 0.779423 0.000000
0.855000 0.822724 0.000000
0.740000 0.450333 0.000000
0.800000 0.103923 0.000000
0.825000 0.095263 0.000000
0.520000 0.259808 0.000000
0.680000 0.381051 0.000000
0.710000 0.467654 0.000000
0.555000 0.493634 0.000000
0.310000 0.848705 0.000000
0.135000 0.233827 0.000000
0.165000 0.233827 0.000000
0.425000 0.943968 0.000000
0.415000 0.943968 0.000000
0.555000 0.060622 0.000000
0.955000 0.268476 0.000000
0.560000 0.398372 0.000000
0.835000 0.805404 0.000000
0.900000 0.848705 0.000000
0.905000 0.840045 0.000000
0.815000 0.129904 0.000000
0.195000 0.112583 0.000000
0.690000 0.883346 0.000000
0.760000 0.917987 0.000000
0.680000 0.363731 0.000000
0.800000 0.571577 0.000000
0.105000 0.909327 0.000000
0.215000 0.857365 0.000000
0.045000 0.199186 0.000000
0.240000 0.225167 0.000000
0.225000 0.840045 0.000000
0.330000 0.450333 0.000000
0.144998 0.978391 0.000000
0.255000 0.528275 0.000000
0.530000 0.207846 0.000000
0.105000 0.077942 0.000000
0.690000 0.450333 0.000000
0.290000 0.658179 0.000000
0.700000 0.900666 0.000000
0.220000 0.034641 0.000000
0.725000 0.788083 0.000000
0.315000 0.129904 0.000000
0.815000 0.770763 0.000000
0.170000 0.121244 0.000000
0.365000 0.233827 0.000000
0.150000 0.952628 0.000000
0.660000 0.398372 0.000000
0.685000 0.909327 0.000000
0.760000 0.779423 0.000000
0.935000 0.857365 0.000000
0.705000 0.943968 0.000000
0.235000 0.649519 0.000000
0.675000 0.943968 0.000000
0.305000 0.701481 0.000000
0.205000 0.892006 0.000000
0.895000 0.060622 0.000000
0.120000 0.381051 0.000000
0.475000 0.407032 0.000000
0.325000 0.147224 0.000000
0.225000 0.268468 0.000000
0.215000 0.251147 0.000000
0.105000 0.303109 0.000000
0.935000 0.268468 0.000000
0.300000 0.866025 0.000000
0.760000 0.710141 0.000000
0.575000 0.701481 0.000000
0.120000 0.484974 0.000000
0.560000 0.883346 0.000000
0.150000 0.502295 0.000000
0.420000 0.051962 0.000000
0.430000 0.051962 0.000000
0.920000 0.207846 0.000000
0.265000 0.510955 0.000000
0.255000 0.043301 0.000000
0.790000 0.848705 0.000000
0.945000 0.268469 0.000000
0.335000 0.147224 0.000000
0.400000 0.883346 0.000000
0.365000 0.355070 0.000000
0.875000 0.892006 0.000000
0.500000 0.450333 0.000000
0.825000 0.077942 0.000000
0.705000 0.476314 0.000000
0.850000 0.779423 0.000000
0.060000 0.277128 0.000000
0.760000 0.814064 0.000000
0.855000 0.770763 0.000000
0.690000 0.363731 0.000000
0.820000 0.138564 0.000000
0.964994 0.718798 0.000000
0.120000 0.467654 0.000000
0.875000 0.788083 0.000000
0.670000 0.381051 0.000000
0.855000 0.337750 0.000000
0.385000 0.337750 0.000000
0.630000 0.346410 0.000000
0.505000 0.805404 0.000000
0.105000 0.874686 0.000000
0.720000 0.017321 0.000000
0.175000 0.943968 0.000000
0.179999 0.952626 0.000000
0.125000 0.268468 0.000000
0.135000 0.389711 0.000000
0.635000 0.025981 0.000000
0.160000 0.346410 0.000000
0.230000 0.658179 0.000000
0.090000 0.831384 0.000000
0.305000 0.874686 0.000000
0.565000 0.164545 0.000000
0.034957 0.060623 0.000000
0.315000 0.701481 0.000000
0.360000 0.571577 0.000000
0.565000 0.407032 0.000000
0.965000 0.840045 0.000000
0.970255 0.571472 0.000000
0.275000 0.060622 0.000000
0.480000 0.398372 0.000000
0.885000 0.251147 0.000000
0.505000 0.441673 0.000000
0.055000 0.268468 0.000000
0.085000 0.857365 0.000000
0.915000 0.943968 0.000000
0.245000 0.666840 0.000000
0.165000 0.077942 0.000000
0.670000 0.917987 0.000000
0.255000 0.233827 0.000000
0.895000 0.580237 0.000000
0.115000 0.753442 0.000000
0.665000 0.389711 0.000000
0.340000 0.190526 0.000000
0.805000 0.892006 0.000000
0.235000 0.060622 0.000000
0.585000 0.407032 0.000000
0.018770 0.432144 0.000000
0.150000 0.346410 0.000000
0.775000 0.649519 0.000000
0.550000 0.069282 0.000000
0.270000 0.744782 0.000000
0.945000 0.580237 0.000000
0.335000 0.233827 0.000000
0.750000 0.484974 0.000000
0.075000 0.666840 0.000000
0.345000 0.077942 0.000000
0.330000 0.086603 0.000000
0.960001 0.172981 0.000000
0.065000 0.736122 0.000000
0.070000 0.727461 0.000000
0.750000 0.762102 0.000000
0.490000 0.190526 0.000000
0.080000 0.571577 0.000000
0.880000 0.554256 0.000000
0.395000 0.355070 0.000000
0.290000 0.051962 0.000000
0.340000 0.155885 0.000000
0.750000 0.883346 0.000000
0.870000 0.138564 0.000000
0.075000 0.147224 0.000000
0.650000 0.207846 0.000000
0.210000 0.710141 0.000000
0.765000 0.770763 0.000000
0.635000 0.181865 0.000000
0.130000 0.831384 0.000000
0.895000 0.389711 0.000000
0.560000 0.086603 0.000000
0.910000 0.675500 0.000000
0.865000 0.892006 0.000000
0.680000 0.207846 0.000000
0.630000 0.051962 0.000000
0.270000 0.467654 0.000000
0.655000 0.337750 0.000000
0.260000 0.381051 0.000000
0.964833 0.614890 0.000000
0.700000 0.450333 0.000000
0.510000 0.034641 0.000000
0.555000 0.129904 0.000000
0.620000 0.051962 0.000000
0.315000 0.095263 0.000000
0.370000 0.225167 0.000000
0.945000 0.649519 0.000000
0.155000 0.112583 0.000000
0.165000 0.112583 0.000000
0.735000 0.424352 0.000000
0.375000 0.892006 0.000000
0.035119 0.736052 0.000000
0.110000 0.588897 0.000000
0.885000 0.320429 0.000000
0.270000 0.502295 0.000000
0.340000 0.450333 0.000000
0.090000 0.935307 0.000000
0.070000 0.536936 0.000000
0.850000 0.814064 0.000000
0.435000 0.840045 0.000000
0.390000 0.883346 0.000000
0.930000 0.762102 0.000000
0.070000 0.658179 0.000000
0.885000 0.337750 0.000000
0.300000 0.675500 0.000000
0.755000 0.510955 0.000000
0.225000 0.303109 0.000000
0.475000 0.389711 0.000000
0.329993 0.969697 0.000000
0.350000 0.346410 0.000000
0.065000 0.943968 0.000000
0.180000 0.381051 0.000000
0.735000 0.112583 0.000000
0.920000 0.779423 0.000000
0.670000 0.207846 0.000000
0.945000 0.632199 0.000000
0.245000 0.233827 0.000000
0.215000 0.129904 0.000000
0.050000 0.814064 0.000000
0.705000 0.355070 0.000000
0.165000 0.043301 0.000000
0.981575 0.260133 0.000000
0.095000 0.181865 0.000000
0.680000 0.450333 0.000000
0.935000 0.303109 0.000000
0.230000 0.917987 0.000000
0.750000 0.519615 0.000000
0.095000 0.424352 0.000000
0.195000 0.926647 0.000000
0.205000 0.303109 0.000000
0.330000 0.190526 0.000000
0.710000 0.658179 0.000000
0.050000 0.173205 0.000000
0.720000 0.692820 0.000000
0.890000 0.727461 0.000000
0.895000 0.943968 0.000000
0.900000 0.952628 0.000000
0.215000 0.060622 0.000000
0.470000 0.381051 0.000000
0.585000 0.164545 0.000000
0.765000 0.147224 0.000000
0.230000 0.883346 0.000000
0.080000 0.311769 0.000000
0.865000 0.909327 0.000000
0.835000 0.060622 0.000000
0.865000 0.407032 0.000000
0.860000 0.415692 0.000000
0.820000 0.484974 0.000000
0.820000 0.762102 0.000000
0.455000 0.355070 0.000000
0.090000 0.294449 0.000000
0.880000 0.536936 0.000000
0.895000 0.961288 0.000000
0.510000 0.588897 0.000000
0.875000 0.077942 0.000000
0.785000 0.095263 0.000000
0.105000 0.216506 0.000000
0.280000 0.554256 0.000000
0.895000 0.701481 0.000000
0.030059 0.502263 0.000000
0.018713 0.501580 0.000000
0.575000 0.407032 0.000000
0.035000 0.753442 0.000000
0.140000 0.329090 0.000000
0.605000 0.407032 0.000000
0.760055 0.969853 0.000000
0.945000 0.112583 0.000000
0.710000 0.346410 0.000000
0.595000 0.407032 0.000000
0.770000 0.138564 0.000000
0.670000 0.450333 0.000000
0.410000 0.155885 0.000000
0.195000 0.372391 0.000000
0.265000 0.077942 0.000000
0.455000 0.684160 0.000000
0.515000 0.441673 0.000000
0.275000 0.493634 0.000000
0.795000 0.008660 0.000000
0.265000 0.372391 0.000000
0.180000 0.935307 0.000000
0.725000 0.701481 0.000000
0.105000 0.025981 0.000000
0.385000 0.892006 0.000000
0.205000 0.372391 0.000000
0.130000 0.069282 0.000000
0.140000 0.779423 0.000000
0.245000 0.389711 0.000000
0.100000 0.173205 0.000000
0.350000 0.450333 0.000000
0.225000 0.337750 0.000000
0.645000 0.407032 0.000000
0.740000 0.935307 0.000000
0.775000 0.285788 0.000000
0.165000 0.840045 0.000000
0.670000 0.814064 0.000000
0.240000 0.917987 0.000000
0.225000 0.857365 0.000000
0.280000 0.155885 0.000000
0.825000 0.753442 0.000000
0.415000 0.164545 0.000000
0.785000 0.840045 0.000000
0.475000 0.372391 0.000000
0.895000 0.736122 0.000000
0.730000 0.294449 0.000000
0.650000 0.346410 0.000000
0.840000 0.952628 0.000000
0.969971 0.502274 0.000000
0.745000 0.424352 0.000000
0.170000 0.225167 0.000000
0.140000 0.277128 0.000000
0.280000 0.346410 0.000000
0.760000 0.502295 0.000000
0.305000 0.355070 0.000000
0.290000 0.346410 0.000000
0.060000 0.259808 0.000000
0.845000 0.164545 0.000000
0.140000 0.969912 0.000000
0.895000 0.251147 0.000000
0.959993 0.710137 0.000000
0.255000 0.701481 0.000000
0.460000 0.883346 0.000000
0.200000 0.710141 0.000000
0.380000 0.450333 0.000000
0.615000 0.407032 0.000000
0.420000 0.173205 0.000000
0.660000 0.207846 0.000000
0.250000 0.398372 0.000000
0.270000 0.363731 0.000000
0.240000 0.329090 0.000000
0.415000 0.840045 0.000000
0.530000 0.779423 0.000000
0.240000 0.692820 0.000000
0.515000 0.649519 0.000000
0.570000 0.121244 0.000000
0.034995 0.043302 0.000000
0.285000 0.493634 0.000000
0.625000 0.407032 0.000000
0.800000 0.121244 0.000000
0.745000 0.580237 0.000000
0.595000 0.718801 0.000000
0.755000 0.424352 0.000000
0.375000 0.943968 0.000000
0.625000 0.666840 0.000000
0.100000 0.588897 0.000000
0.215000 0.372391 0.000000
0.720000 0.710141 0.000000
0.735000 0.060622 0.000000
0.470000 0.363731 0.000000
0.535000 0.164545 0.000000
0.270000 0.069282 0.000000
0.900000 0.259808 0.000000
0.800000 0.467654 0.000000
0.435000 0.874686 0.000000
0.235000 0.337750 0.000000
0.055003 0.701479 0.000000
0.959995 0.900669 0.000000
0.810000 0.121244 0.000000
0.910000 0.952628 0.000000
0.635000 0.407032 0.000000
0.445000 0.892006 0.000000
0.480000 0.969948 0.000000
0.105000 0.060622 0.000000
0.875000 0.597558 0.000000
0.490000 0.069282 0.000000
0.575000 0.164545 0.000000
0.275000 0.355070 0.000000
0.905000 0.701481 0.000000
0.110000 0.536936 0.000000
0.225000 0.355070 0.000000
0.720000 0.779423 0.000000
0.220000 0.121244 0.000000
0.825000 0.441673 0.000000
0.875000 0.147224 0.000000
0.695000 0.355070 0.000000
0.780000 0.658179 0.000000
0.425000 0.840045 0.000000
0.325000 0.060622 0.000000
0.760000 0.831384 0.000000
0.765000 0.805404 0.000000
0.695000 0.943968 0.000000
0.880000 0.329090 0.000000
0.875000 0.320429 0.000000
0.775000 0.788083 0.000000
0.745000 0.926647 0.000000
0.755000 0.926647 0.000000
0.360000 0.346410 0.000000
0.785000 0.874686 0.000000
0.130000 0.415692 0.000000
0.220000 0.363731 0.000000
0.780000 0.242487 0.000000
0.095000 0.788083 0.000000
0.065000 0.718801 0.000000
0.025000 0.129904 0.000000
0.810000 0.554256 0.000000
0.210000 0.623538 0.000000
0.225000 0.874686 0.000000
0.820000 0.069282 0.000000
0.810000 0.069282 0.000000
0.625000 0.441673 0.000000
0.880000 0.969912 0.000000
0.875000 0.961282 0.000000
0.515000 0.805404 0.000000
0.160000 0.207846 0.000000
0.745000 0.233827 0.000000
0.230000 0.294449 0.000000
0.275000 0.562917 0.000000
0.565000 0.129904 0.000000
0.300000 0.588897 0.000000
0.175000 0.077942 0.000000
0.360000 0.450333 0.000000
0.330000 0.225167 0.000000
0.125000 0.476314 0.000000
0.400000 0.866025 0.000000
0.650000 0.051962 0.000000
0.375000 0.476314 0.000000
0.050001 0.588898 0.000000
0.035000 0.840045 0.000000
0.075000 0.701481 0.000000
0.940000 0.571577 0.000000
0.185000 0.372391 0.000000
0.660000 0.450333 0.000000
0.210000 0.103923 0.000000
0.830000 0.069282 0.000000
0.730000 0.051962 0.000000
0.865000 0.822724 0.000000
0.090000 0.138564 0.000000
0.735000 0.580237 0.000000
0.890000 0.225167 0.000000
0.270000 0.051962 0.000000
0.055000 0.181865 0.000000
0.755000 0.320429 0.000000
0.885000 0.545596 0.000000
0.055000 0.822724 0.000000
0.255000 0.926647 0.000000
0.370000 0.450333 0.000000
0.415000 0.251147 0.000000
0.160000 0.623538 0.000000
0.920000 0.640859 0.000000
0.635000 0.666840 0.000000
0.925000 0.857365 0.000000
0.030124 0.190468 0.000000
0.045000 0.978609 0.000000
0.745000 0.892006 0.000000
0.355000 0.892006 0.000000
0.640000 0.051962 0.000000
0.480000 0.190526 0.000000
0.240000 0.814064 0.000000
0.390000 0.346410 0.000000
0.135000 0.788083 0.000000
0.410000 0.848705 0.000000
0.405000 0.874686 0.000000
0.755000 0.233827 0.000000
0.360000 0.883346 0.000000
0.415000 0.181865 0.000000
0.340000 0.207846 0.000000
0.405000 0.251147 0.000000
0.385000 0.476314 0.000000
0.050000 0.190526 0.000000
0.270000 0.155885 0.000000
0.435000 0.303109 0.000000
0.550000 0.121244 0.000000
0.225000 0.822724 0.000000
0.090000 0.588897 0.000000
0.710000 0.744782 0.000000
0.590024 0.969556 0.000000
0.090000 0.277128 0.000000
0.815000 0.493634 0.000000
0.964930 0.874657 0.000000
0.770000 0.277128 0.000000
0.850000 0.762102 0.000000
0.805000 0.216506 0.000000
0.250000 0.710141 0.000000
0.175000 0.632199 0.000000
0.310000 0.346410 0.000000
0.190000 0.138564 0.000000
0.785000 0.008660 0.000000
0.720000 0.346410 0.000000
0.650000 0.658179 0.000000
0.100000 0.069282 0.000000
0.715000 0.562917 0.000000
0.025347 0.199236 0.000000
0.790000 0.710141 0.000000
0.980000 0.502295 0.000000
0.135000 0.095263 0.000000
0.200000 0.779423 0.000000
0.310000 0.762102 0.000000
0.165000 0.926647 0.000000
0.175000 0.926647 0.000000
0.045000 0.943968 0.000000
0.760000 0.571577 0.000000
0.395000 0.251147 0.000000
0.525000 0.805404 0.000000
0.165000 0.216506 0.000000
0.840000 0.935307 0.000000
0.845000 0.926647 0.000000
0.175000 0.545596 0.000000
0.740000 0.346410 0.000000
0.110000 0.779423 0.000000
0.055000 0.632199 0.000000
0.180000 0.536936 0.000000
0.835000 0.961288 0.000000
0.650000 0.450333 0.000000
0.265000 0.753442 0.000000
0.725000 0.718801 0.000000
0.370000 0.242487 0.000000
0.315000 0.337750 0.000000
0.765000 0.822724 0.000000
0.860000 0.155885 0.000000
0.180000 0.831384 0.000000
0.470000 0.294449 0.000000
0.760000 0.883346 0.000000
0.510000 0.051962 0.000000
0.855000 0.441673 0.000000
0.790000 0.883346 0.000000
0.795000 0.892006 0.000000
0.335000 0.874686 0.000000
0.765000 0.580237 0.000000
0.420000 0.311769 0.000000
0.925000 0.060622 0.000000
0.920000 0.692820 0.000000
0.040017 0.103924 0.000000
0.730000 0.346410 0.000000
0.375000 0.251147 0.000000
0.590000 0.155885 0.000000
0.855000 0.684160 0.000000
0.345000 0.216506 0.000000
0.375000 0.303109 0.000000
0.355000 0.545596 0.000000
0.105000 0.528275 0.000000
0.110000 0.658179 0.000000
0.125000 0.788083 0.000000
0.535000 0.112583 0.000000
0.915000 0.493634 0.000000
0.305000 0.112583 0.000000
0.315000 0.874686 0.000000
0.745000 0.337750 0.000000
0.110000 0.744782 0.000000
0.805000 0.458993 0.000000
0.120000 0.225167 0.000000
0.510000 0.121244 0.000000
0.080000 0.398372 0.000000
0.360000 0.554256 0.000000
0.260000 0.606218 0.000000
0.959994 0.536939 0.000000
0.385000 0.251147 0.000000
0.495000 0.857365 0.000000
0.815000 0.528275 0.000000
0.810000 0.536936 0.000000
0.815000 0.303109 0.000000
0.755023 0.978289 0.000000
0.325000 0.337750 0.000000
0.265000 0.562917 0.000000
0.510000 0.138564 0.000000
0.975000 0.840045 0.000000
0.250000 0.917987 0.000000
0.370000 0.311769 0.000000
0.405000 0.857365 0.000000
0.410000 0.536936 0.000000
0.950000 0.329090 0.000000
0.845000 0.684160 0.000000
0.380000 0.294449 0.000000
0.135000 0.407032 0.000000
0.645000 0.199186 0.000000
0.400000 0.484974 0.000000
0.050003 0.883346 0.000000
0.550000 0.814064 0.000000
0.070000 0.502295 0.000000
0.044991 0.840050 0.000000
0.320000 0.744782 0.000000
0.750000 0.329090 0.000000
0.660000 0.051962 0.000000
0.610000 0.883346 0.000000
0.355000 0.407032 0.000000
0.920000 0.796743 0.000000
0.665000 0.649519 0.000000
0.760000 0.311769 0.000000
0.825000 0.216506 0.000000
0.935000 0.649519 0.000000
0.055007 0.909330 0.000000
0.870000 0.866025 0.000000
0.040007 0.242483 0.000000
0.840000 0.190526 0.000000
0.949999 0.658180 0.000000
0.110000 0.675500 0.000000
0.160000 0.917987 0.000000
0.475000 0.025981 0.000000
0.490000 0.086603 0.000000
0.765000 0.303109 0.000000
0.235000 0.199186 0.000000
0.640000 0.450333 0.000000
0.265000 0.926647 0.000000
0.390000 0.484974 0.000000
0.690000 0.051962 0.000000
0.955000 0.320429 0.000000
0.120000 0.259808 0.000000
0.910000 0.086603 0.000000
0.770000 0.796743 0.000000
0.085000 0.545596 0.000000
0.635000 0.199186 0.000000
0.895000 0.718801 0.000000
0.925000 0.701481 0.000000
0.830000 0.502295 0.000000
0.535000 0.528275 0.000000
0.785000 0.043301 0.000000
0.505000 0.060622 0.000000
0.900000 0.484974 0.000000
0.535000 0.805404 0.000000
0.800000 0.017321 0.000000
0.345000 0.892006 0.000000
0.255000 0.718801 0.000000
0.735000 0.892006 0.000000
0.645000 0.892006 0.000000
0.255000 0.770763 0.000000
0.785000 0.580237 0.000000
0.065000 0.649519 0.000000
0.520000 0.779423 0.000000
0.335000 0.753442 0.000000
0.145000 0.580237 0.000000
0.775000 0.580237 0.000000
0.670000 0.051962 0.000000
0.170000 0.242487 0.000000
0.745000 0.251147 0.000000
0.595000 0.147224 0.000000
0.125000 0.095263 0.000000
0.155000 0.614878 0.000000
0.170000 0.640859 0.000000
0.205000 0.597558 0.000000
0.265000 0.580237 0.000000
0.690000 0.952628 0.000000
0.345000 0.372391 0.000000
0.680000 0.051962 0.000000
0.130000 0.571577 0.000000
0.964994 0.892010 0.000000
0.830000 0.311769 0.000000
0.105000 0.684160 0.000000
0.945000 0.528275 0.000000
0.635000 0.441673 0.000000
0.930000 0.051961 0.000000
0.110000 0.692820 0.000000
0.400000 0.710141 0.000000
0.910000 0.069282 0.000000
0.940000 0.640859 0.000000
0.425000 0.251147 0.000000
0.155000 0.597558 0.000000
0.100000 0.917987 0.000000
0.045004 0.580239 0.000000
0.500000 0.069282 0.000000
0.155000 0.043301 0.000000
0.165000 0.268468 0.000000
0.260000 0.762102 0.000000
0.200000 0.606218 0.000000
0.965000 0.320429 0.000000
0.325000 0.874686 0.000000
0.185000 0.147224 0.000000
0.820000 0.519615 0.000000
0.205000 0.770763 0.000000
0.860000 0.121244 0.000000
0.185000 0.649519 0.000000
0.030010 0.744835 0.000000
0.700000 0.051962 0.000000
0.675000 0.666840 0.000000
0.765000 0.874686 0.000000
0.105000 0.788083 0.000000
0.545000 0.112583 0.000000
0.770000 0.294449 0.000000
0.520000 0.121244 0.000000
0.120000 0.692820 0.000000
0.245000 0.788083 0.000000
0.670000 0.900666 0.000000
0.675000 0.909327 0.000000
0.710000 0.051962 0.000000
0.230000 0.796743 0.000000
0.870000 0.658179 0.000000
0.160000 0.588897 0.000000
0.530000 0.121244 0.000000
0.395000 0.701481 0.000000
0.085000 0.337750 0.000000
0.440000 0.883346 0.000000
0.340000 0.744782 0.000000
0.810000 0.450333 0.000000
0.030016 0.051946 0.000000
0.720000 0.727461 0.000000
0.080000 0.329090 0.000000
0.810000 0.242487 0.000000
0.969925 0.883309 0.000000
0.165000 0.874686 0.000000
0.760000 0.051962 0.000000
0.885000 0.216506 0.000000
0.215000 0.822724 0.000000
0.040000 0.640859 0.000000
0.115000 0.562917 0.000000
0.480000 0.103923 0.000000
0.865000 0.926647 0.000000
0.855000 0.926647 0.000000
0.620000 0.450333 0.000000
0.315000 0.753442 0.000000
0.465000 0.112583 0.000000
0.455000 0.112583 0.000000
0.500000 0.848705 0.000000
0.115000 0.077942 0.000000
0.425000 0.112583 0.000000
0.095000 0.718801 0.000000
0.925000 0.043301 0.000000
0.210000 0.155885 0.000000
0.845000 0.199186 0.000000
0.230000 0.207846 0.000000
0.850000 0.433013 0.000000
0.805000 0.060622 0.000000
0.960001 0.744781 0.000000
0.825004 0.978280 0.000000
0.125000 0.251147 0.000000
0.205000 0.164545 0.000000
0.125000 0.372391 0.000000
0.205000 0.753442 0.000000
0.395000 0.562917 0.000000
0.490000 0.103923 0.000000
0.200000 0.814064 0.000000
0.275000 0.926647 0.000000
0.510000 0.779423 0.000000
0.480000 0.034641 0.000000
0.475000 0.112583 0.000000
0.540000 0.814064 0.000000
0.290000 0.866025 0.000000
0.245000 0.684160 0.000000
0.705000 0.614878 0.000000
0.975000 0.320429 0.000000
0.080000 0.554256 0.000000
0.815000 0.441673 0.000000
0.180000 0.658179 0.000000
0.100000 0.519615 0.000000
0.255000 0.164545 0.000000
0.240000 0.779423 0.000000
0.435000 0.112583 0.000000
0.715000 0.736122 0.000000
0.215000 0.112583 0.000000
0.050002 0.571577 0.000000
0.155000 0.909327 0.000000
0.555000 0.805404 0.000000
0.440000 0.259808 0.000000
0.245000 0.164545 0.000000
0.135000 0.181865 0.000000
0.435000 0.251147 0.000000
0.060003 0.900668 0.000000
0.290000 0.917987 0.000000
0.160000 0.866025 0.000000
0.845000 0.753442 0.000000
0.845000 0.129904 0.000000
0.610000 0.450333 0.000000
0.024510 0.735280 0.000000
0.954999 0.666840 0.000000
0.350000 0.744782 0.000000
0.745000 0.060622 0.000000
0.035196 0.095234 0.000000
0.850000 0.121244 0.000000
0.445000 0.112583 0.000000
0.180000 0.121244 0.000000
0.060000 0.640859 0.000000
0.795000 0.060622 0.000000
0.029686 0.640771 0.000000
0.045002 0.562916 0.000000
0.940000 0.034641 0.000000
0.049990 0.831390 0.000000
0.830000 0.640859 0.000000
0.285000 0.926647 0.000000
0.095000 0.441673 0.000000
0.835000 0.303109 0.000000
0.640000 0.900666 0.000000
0.825000 0.510955 0.000000
0.845000 0.736122 0.000000
0.130000 0.242487 0.000000
0.265000 0.597558 0.000000
0.600000 0.450333 0.000000
0.160000 0.900666 0.000000
0.185000 0.666840 0.000000
0.120000 0.415692 0.000000
0.750000 0.051962 0.000000
0.460000 0.259808 0.000000
0.600000 0.138564 0.000000
0.085000 0.562917 0.000000
0.450000 0.259808 0.000000
0.855000 0.181865 0.000000
0.840000 0.207846 0.000000
0.895000 0.095263 0.000000
0.100000 0.433013 0.000000
0.850000 0.727461 0.000000
0.190000 0.121244 0.000000
0.505000 0.770763 0.000000
0.470000 0.277128 0.000000
0.465000 0.268468 0.000000
0.929998 0.952627 0.000000
0.565000 0.805404 0.000000
0.045001 0.251147 0.000000
0.830000 0.450333 0.000000
0.825000 0.129904 0.000000
0.915000 0.077942 0.000000
0.720000 0.051962 0.000000
0.085000 0.285788 0.000000
0.925000 0.736122 0.000000
0.475000 0.285788 0.000000
0.190000 0.831384 0.000000
0.055000 0.943968 0.000000
0.830000 0.121244 0.000000
0.235000 0.805404 0.000000
0.850000 0.415692 0.000000
0.935000 0.822724 0.000000
0.585000 0.805404 0.000000
0.580000 0.814064 0.000000
0.810000 0.017321 0.000000
0.845000 0.632199 0.000000
0.570000 0.814064 0.000000
0.845000 0.718801 0.000000
0.765000 0.060622 0.000000
0.210000 0.173205 0.000000
0.820000 0.225167 0.000000
0.815000 0.233827 0.000000
0.910000 0.484974 0.000000
0.270000 0.866025 0.000000
0.890000 0.969942 0.000000
0.850000 0.173205 0.000000
0.385000 0.112583 0.000000
0.780000 0.034641 0.000000
0.590000 0.450333 0.000000
0.165000 0.857365 0.000000
0.610000 0.138564 0.000000
0.075000 0.528275 0.000000
0.605000 0.892006 0.000000
0.175000 0.840045 0.000000
0.305000 0.909327 0.000000
0.295000 0.909327 0.000000
0.165000 0.892006 0.000000
0.550000 0.450333 0.000000
0.775000 0.060622 0.000000
0.830001 0.969918 0.000000
0.610000 0.796743 0.000000
0.580000 0.450333 0.000000
0.510000 0.848705 0.000000
0.140000 0.051962 0.000000
0.095000 0.510955 0.000000
0.380000 0.588897 0.000000
0.160000 0.883346 0.000000
0.150000 0.051962 0.000000
0.405000 0.112583 0.000000
0.825000 0.008660 0.000000
0.260000 0.866025 0.000000
0.160000 0.848705 0.000000
0.120000 0.173205 0.000000
0.495000 0.770763 0.000000
0.480000 0.762102 0.000000
0.120000 0.207846 0.000000
0.280000 0.866025 0.000000
0.510000 0.554256 0.000000
0.765000 0.268468 0.000000
0.840000 0.710141 0.000000
0.840000 0.692820 0.000000
0.660000 0.900666 0.000000
0.964994 0.666842 0.000000
0.055000 0.424352 0.000000
0.115000 0.216506 0.000000
0.225000 0.181865 0.000000
0.560000 0.502295 0.000000
0.385000 0.597558 0.000000
0.570000 0.450333 0.000000
0.845000 0.701481 0.000000
0.885000 0.978398 0.000000
0.335000 0.943968 0.000000
0.120000 0.086603 0.000000
0.790000 0.051962 0.000000
0.265000 0.043301 0.000000
0.490000 0.762102 0.000000
0.275000 0.025981 0.000000
0.415000 0.112583 0.000000
0.595000 0.805404 0.000000
0.085000 0.355070 0.000000
0.780000 0.051962 0.000000
0.125000 0.701481 0.000000
0.125000 0.199186 0.000000
0.850000 0.450333 0.000000
0.780000 0.259808 0.000000
0.850000 0.744782 0.000000
0.475000 0.770763 0.000000
0.935000 0.025981 0.000000
0.815000 0.008660 0.000000
0.025000 0.060622 0.000000
0.310000 0.917987 0.000000
0.605000 0.805404 0.000000
0.560000 0.450333 0.000000
0.460000 0.779423 0.000000
0.465000 0.770763 0.000000
0.840000 0.571577 0.000000
0.900000 0.103923 0.000000
0.255000 0.874686 0.000000
0.840000 0.450333 0.000000
0.640000 0.917987 0.000000
0.400000 0.606218 0.000000
0.490000 0.710141 0.000000
0.725000 0.008660 0.000000
0.160000 0.606218 0.000000
0.735000 0.095263 0.000000
0.790000 0.866025 0.000000
0.785000 0.251147 0.000000
0.535000 0.458993 0.000000
0.495000 0.545596 0.000000
0.055003 0.892008 0.000000
0.480000 0.710141 0.000000
0.130000 0.710141 0.000000
0.105000 0.164545 0.000000
0.040021 0.554256 0.000000
0.515000 0.666840 0.000000
0.795000 0.857365 0.000000
0.845000 0.424352 0.000000
0.105000 0.407032 0.000000
0.545000 0.458993 0.000000
0.900000 0.831384 0.000000
0.315000 0.926647 0.000000
0.225000 0.753442 0.000000
0.070000 0.138564 0.000000
0.140000 0.710141 0.000000
0.555000 0.510955 0.000000
0.455000 0.788083 0.000000
0.395000 0.614878 0.000000
0.480000 0.727461 0.000000
0.535000 0.614878 0.000000
0.490000 0.536936 0.000000
0.245000 0.874686 0.000000
0.825000 0.372391 0.000000
0.065000 0.424352 0.000000
0.035173 0.891940 0.000000
0.830000 0.017321 0.000000
0.700000 0.658179 0.000000
0.540000 0.623538 0.000000
0.270000 0.034641 0.000000
0.835000 0.407032 0.000000
0.090000 0.502295 0.000000
0.775000 0.025981 0.000000
0.930000 0.017321 0.000000
0.410000 0.623538 0.000000
0.520000 0.848705 0.000000
0.625000 0.943968 0.000000
0.410000 0.796743 0.000000
0.635000 0.926647 0.000000
0.575000 0.008660 0.000000
0.080000 0.502295 0.000000
0.085000 0.303109 0.000000
0.830000 0.398372 0.000000
0.545000 0.510955 0.000000
0.100000 0.155885 0.000000
0.445000 0.788083 0.000000
0.910000 0.692820 0.000000
0.100000 0.415692 0.000000
0.495000 0.510955 0.000000
0.860000 0.658179 0.000000
0.700000 0.017321 0.000000
0.750000 0.086603 0.000000
0.405000 0.632199 0.000000
0.920000 0.017321 0.000000
0.910000 0.017321 0.000000
0.865000 0.684160 0.000000
0.420000 0.796743 0.000000
0.975048 0.666757 0.000000
0.240000 0.883346 0.000000
0.735000 0.008660 0.000000
0.065000 0.129904 0.000000
0.775000 0.095263 0.000000
0.440000 0.796743 0.000000
0.320000 0.935307 0.000000
0.900000 0.017321 0.000000
0.540000 0.519615 0.000000
0.195000 0.822724 0.000000
0.655000 0.892006 0.000000
0.355000 0.926647 0.000000
0.430000 0.796743 0.000000
0.680000 0.017321 0.000000
0.130000 0.190526 0.000000
0.410000 0.640859 0.000000
0.380000 0.103923 0.000000
0.870000 0.675500 0.000000
0.540000 0.536936 0.000000
0.765000 0.008660 0.000000
0.045015 0.545600 0.000000
0.415000 0.770763 0.000000
0.230000 0.744782 0.000000
0.840000 0.017321 0.000000
0.690000 0.017321 0.000000
0.615000 0.649519 0.000000
0.885000 0.112583 0.000000
0.710000 0.017321 0.000000
0.395000 0.112583 0.000000
0.825000 0.389711 0.000000
0.535000 0.545596 0.000000
0.145000 0.718801 0.000000
0.690000 0.658179 0.000000
0.135000 0.043301 0.000000
0.850000 0.017321 0.000000
0.660000 0.017321 0.000000
0.510000 0.658179 0.000000
0.350000 0.935307 0.000000
0.085000 0.320429 0.000000
0.860000 0.017321 0.000000
0.815000 0.372391 0.000000
0.670000 0.658179 0.000000
0.875000 0.666840 0.000000
0.745000 0.095263 0.000000
0.400000 0.762102 0.000000
0.750000 0.017321 0.000000
0.620000 0.658179 0.000000
0.770000 0.017321 0.000000
0.630000 0.935307 0.000000
0.760000 0.086603 0.000000
0.740000 0.017321 0.000000
0.325000 0.943968 0.000000
0.530000 0.554256 0.000000
0.405000 0.770763 0.000000
0.150000 0.727461 0.000000
0.390000 0.744782 0.000000
0.395000 0.753442 0.000000
0.095000 0.147224 0.000000
0.670000 0.017321 0.000000
0.530000 0.848705 0.000000
0.880000 0.121244 0.000000
0.855000 0.649519 0.000000
0.390000 0.727461 0.000000
0.340000 0.935307 0.000000
0.050004 0.103923 0.000000
0.060000 0.121244 0.000000
0.890000 0.017321 0.000000
0.520000 0.554256 0.000000
0.978769 0.882445 0.000000
0.130000 0.034641 0.000000
0.520000 0.606218 0.000000
0.535000 0.632199 0.000000
0.825000 0.632199 0.000000
0.830000 0.381051 0.000000
0.485000 0.510955 0.000000
0.090000 0.346410 0.000000
0.530000 0.640859 0.000000
0.810000 0.363731 0.000000
0.795000 0.355070 0.000000
0.525000 0.649519 0.000000
0.160000 0.727461 0.000000
0.880000 0.017321 0.000000
0.040026 0.536947 0.000000
0.475000 0.510955 0.000000
0.505000 0.545596 0.000000
0.890000 0.484974 0.000000
0.175000 0.736122 0.000000
0.455000 0.649519 0.000000
0.875000 0.129904 0.000000
0.965010 0.736122 0.000000
0.625033 0.960628 0.000000
0.640000 0.017321 0.000000
0.920000 0.831384 0.000000
0.925000 0.822724 0.000000
0.465000 0.510955 0.000000
0.650000 0.017321 0.000000
0.170000 0.727461 0.000000
0.820000 0.623538 0.000000
0.850000 0.640859 0.000000
0.170000 0.744782 0.000000
0.870000 0.017321 0.000000
0.055001 0.112583 0.000000
0.820000 0.606218 0.000000
0.880000 0.484974 0.000000
0.720000 0.121244 0.000000
0.850000 0.571577 0.000000
0.815000 0.614878 0.000000
0.455000 0.510955 0.000000
0.790000 0.103923 0.000000
0.800000 0.346410 0.000000
0.540000 0.848705 0.000000
0.830000 0.588897 0.000000
0.540000 0.017321 0.000000
0.825000 0.597558 0.000000
0.800000 0.363731 0.000000
0.445000 0.510955 0.000000
0.525000 0.597558 0.000000
0.175000 0.753442 0.000000
0.695000 0.112583 0.000000
0.435000 0.510955 0.000000
0.970009 0.727461 0.000000
0.415000 0.545596 0.000000
0.835000 0.580237 0.000000
0.215000 0.701481 0.000000
0.430000 0.519615 0.000000
0.375000 0.926647 0.000000
0.425000 0.528275 0.000000
0.860000 0.536936 0.000000
0.034978 0.528311 0.000000
0.415000 0.528275 0.000000
0.875000 0.510955 0.000000
0.705000 0.112583 0.000000
0.875000 0.493634 0.000000
0.850000 0.554256 0.000000
0.550000 0.848705 0.000000
0.870000 0.502295 0.000000
0.630000 0.017321 0.000000
0.855000 0.545596 0.000000
0.730000 0.103923 0.000000
0.170000 0.762102 0.000000
0.410000 0.554256 0.000000
0.600000 0.017321 0.000000
0.610000 0.017321 0.000000
0.920000 0.398372 0.000000
0.855000 0.562917 0.000000
0.535000 0.025981 0.000000
0.790000 0.329090 0.000000
0.870000 0.519615 0.000000
0.915000 0.407032 0.000000
0.365000 0.926647 0.000000
0.180000 0.779423 0.000000
0.390000 0.935307 0.000000
0.400000 0.554256 0.000000
0.175000 0.770763 0.000000
0.725000 0.112583 0.000000
0.380000 0.935307 0.000000
0.925000 0.372391 0.000000
0.865000 0.528275 0.000000
0.190000 0.779423 0.000000
0.895000 0.458993 0.000000
0.400000 0.571577 0.000000
0.420000 0.935307 0.000000
0.900000 0.467654 0.000000
0.560000 0.848705 0.000000
0.190000 0.675500 0.000000
0.400000 0.935307 0.000000
0.395000 0.580237 0.000000
0.930000 0.346410 0.000000
0.925000 0.355070 0.000000
0.930000 0.363731 0.000000
0.930000 0.381051 0.000000
0.030071 0.519657 0.000000
0.570000 0.017321 0.000000
0.805000 0.320429 0.000000
0.890000 0.450333 0.000000
0.895000 0.476314 0.000000
0.590000 0.017321 0.000000
0.685000 0.112583 0.000000
0.025115 0.510734 0.000000
0.895000 0.441673 0.000000
0.620000 0.017321 0.000000
0.940000 0.329090 0.000000
0.440000 0.017321 0.000000
0.385000 0.580237 0.000000
0.445000 0.008660 0.000000
0.795000 0.337750 0.000000
0.590000 0.848705 0.000000
0.585000 0.008660 0.000000
0.595000 0.857365 0.000000
0.935000 0.337750 0.000000
0.925000 0.389711 0.000000
0.410000 0.935307 0.000000
0.215000 0.753442 0.000000
0.900000 0.433013 0.000000
0.500000 0.017321 0.000000
0.490000 0.017321 0.000000
0.845000 0.303109 0.000000
0.570000 0.848705 0.000000
0.510000 0.017321 0.000000
0.900000 0.814064 0.000000
0.810000 0.311769 0.000000
0.560000 0.017321 0.000000
0.850000 0.294449 0.000000
0.905000 0.424352 0.000000
0.425000 0.926647 0.000000
0.515000 0.025981 0.000000
0.980000 0.727461 0.000000
0.580000 0.848705 0.000000
0.550000 0.017321 0.000000
0.440000 0.917987 0.000000
0.845000 0.285788 0.000000
0.675000 0.112583 0.000000
0.890000 0.190526 0.000000
0.605000 0.857365 0.000000
0.910000 0.415692 0.000000
0.430000 0.917987 0.000000
0.525000 0.025981 0.000000
0.840000 0.277128 0.000000
0.480000 0.017321 0.000000
0.845000 0.268468 0.000000
0.605000 0.874686 0.000000
0.470000 0.017321 0.000000
0.615000 0.129904 0.000000
0.445000 0.926647 0.000000
0.850000 0.259808 0.000000
0.455000 0.008660 0.000000
0.665000 0.112583 0.000000
0.460000 0.017321 0.000000
0.455000 0.926647 0.000000
0.915000 0.840045 0.000000
0.610000 0.121244 0.000000
0.430000 0.017321 0.000000
0.900000 0.190526 0.000000
0.420000 0.017321 0.000000
0.245000 0.008660 0.000000
0.870000 0.225167 0.000000
0.315000 0.008660 0.000000
0.865000 0.233827 0.000000
0.410000 0.017321 0.000000
0.465000 0.926647 0.000000
0.400000 0.017321 0.000000
0.860000 0.242487 0.000000
0.240000 0.017321 0.000000
0.875000 0.216506 0.000000
0.855000 0.251147 0.000000
0.390000 0.017321 0.000000
0.655000 0.112583 0.000000
0.370000 0.017321 0.000000
0.910000 0.138564 0.000000
0.130000 0.017321 0.000000
0.475000 0.926647 0.000000
0.360000 0.017321 0.000000
0.350000 0.017321 0.000000
0.380000 0.017321 0.000000
0.340000 0.017321 0.000000
0.135000 0.008660 0.000000
0.330000 0.017321 0.000000
0.125000 0.025981 0.000000
0.145000 0.008660 0.000000
0.150000 0.017321 0.000000
0.645000 0.112583 0.000000
0.325000 0.008660 0.000000
0.880000 0.207846 0.000000
0.485000 0.926647 0.000000
0.310000 0.017321 0.000000
0.180000 0.017321 0.000000
0.925000 0.112583 0.000000
0.160000 0.017321 0.000000
0.885000 0.199186 0.000000
0.935000 0.112583 0.000000
0.270000 0.017321 0.000000
0.290000 0.017321 0.000000
0.300000 0.017321 0.000000
0.185000 0.008660 0.000000
0.495000 0.926647 0.000000
0.280000 0.017321 0.000000
0.210000 0.017321 0.000000
0.170000 0.017321 0.000000
0.640000 0.121244 0.000000
0.940000 0.086603 0.000000
0.195000 0.008660 0.000000
0.220000 0.017321 0.000000
0.505000 0.926647 0.000000
0.260000 0.017321 0.000000
0.950000 0.086603 0.000000
0.200000 0.017321 0.000000
0.905000 0.181865 0.000000
0.255000 0.008660 0.000000
0.515000 0.926647 0.000000
0.630000 0.121244 0.000000
0.525000 0.926647 0.000000
0.235000 0.025981 0.000000
0.900000 0.173205 0.000000
0.535000 0.926647 0.000000
0.225000 0.025981 0.000000
0.040000 0.017321 0.000000
0.540000 0.917987 0.000000
0.550000 0.917987 0.000000
0.910000 0.155885 0.000000
0.110000 0.017321 0.000000
0.625000 0.129904 0.000000
0.025034 0.008607 0.000000
0.045000 0.008660 0.000000
0.905000 0.147224 0.000000
0.905000 0.164545 0.000000
0.555000 0.926647 0.000000
0.920000 0.138564 0.000000
0.029991 0.017255 0.000000
0.115000 0.025981 0.000000
0.560000 0.935307 0.000000
0.620003 0.952539 0.000000
0.925000 0.129904 0.000000
0.920000 0.121244 0.000000
0.570000 0.935307 0.000000
0.590000 0.935307 0.000000
0.100000 0.017321 0.000000
0.580000 0.935307 0.000000
0.595000 0.926647 0.000000
0.090000 0.017321 0.000000
0.055000 0.008660 0.000000
0.605000 0.926647 0.000000
0.940000 0.103923 0.000000
0.935000 0.095263 0.000000
0.070000 0.017321 0.000000
0.615000 0.926647 0.000000
0.080000 0.017321 0.000000
0.620000 0.935307 0.000000
0.955000 0.077942 0.000000
0.060000 0.017321 0.000000
0.959993 0.069294 0.000000
0.965000 0.060660 0.000000
0.960018 0.051999 0.000000
0.974955 0.112810 0.000000
0.979952 0.122035 0.000000
0.992655 0.794815 0.000000
0.007349 0.175165 0.000000
0.969912 0.172942 0.000000
0.024501 0.094561 0.000000
0.008301 0.534123 0.000000
0.016260 0.729918 0.000000
0.024411 0.355669 0.000000
0.975634 0.614292 0.000000
0.008347 0.274164 0.000000
0.015353 0.008255 0.000000
0.015501 0.990678 0.000000
0.984705 0.008219 0.000000
0.984952 0.991579 0.000000
0.991517 0.245367 0.000000
0.025617 0.909354 0.000000
0.959283 0.971108 0.000000
0.007806 0.905000 0.000000
0.964615 0.181763 0.000000
0.959685 0.190464 0.000000
0.979792 0.207232 0.000000
0.991583 0.575078 0.000000
0.021332 0.900238 0.000000
0.963252 0.982420 0.000000
0.983470 0.600185 0.000000
0.984473 0.130821 0.000000
0.016579 0.369829 0.000000
0.025807 0.077727 0.000000
0.991689 0.585500 0.000000
0.016124 0.980000 0.000000
0.016341 0.059939 0.000000
0.983772 0.649983 0.000000
0.015872 0.649805 0.000000
0.983966 0.320057 0.000000
0.016071 0.320000 0.000000
0.983753 0.390001 0.000000
0.016043 0.389948 0.000000
0.016067 0.580000 0.000000
0.015958 0.129951 0.000000
0.984007 0.840016 0.000000
0.983752 0.909902 0.000000
0.983925 0.771415 0.000000
0.016252 0.770162 0.000000
0.016084 0.198518 0.000000
0.983666 0.510309 0.000000
0.015606 0.512264 0.000000
0.016017 0.459552 0.000000
0.983832 0.060341 0.000000
0.016158 0.251263 0.000000
0.026044 0.718418 0.000000
0.983711 0.719503 0.000000
0.016368 0.960502 0.000000
0.974360 0.198957 0.000000
0.991728 0.255733 0.000000
0.983517 0.700550 0.000000
0.016506 0.700645 0.000000
0.983788 0.269236 0.000000
0.983509 0.962274 0.000000
0.983687 0.440742 0.000000
0.016186 0.440941 0.000000
0.983654 0.529053 0.000000
0.007068 0.265000 0.000000
0.015818 0.790800 0.000000
0.983958 0.889825 0.000000
0.016002 0.890896 0.000000
0.007024 0.525000 0.000000
0.983525 0.079000 0.000000
0.006994 0.185000 0.000000
0.983443 0.631394 0.000000
0.016287 0.631079 0.000000
0.983896 0.459505 0.000000
0.993016 0.785000 0.000000
0.983551 0.338628 0.000000
0.016546 0.338623 0.000000
0.992634 0.183630 0.000000
0.983432 0.371430 0.000000
0.016491 0.598753 0.000000
0.016589 0.111609 0.000000
0.983330 0.858482 0.000000
0.983354 0.821654 0.000000
0.016718 0.821584 0.000000
0.993376 0.114454 0.000000
0.016671 0.148391 0.000000
0.983412 0.561670 0.000000
0.016714 0.561681 0.000000
0.016729 0.408281 0.000000
0.993196 0.405000 0.000000
0.016384 0.858491 0.000000
0.983280 0.301906 0.000000
0.016716 0.301803 0.000000
0.016578 0.668223 0.000000
0.993243 0.925000 0.000000
0.006744 0.925160 0.000000
0.006748 0.755000 0.000000
0.993258 0.215000 0.000000
0.993271 0.495000 0.000000
0.615155 0.975569 0.000000
0.590163 0.984257 0.000000
0.539764 0.985500 0.000000
0.462985 0.977540 0.000000
0.429760 0.985497 0.000000
0.332121 0.984501 0.000000
0.685115 0.992635 0.000000
0.317957 0.985871 0.000000
0.169763 0.985513 0.000000
0.219701 0.985588 0.000000
0.249759 0.985488 0.000000
0.785196 0.992854 0.000000
0.865115 0.992635 0.000000
0.956684 0.992312 0.000000
0.815115 0.992639 0.000000
0.524886 0.992638 0.000000
0.477015 0.977540 0.000000
0.414883 0.992635 0.000000
0.304885 0.992639 0.000000
0.355163 0.977051 0.000000
0.204885 0.992639 0.000000
0.234802 0.992850 0.000000
0.154885 0.992639 0.000000
0.640158 0.968699 0.000000
0.639858 0.984063 0.000000
0.800299 0.985589 0.000000
0.850237 0.985488 0.000000
0.670237 0.985488 0.000000
0.770237 0.985513 0.000000
0.940129 0.985781 0.000000
0.993291 0.735000 0.000000
0.016676 0.492171 0.000000
0.016669 0.477816 0.000000
0.006589 0.025273 0.000000
0.993422 0.025304 0.000000
0.993246 0.684618 0.000000
0.006832 0.684827 0.000000
0.006785 0.944545 0.000000
0.983499 0.232417 0.000000
0.993366 0.164859 0.000000
0.993331 0.095000 0.000000
0.006667 0.615000 0.000000
0.006702 0.234475 0.000000
0.983221 0.287268 0.000000
0.016762 0.286806 0.000000
0.993385 0.665000 0.000000
0.016758 0.422652 0.000000
0.983338 0.547298 0.000000
0.016702 0.547338 0.000000
0.016795 0.163509 0.000000
0.983201 0.806443 0.000000
0.016799 0.806443 0.000000
0.983193 0.873642 0.000000
0.016807 0.873642 0.000000
0.983575 0.355870 0.000000
0.993409 0.044601 0.000000
0.006776 0.044277 0.000000
0.993469 0.754811 0.000000
0.006541 0.215255 0.000000
0.580110 0.984834 0.000000
0.605139 0.976201 0.000000
0.570021 0.985003 0.000000
0.560000 0.984974 0.000000
0.549871 0.985184 0.000000
0.509988 0.984939 0.000000
0.500000 0.984974 0.000000
0.490000 0.984974 0.000000
0.450000 0.984974 0.000000
0.439878 0.985190 0.000000
0.400000 0.984974 0.000000
0.380000 0.984974 0.000000
0.390000 0.984974 0.000000
0.370000 0.984974 0.000000
0.345120 0.976583 0.000000
0.030000 0.984974 0.000000
0.040000 0.984974 0.000000
0.289987 0.984938 0.000000
0.130000 0.984974 0.000000
0.050000 0.984974 0.000000
0.060000 0.984974 0.000000
0.120000 0.984974 0.000000
0.140000 0.984974 0.000000
0.280000 0.984974 0.000000
0.110000 0.984974 0.000000
0.269998 0.984961 0.000000
0.070000 0.984974 0.000000
0.179865 0.985161 0.000000
0.189984 0.984989 0.000000
0.259877 0.985144 0.000000
0.080000 0.984974 0.000000
0.100000 0.984974 0.000000
0.090000 0.984974 0.000000
0.630000 0.967654 0.000000
0.650000 0.984974 0.000000
0.660084 0.985209 0.000000
0.830020 0.984986 0.000000
0.840066 0.985071 0.000000
0.880012 0.984939 0.000000
0.700012 0.984939 0.000000
0.750006 0.984977 0.000000
0.720000 0.984974 0.000000
0.710000 0.984974 0.000000
0.740001 0.984975 0.000000
0.730000 0.984974 0.000000
0.890000 0.984974 0.000000
0.760134 0.985136 0.000000
0.910000 0.984974 0.000000
0.900000 0.984974 0.000000
0.920000 0.984974 0.000000
0.930110 0.985232 0.000000
0.993657 0.475000 0.000000
0.520000 0.984949 0.000000
0.480000 0.984999 0.000000
0.410000 0.984949 0.000000
0.360032 0.984812 0.000000
0.595042 0.976473 0.000000
0.300000 0.984949 0.000000
0.150000 0.984949 0.000000
0.200000 0.984949 0.000000
0.534807 0.992682 0.000000
0.229651 0.985508 0.000000
0.675195 0.992678 0.000000
0.460000 0.984999 0.000000
0.424803 0.992679 0.000000
0.855195 0.992678 0.000000
0.775208 0.992722 0.000000
0.805265 0.992790 0.000000
0.314880 0.993379 0.000000
0.945087 0.993474 0.000000
0.335299 0.977025 0.000000
0.214735 0.992790 0.000000
0.164805 0.992686 0.000000
0.620000 0.967629 0.000000
0.244789 0.992713 0.000000
0.690000 0.984949 0.000000
0.790342 0.985519 0.000000
0.870000 0.984949 0.000000
0.820000 0.984949 0.000000
0.993031 0.146244 0.000000
0.015366 0.840125 0.000000
0.993789 0.945000 0.000000
0.015993 0.737963 0.000000
0.993689 0.424874 0.000000
0.992679 0.007321 0.000000
0.992679 0.992679 0.000000
0.007321 0.007321 0.000000
0.007321 0.992679 0.000000
0.015934 0.097542 0.000000
0.985603 0.970211 0.000000
0.015916 0.352603 0.000000
0.977396 0.605546 0.000000
0.022693 0.364441 0.000000
0.984200 0.617365 0.000000
0.992900 0.197702 0.000000
0.022830 0.085729 0.000000
0.013576 0.900456 0.000000
0.022942 0.726273 0.000000
0.022122 0.985194 0.000000
0.987090 0.780853 0.000000
0.012906 0.189154 0.000000
0.992997 0.132405 0.000000
0.013057 0.520402 0.000000
0.013044 0.260536 0.000000
0.013825 0.799384 0.000000
0.013871 0.881146 0.000000
0.986181 0.880523 0.000000
0.986294 0.798560 0.000000
0.013688 0.171442 0.000000

CELLS 23252 93008
3 7011 8778 461 
3 7134 11586 11579 
3 511 10413 8882 
3 452 11568 6795 
3 394 6901 471 
3 8524 11713 8667 
3 6786 9292 540 
3 461 11706 7011 
3 6795 11707 452 
3 483 11572 7699 
3 512 11563 7531 
3 6898 9730 561 
3 511 11705 10413 
3 11586 11672 6781 
3 560 11713 8524 
3 6781 11672 6840 
3 540 11702 6786 
3 7699 11703 483 
3 530 9102 8224 
3 487 11577 6816 
3 400 10532 9101 
3 513 6900 6848 
3 7128 7304 551 
3 6859 6894 509 
3 413 8099 6823 
3 488 8690 6798 
3 7161 8883 536 
3 489 6920 179 
3 411 9084 7685 
3 8098 9092 544 
3 482 6853 6851 
3 375 6959 426 
3 440 9087 8214 
3 537 8781 6801 
3 6291 8411 8410 
3 433 6960 380 
3 6802 9525 442 
3 505 8658 6855 
3 561 11649 6898 
3 8703 11030 6769 
3 6816 11697 487 
3 8220 8412 404 
3 467 8700 6829 
3 531 9104 7275 
3 6815 8689 415 
3 6843 9105 418 
3 517 11584 6828 
3 462 8747 6831 
3 7531 11644 512 
3 304 6897 499 
3 402 10754 6885 
3 474 8011 6849 
3 10272 11154 5886 
3 463 8783 6841 
3 6820 11583 429 
3 6411 8496 8384 
3 7022 8495 547 
3 6847 8777 460 
3 485 8780 6821 
3 528 8794 6846 
3 6845 9944 499 
3 8224 11691 530 
3 7136 7138 497 
3 400 11690 10532 
3 6826 11591 409 
3 11579 11586 6781 
3 7630 8734 8273 
3 485 7486 172 
3 6918 11436 549 
3 6889 9337 6904 
3 5292 10688 9946 
3 10493 11616 421 
3 564 6887 6863 
3 565 6884 6883 
3 6860 6899 545 
3 497 11586 7136 
3 409 11587 6826 
3 513 11704 6900 
3 477 6858 6856 
3 8273 8734 5293 
3 9104 11589 7275 
3 551 11654 7128 
3 6894 11655 509 
3 6823 11653 413 
3 6798 11651 488 
3 536 11652 7161 
3 6626 11030 8703 
3 482 11656 6853 
3 429 11657 6820 
3 7685 11648 411 
3 6901 11593 471 
3 5993 9945 9783 
3 9783 9946 5993 
3 6828 11646 517 
3 544 11647 8098 
3 542 6870 6869 
3 5886 11590 10272 
3 395 6901 394 
3 6903 8577 6886 
3 6846 8795 528 
3 8214 11645 440 
3 6801 11642 537 
3 8410 11643 6291 
3 6885 11658 402 
3 562 7529 6861 
3 442 11641 6802 
3 204 7138 203 
3 6889 11714 9337 
3 8658 11640 6855 
3 7136 11586 7134 
3 449 8217 6862 
3 8220 11639 8412 
3 376 6959 375 
3 6829 11638 467 
3 179 6920 178 
3 305 6897 304 
3 380 6960 379 
3 6864 8217 502 
3 6254 11615 11583 
3 549 11689 6918 
3 415 11635 6815 
3 6843 11636 9105 
3 7129 7879 7131 
3 6831 11631 462 
3 172 7486 171 
3 4800 7132 4292 
3 444 7530 7529 
3 8789 11662 5263 
3 5263 11675 8789 
3 6806 11664 417 
3 417 11666 6806 
3 8011 11629 6849 
3 6841 11626 463 
3 6845 11592 9944 
3 5292 9946 6291 
3 9946 10688 5993 
3 564 11693 6887 
3 6883 11692 565 
3 489 11604 6920 
3 6411 11625 8496 
3 438 6869 6867 
3 497 7138 204 
3 8577 11769 6886 
3 6959 11611 426 
3 6817 11616 10493 
3 433 11606 6960 
3 547 11623 7022 
3 509 6895 6859 
3 6847 11621 8777 
3 7137 11807 9964 
3 477 11695 6858 
3 421 11619 10493 
3 6897 11614 499 
3 6821 11617 485 
3 8794 11618 6846 
3 7554 11713 8721 
3 7131 7133 7132 
3 416 6880 6879 
3 7130 7132 4800 
3 333 6922 332 
3 499 11614 6845 
3 493 6883 6881 
3 492 6888 6887 
3 7129 11799 7879 
3 472 7276 6890 
3 8780 11613 6821 
3 542 6871 6870 
3 6916 6918 424 
3 8748 11711 6799 
3 6776 11712 9114 
3 160 11591 11584 
3 127 11616 11577 
3 6827 11591 6826 
3 6877 6957 484 
3 6769 11595 8703 
3 7022 11607 8495 
3 7814 11709 8943 
3 510 11710 6866 
3 485 11617 7486 
3 6860 7048 6899 
3 444 7531 7530 
3 8213 11708 9331 
3 407 6899 6876 
3 546 6885 6878 
3 512 11588 11563 
3 8384 11605 6411 
3 429 11583 6893 
3 492 6889 6888 
3 469 7129 7127 
3 11583 11615 6893 
3 413 6922 333 
3 6878 6886 546 
3 6828 11584 6827 
3 8783 11603 6841 
3 460 11633 6847 
3 10272 11593 11154 
3 6869 11698 542 
3 7018 11706 8578 
3 8385 11707 6791 
3 6820 8699 6789 
3 6853 9115 6854 
3 8049 11705 9103 
3 484 6958 6877 
3 424 6919 6916 
3 7133 11620 7135 
3 7127 7128 469 
3 6894 7276 472 
3 6881 6891 493 
3 8747 11594 6831 
3 11581 11582 3872 
3 7135 11807 7137 
3 10005 11702 8744 
3 9106 11703 6790 
3 7137 9964 566 
3 4292 7132 4814 
3 6815 11596 8689 
3 418 11597 6843 
3 6849 11610 474 
3 6816 11577 6817 
3 6899 11801 545 
3 6879 6900 416 
3 7126 7130 4800 
3 562 11699 7529 
3 7699 11572 7698 
3 6876 6898 407 
3 8700 11598 6829 
3 7275 11599 531 
3 6795 11568 6797 
3 6899 7048 6876 
3 404 11600 8220 
3 8721 11713 560 
3 6867 6905 438 
3 11620 11807 7135 
3 8699 11697 6789 
3 449 11700 8217 
3 6863 11575 564 
3 565 11573 6884 
3 6855 11601 505 
3 9083 11691 6787 
3 6802 11602 9525 
3 6826 11587 9771 
3 6787 11690 9083 
3 7131 11620 7133 
3 6606 10162 6902 
3 7275 11589 6294 
3 8781 11602 6801 
3 7630 11609 8734 
3 9087 11601 8214 
3 6910 11825 7233 
3 550 11711 8748 
3 9114 11712 527 
3 11564 11825 6910 
3 6291 11798 8411 
3 121 11812 6875 
3 8217 11700 502 
3 6804 11826 6803 
3 5817 6903 6902 
3 11584 11591 6827 
3 8943 11709 434 
3 9100 11710 510 
3 11565 11826 6804 
3 8098 11600 9092 
3 5817 6907 6903 
3 11577 11616 6817 
3 9730 11598 561 
3 9084 11599 7685 
3 11687 11764 6812 
3 9071 11722 11661 
3 11682 11751 6741 
3 8234 11719 11659 
3 405 11718 11660 
3 11678 11732 9059 
3 7032 11747 11669 
3 6808 11745 11667 
3 7398 11727 11663 
3 11685 11755 6836 
3 11688 11768 10223 
3 11686 11753 7367 
3 11683 11752 501 
3 11684 11794 6950 
3 11681 11790 285 
3 11680 11792 277 
3 11679 11789 280 
3 11677 11786 270 
3 11676 11782 259 
3 11674 11778 248 
3 220 11785 11673 
3 215 11783 11671 
3 206 11787 11672 
3 223 11784 11670 
3 233 11780 11665 
3 7236 11779 11668 
3 9331 11708 532 
3 8744 11651 10005 
3 6790 11652 9106 
3 7127 7130 7126 
3 6875 11637 121 
3 9103 11648 8049 
3 7138 11576 203 
3 7529 11699 444 
3 8578 11646 7018 
3 6791 11647 8385 
3 8690 11596 6798 
3 7161 11597 8883 
3 497 11672 11586 
3 6848 11594 513 
3 8099 11595 6823 
3 567 11592 11574 
3 9331 11645 8213 
3 8578 11706 461 
3 452 11707 8385 
3 8943 11642 7814 
3 6866 11643 510 
3 10272 11590 8254 
3 6799 11641 8748 
3 6877 6958 6284 
3 6284 6958 6306 
3 9103 11705 511 
3 6865 11640 458 
3 502 11639 6864 
3 6914 6919 6913 
3 6916 6919 6914 
3 7304 11603 551 
3 8721 11638 7554 
3 6874 11582 11581 
3 5231 6907 4777 
3 6851 11605 482 
3 6902 10162 5817 
3 6606 6902 6878 
3 8667 11635 8524 
3 507 11636 10029 
3 438 11698 6869 
3 8779 11631 7471 
3 6862 11632 449 
3 4295 7856 6896 
3 402 11607 10754 
3 10532 11608 9101 
3 6861 11629 562 
3 9102 11609 8224 
3 8795 8796 528 
3 8744 11702 540 
3 483 11703 9106 
3 11436 11613 549 
3 9114 11650 6776 
3 7011 11623 8778 
3 545 11621 6860 
3 10413 11622 8882 
3 6856 11618 477 
3 6786 11619 9292 
3 6871 6872 6870 
3 6850 7857 6904 
3 431 11794 11684 
3 7617 11790 11681 
3 7188 11792 11680 
3 6835 11789 11679 
3 6834 11786 11677 
3 7968 11782 11676 
3 7717 11778 11674 
3 11673 11785 6838 
3 11672 11787 6840 
3 11671 11783 7060 
3 11670 11784 6839 
3 11665 11780 8116 
3 11668 11779 491 
3 6904 7857 6896 
3 490 11764 11687 
3 8402 11751 11682 
3 8753 11732 11678 
3 11661 11722 451 
3 11659 11719 9790 
3 11660 11718 8039 
3 11669 11747 425 
3 11667 11745 539 
3 11663 11727 518 
3 439 11755 11685 
3 473 11768 11688 
3 412 11753 11686 
3 6807 11752 11683 
3 6889 6896 6888 
3 7129 7130 7127 
3 6896 7856 6888 
3 7471 11811 8779 
3 10029 11808 507 
3 6879 11230 6900 
3 6900 11230 6848 
3 6958 6960 6306 
3 458 11806 6865 
3 6878 6902 6886 
3 4777 6907 5817 
3 6847 6907 5231 
3 6919 6920 6913 
3 6896 7857 4295 
3 7531 11562 7530 
3 9115 11800 6854 
3 416 11694 6880 
3 11592 11816 11574 
3 328 8796 327 
3 487 11697 8699 
3 7132 7133 4814 
3 6871 6873 6872 
3 6889 6904 6896 
3 7129 7131 7130 
3 528 8796 328 
3 327 8796 423 
3 493 11692 6883 
3 6887 11693 492 
3 530 11691 9083 
3 3904 11561 11560 
3 8402 11682 6807 
3 6807 11683 8402 
3 11578 11585 6281 
3 7133 7134 4814 
3 6902 6903 6886 
3 566 11576 7137 
3 6293 6905 6289 
3 6289 6905 6867 
3 9082 11823 11627 
3 11626 11824 8782 
3 6871 6875 6873 
3 6873 6874 6872 
3 7131 7132 7130 
3 9083 11690 400 
3 7137 11576 7138 
3 6293 6906 6905 
3 7133 7135 7134 
3 9337 11610 6904 
3 6875 6893 6873 
3 8734 11622 5293 
3 7135 7136 7134 
3 11560 11561 7857 
3 7135 7137 7136 
3 7137 7138 7136 
3 9566 9968 3247 
3 7336 9968 9566 
3 7336 9566 4125 
3 5397 11540 4699 
3 7334 7336 4125 
3 1676 11429 1624 
3 4125 8021 7334 
3 4344 7347 7341 
3 2179 7674 2177 
3 7334 8021 7332 
3 4803 6912 4291 
3 8 11549 11532 
3 7341 7347 7340 
3 6912 6914 6913 
3 4832 6911 6908 
3 2935 7686 7671 
3 2006 7493 1880 
3 7332 8021 4131 
3 2935 7899 7686 
3 7347 7349 7340 
3 7686 7899 7670 
3 7088 7830 3917 
3 6930 6931 6929 
3 7899 9754 7670 
3 4330 6927 6925 
3 10299 11184 6945 
3 6936 7088 3917 
3 3247 9968 7349 
3 7330 7332 4131 
3 7669 11450 7664 
3 6908 6948 4832 
3 4200 10026 6308 
3 2006 10845 6941 
3 893 11353 895 
3 9754 10347 7670 
3 7349 9968 7340 
3 897 7055 908 
3 11478 11533 597 
3 2935 7674 2179 
3 4195 6928 4196 
3 2741 10347 9754 
3 6941 7493 2006 
3 35 11491 11466 
3 6321 10226 8048 
3 4131 8356 7330 
3 8031 11459 11322 
3 9708 11394 11045 
3 4803 6914 6912 
3 7671 7674 2935 
3 8048 10226 5241 
3 6311 11317 8309 
3 908 7055 6934 
3 7679 10347 2741 
3 6310 11128 9919 
3 6744 11472 11464 
3 6928 6930 6929 
3 3448 8944 6923 
3 6945 11184 6944 
3 4830 6948 6312 
3 4291 6912 4832 
3 6923 8407 3448 
3 4832 6912 6911 
3 3917 7413 6936 
3 921 8263 1388 
3 2741 9601 7679 
3 3471 8557 6924 
3 3448 8407 8086 
3 7679 9601 7673 
3 7330 8356 7328 
3 4330 6928 6927 
3 10843 11097 7672 
3 2070 9165 6933 
3 10820 11430 3469 
3 8086 8407 6932 
3 1388 8263 8262 
3 2026 8086 6932 
3 6933 8309 2070 
3 6963 8574 2459 
3 6824 7088 6921 
3 6932 10438 2026 
3 6964 10525 8902 
3 7204 11128 6310 
3 7673 9601 3692 
3 6954 8258 4198 
3 7672 11097 7674 
3 6953 8258 6954 
3 7493 11429 1676 
3 4832 6948 4830 
3 4196 6928 4330 
3 4379 8258 6953 
3 6308 10026 6948 
3 6297 7414 5300 
3 6953 6962 4379 
3 895 7055 897 
3 1880 7493 1676 
3 2438 6987 2439 
3 4198 8259 6954 
3 901 7240 906 
3 4390 10852 7786 
3 4379 6962 5296 
3 6925 7145 4330 
3 7328 8356 4133 
3 8726 8809 8727 
3 3921 9818 7104 
3 8728 10202 8724 
3 3692 9459 7673 
3 7104 9818 7102 
3 6318 6956 6317 
3 4195 6930 6928 
3 4335 8809 8726 
3 6824 7830 7088 
3 6318 6957 6956 
3 919 8263 921 
3 6939 6987 2438 
3 3752 10626 3749 
3 11554 11556 6230 
3 7897 8858 7896 
3 7896 8858 1010 
3 7897 8859 8858 
3 5303 10546 9267 
3 9330 9459 3692 
3 4330 7145 4199 
3 8919 10749 8920 
3 6777 11198 7937 
3 2439 6987 2442 
3 6956 7786 6317 
3 5303 10202 8728 
3 7897 9805 8859 
3 6963 10525 6964 
3 2457 11422 11186 
3 8309 11317 2070 
3 6318 6959 6957 
3 6205 11037 10905 
3 6924 9281 3471 
3 2632 9720 2630 
3 11452 11530 8470 
3 6934 7239 908 
3 7462 10568 7459 
3 8728 10546 5303 
3 6770 8049 8048 
3 5224 9286 7420 
3 1501 8887 7370 
3 6944 11184 3643 
3 7102 9818 3982 
3 6941 10845 6929 
3 6947 10911 6686 
3 7370 8887 7369 
3 10905 11037 4396 
3 895 11353 7055 
3 10865 10923 6330 
3 4199 10026 4200 
3 7369 8887 4475 
3 4201 8731 8730 
3 6101 11262 6977 
3 9165 9281 6933 
3 7786 10852 6317 
3 5618 9281 5620 
3 7674 11097 2177 
3 3051 10568 7462 
3 7675 9459 9330 
3 10923 10997 6331 
3 8808 8811 8810 
3 7145 10026 4199 
3 5329 11117 7121 
3 798 10911 6947 
3 10733 10960 9593 
3 7080 8416 7496 
3 6161 11338 6000 
3 1388 8262 8261 
3 7326 7328 4133 
3 11300 11346 8637 
3 5793 11268 10954 
3 6996 7183 4030 
3 7865 10820 6205 
3 5376 9719 8730 
3 7100 7102 3982 
3 8920 10749 6059 
3 8730 9719 4201 
3 5559 7000 6999 
3 5743 11213 10838 
3 6321 8048 6322 
3 5322 7162 7069 
3 1988 10485 8729 
3 6946 7023 6058 
3 6205 10905 7865 
3 8809 8810 8727 
3 6948 10026 6312 
3 2924 10609 7112 
3 1908 7294 7293 
3 6938 11132 11110 
3 2726 10893 9534 
3 7058 7859 2011 
3 6961 7990 3502 
3 3502 8545 6961 
3 6683 11292 6684 
3 6962 8574 6963 
3 2444 6984 2333 
3 5722 7000 5557 
3 5312 8528 8259 
3 7413 7414 6936 
3 5124 10089 6166 
3 6331 10997 6815 
3 7785 10626 3752 
3 11348 11407 7325 
3 2925 10996 2956 
3 5822 6998 5821 
3 7840 11219 1936 
3 6166 10089 6966 
3 7069 7162 6168 
3 5821 6998 6101 
3 9568 11214 10514 
3 6330 10923 6331 
3 7081 7496 5894 
3 1908 7293 7292 
3 6323 10167 7990 
3 4505 7375 7373 
3 7033 7186 4696 
3 2438 6984 6939 
3 8007 9210 7446 
3 4825 10711 7295 
3 4712 6975 6027 
3 5936 7023 6946 
3 8808 8810 8809 
3 7186 9194 4696 
3 5934 7023 5936 
3 6058 7216 6946 
3 8729 10485 6926 
3 6951 6998 5822 
3 6530 8358 7001 
3 8185 10927 6733 
3 7001 8358 3453 
3 7104 7803 3921 
3 4505 7373 7372 
3 8811 9995 6686 
3 7675 9330 2750 
3 4955 10962 4954 
3 7374 8693 7372 
3 7494 11234 7498 
3 11315 11405 10877 
3 4696 7928 7033 
3 9662 11192 2637 
3 4155 11328 11080 
3 7343 11361 7321 
3 3453 9534 6952 
3 7056 10973 6974 
3 4629 8572 4627 
3 6393 11252 11186 
3 9858 11450 7669 
3 7442 7444 4038 
3 7056 7058 2011 
3 7372 8693 4505 
3 7990 10167 3502 
3 6951 9729 7054 
3 1908 7292 1848 
3 6952 7001 3453 
3 7031 7928 4698 
3 4809 10394 7008 
3 7295 10711 7293 
3 7029 7031 4698 
3 6421 7803 7105 
3 4344 11460 4095 
3 6206 11472 6744 
3 8259 8261 5312 
3 5241 10226 6310 
3 5822 9729 6951 
3 1200 8693 7374 
3 10830 10865 6330 
3 9690 10779 9689 
3 2565 8409 2563 
3 7054 9729 2956 
3 4767 10319 5324 
3 1848 7292 1956 
3 11209 11540 5397 
3 8259 8528 6954 
3 9700 10485 1988 
3 1611 11407 11348 
3 7240 11394 9708 
3 9008 9700 1988 
3 5599 10235 7185 
3 5325 10810 6657 
3 6559 7183 6996 
3 1624 11429 3643 
3 7142 7723 4578 
3 4133 9031 7326 
3 6733 10985 8185 
3 2333 6984 2438 
3 5815 10815 3883 
3 6936 7414 6297 
3 7414 8429 5300 
3 1956 7292 7290 
3 6779 9286 6950 
3 7033 7928 7031 
3 11002 11011 4024 
3 6328 6970 6329 
3 6686 10911 8811 
3 3588 7255 1076 
3 6962 6963 5296 
3 10530 10638 7213 
3 5922 10047 9220 
3 2444 6985 6984 
3 5559 6999 6998 
3 6968 6970 6328 
3 6937 11132 6938 
3 7112 10609 7111 
3 6975 6976 6027 
3 2813 7446 2811 
3 9534 10893 6952 
3 6530 11123 10740 
3 10086 11443 11418 
3 2727 8408 6983 
3 6983 8871 2727 
3 6923 11252 6393 
3 7014 10025 7547 
3 7010 7012 4801 
3 6308 6948 6908 
3 7080 7496 7081 
3 6651 11149 3684 
3 3744 7450 3796 
3 7374 9121 1200 
3 8776 11191 11165 
3 6325 10865 10830 
3 2010 9784 3366 
3 3522 8844 6949 
3 3303 8940 7074 
3 6310 10226 7204 
3 7124 8222 6968 
3 7186 7187 6500 
3 6500 9194 7186 
3 6947 10183 798 
3 3167 9793 9193 
3 7369 9557 7368 
3 6328 7124 6968 
3 7001 11123 6530 
3 6949 7894 3522 
3 6223 7092 4762 
3 908 7240 901 
3 7240 9708 906 
3 6970 6971 6329 
3 5922 9220 6991 
3 3463 8260 3465 
3 4475 9557 7369 
3 8928 8940 3303 
3 6986 10310 6387 
3 6980 7255 3588 
3 7249 11069 5407 
3 8808 9995 8811 
3 5557 7000 5559 
3 6017 9813 6976 
3 10559 11177 7198 
3 8261 8262 5312 
3 5324 7378 7095 
3 9253 10889 8561 
3 8704 10280 3245 
3 7187 7236 6500 
3 7295 8031 4825 
3 6729 11347 11329 
3 3751 8429 7414 
3 4743 9976 8096 
3 4709 7184 7077 
3 7025 7027 4697 
3 7105 7803 7104 
3 5691 7602 7368 
3 7368 9557 5691 
3 7008 10394 6365 
3 4289 10961 6574 
3 7012 7017 4801 
3 6333 8940 8928 
3 5316 7500 6982 
3 2011 10973 7056 
3 6991 8704 5922 
3 8844 9121 6949 
3 753 11382 10986 
3 7894 8829 3522 
3 5721 10698 7235 
3 1621 11191 8776 
3 8776 11207 1621 
3 1582 8416 7080 
3 7444 7446 4038 
3 5085 8312 7939 
3 6594 7213 7211 
3 4971 10310 6986 
3 5324 10319 7378 
3 6333 8928 7178 
3 7896 8829 7894 
3 11207 11225 1621 
3 1010 8829 7896 
3 4519 9210 8007 
3 7353 8045 3366 
3 11509 11552 585 
3 3516 7602 5691 
3 2090 10515 2508 
3 2459 10525 6963 
3 7178 9698 6333 
3 5440 8045 7353 
3 4508 7500 5316 
3 11091 11246 7445 
3 7025 10212 6783 
3 4121 11130 5067 
3 6319 11063 10852 
3 3113 11061 7799 
3 1687 7707 1626 
3 1766 10867 588 
3 8261 10169 1388 
3 2415 10731 8759 
3 7420 9286 6324 
3 6733 10927 6734 
3 3500 11200 10503 
3 6515 11245 11225 
3 7235 9698 7178 
3 2750 8976 7675 
3 7185 10235 7184 
3 3366 9784 7353 
3 7121 11117 6128 
3 7419 7420 6324 
3 6599 10662 9192 
3 6931 11323 6943 
3 8533 10781 9446 
3 9805 10027 8859 
3 6991 10280 8704 
3 6924 11245 6515 
3 6977 11262 1455 
3 7306 7307 3333 
3 1200 9121 8844 
3 7081 7723 7142 
3 2817 8210 2815 
3 2956 10996 7054 
3 4126 10246 7893 
3 7095 7378 5876 
3 5094 11164 7257 
3 6990 7002 6064 
3 9884 10907 6350 
3 3693 11096 10469 
3 3471 9281 9165 
3 6194 11402 6728 
3 4000 10192 7888 
3 6995 7073 6110 
3 8724 10202 8726 
3 3167 8222 7124 
3 6064 7002 4702 
3 6931 6941 6929 
3 3990 7249 7210 
3 1004 10710 6955 
3 7197 10789 6337 
3 7305 7306 3333 
3 3770 10644 10435 
3 6747 11536 6212 
3 4521 7184 4709 
3 6017 6976 6975 
3 7013 10025 7014 
3 3330 7250 3328 
3 7341 11460 4344 
3 9166 9712 6609 
3 8726 10202 4335 
3 2637 9720 2632 
3 5328 7195 7152 
3 7937 11198 6281 
3 11108 11263 6708 
3 7324 7325 7323 
3 9594 10733 9593 
3 7290 7298 1956 
3 10971 11137 2330 
3 2557 8360 2555 
3 1478 7200 1103 
3 2630 9720 4201 
3 1885 7261 1858 
3 5620 9281 6924 
3 6988 7200 1478 
3 7124 9793 3167 
3 6950 9286 5224 
3 6734 10927 10756 
3 5387 8852 5385 
3 7893 10246 7891 
3 6969 10697 6338 
3 7166 8993 7109 
3 10399 10586 6376 
3 9919 11128 6940 
3 6933 9281 5618 
3 7438 7440 4076 
3 6388 10310 7464 
3 9785 11061 3113 
3 7045 9339 1647 
3 8326 11254 11223 
3 1582 7080 7078 
3 8533 8534 6667 
3 4858 9464 8124 
3 7293 10711 7291 
3 4888 10653 9660 
3 4520 9359 7851 
3 4943 7195 5328 
3 4952 10903 6065 
3 6972 6973 6971 
3 1076 7255 872 
3 3803 11334 1533 
3 1979 8898 7977 
3 3521 8547 8324 
3 3840 7159 7035 
3 8101 10284 10038 
3 3643 11429 6944 
3 4044 7539 7096 
3 8392 10244 8393 
3 5271 7194 7193 
3 7036 10836 6283 
3 5586 7978 7977 
3 7977 8898 5586 
3 11329 11347 5655 
3 9267 10546 7370 
3 3537 11132 6937 
3 8324 8547 6188 
3 9185 9186 7024 
3 9192 9193 6599 
3 8141 9358 5508 
3 9884 10815 5815 
3 9994 10844 6345 
3 6657 10810 8033 
3 9192 10662 7985 
3 4297 7017 4809 
3 4038 7446 2813 
3 4201 9720 8731 
3 7462 10667 3051 
3 1204 10977 9808 
3 6229 7228 7066 
3 6338 10436 6969 
3 7063 7826 3925 
3 7235 10698 9698 
3 5894 7723 7081 
3 8260 10169 8261 
3 4799 8632 7555 
3 7067 8204 4872 
3 7576 9870 3710 
3 3752 10689 9370 
3 6961 9719 5376 
3 7407 9996 5790 
3 8345 9491 2073 
3 1103 7200 1101 
3 5271 7193 7192 
3 4803 6915 6914 
3 1225 8523 8415 
3 6042 10779 9690 
3 7676 8976 8243 
3 7005 7576 3710 
3 3982 7450 7100 
3 7321 7322 7318 
3 8694 10767 1475 
3 3749 10626 3751 
3 3245 10280 7082 
3 823 7789 2313 
3 5085 7939 6558 
3 8096 9976 7035 
3 6970 6972 6971 
3 8393 10244 4086 
3 4954 10962 7251 
3 11255 11276 8857 
3 5511 10742 6115 
3 6998 6999 6101 
3 6166 9491 8345 
3 1478 7024 6988 
3 6937 11165 3537 
3 7542 9362 9307 
3 1191 7038 7003 
3 1413 7705 7575 
3 1478 9185 7024 
3 4801 7017 4297 
3 5326 7050 7020 
3 6966 9491 6166 
3 6324 9511 7419 
3 6462 9700 9008 
3 7315 10839 10688 
3 6223 7093 7092 
3 11476 11490 7333 
3 5477 9707 7812 
3 1961 7298 7296 
3 7575 7705 6372 
3 6365 9843 7008 
3 8263 11317 6311 
3 6912 6913 6911 
3 2508 10515 8117 
3 10087 10422 7364 
3 2334 11036 2075 
3 6594 7211 7210 
3 6930 11323 6931 
3 7117 7707 1687 
3 6978 8070 6116 
3 3990 7210 4914 
3 6615 10700 10395 
3 7322 7324 7323 
3 1203 11376 641 
3 7041 7261 1885 
3 6346 7048 6860 
3 7854 11063 6319 
3 6382 10948 6381 
3 9307 9362 8029 
3 5698 11276 11255 
3 875 10976 10853 
3 4697 10212 7025 
3 5331 10432 5333 
3 7514 10945 10915 
3 6758 7194 5272 
3 2721 7307 3151 
3 9370 10689 7058 
3 5899 7073 6995 
3 4883 9358 8141 
3 2646 10720 10557 
3 7585 9725 2903 
3 6646 11057 10301 
3 8609 10381 8608 
3 7813 7814 6300 
3 1431 10154 1462 
3 6581 10920 4546 
3 10792 11024 10241 
3 6058 7731 7216 
3 3925 7065 7063 
3 3197 11234 7494 
3 7064 7826 7063 
3 7326 9031 7323 
3 1004 10749 8919 
3 7003 7039 1191 
3 7197 10731 2415 
3 8409 10167 6323 
3 9699 9700 6462 
3 5881 10666 7106 
3 7096 7098 4044 
3 3465 8260 4198 
3 2563 8409 2727 
3 8415 8523 5657 
3 7216 7731 3613 
3 8545 9719 6961 
3 7459 10568 7464 
3 4268 10089 5124 
3 11193 11201 6713 
3 2631 11140 11119 
3 7004 9182 4338 
3 10848 11085 7906 
3 1771 9362 7542 
3 2713 7940 2710 
3 7676 8243 3426 
3 7253 9458 4436 
3 4627 8572 4698 
3 4972 9843 6365 
3 10364 10399 6376 
3 9020 11434 11391 
3 1979 7977 7976 
3 7003 7038 6343 
3 9228 11238 10874 
3 7496 8416 3601 
3 11397 11419 10119 
3 4762 7092 4771 
3 6375 10851 6434 
3 11165 11191 3537 
3 4897 9558 7274 
3 8832 11272 10944 
3 4359 7420 7419 
3 6319 10852 4390 
3 8243 8976 2750 
3 9487 10620 1291 
3 7865 11430 10820 
3 7976 7979 1979 
3 7370 10546 1501 
3 7163 9182 6347 
3 975 7190 970 
3 7019 10394 4809 
3 10045 10395 6571 
3 6928 6929 6927 
3 2313 7789 7115 
3 4698 8572 7029 
3 4911 9660 7596 
3 7463 10667 7462 
3 7043 7045 1647 
3 3588 7541 6980 
3 9193 9793 6599 
3 7733 10858 9612 
3 8868 9972 6340 
3 7035 7159 6722 
3 6955 10749 1004 
3 6059 10846 8920 
3 9212 10868 10654 
3 754 8601 8228 
3 3807 8062 7720 
3 3159 8230 2914 
3 6145 11236 11185 
3 2141 10200 8015 
3 10395 10700 6571 
3 4414 7050 5326 
3 4892 10523 7199 
3 6347 9182 7004 
3 973 8649 7222 
3 10915 10945 3449 
3 6667 10781 8533 
3 8123 8124 7805 
3 7147 7815 4326 
3 7066 7228 4770 
3 4076 8591 7438 
3 1858 7261 1860 
3 5574 10901 5576 
3 6041 10556 6997 
3 11462 11516 4761 
3 4016 8427 7154 
3 6693 8203 8202 
3 7349 7735 3247 
3 6000 7111 4845 
3 7040 7824 2929 
3 4204 9200 7360 
3 7303 8860 3387 
3 970 7190 3376 
3 7724 7962 3609 
3 7235 9726 5721 
3 7262 10279 6355 
3 7480 9908 7635 
3 7047 7110 4873 
3 1908 10298 7294 
3 5407 7500 4508 
3 5815 10907 9884 
3 6185 7484 7354 
3 7213 10638 7211 
3 7913 10819 7925 
3 4799 7555 7553 
3 761 11413 11110 
3 4364 9324 4345 
3 9081 11330 11269 
3 7607 9339 7045 
3 7068 9474 8153 
3 10869 10998 3225 
3 1983 7469 7403 
3 8812 10251 8810 
3 3579 9266 3577 
3 6612 10998 10869 
3 3803 11361 7343 
3 5441 7202 5370 
3 7065 10723 10675 
3 5370 7202 7110 
3 7812 9707 6434 
3 1979 7979 1863 
3 2379 7227 2076 
3 3898 10590 10369 
3 8228 8601 5773 
3 1455 10932 6977 
3 3638 10251 8812 
3 2994 11187 10436 
3 11479 11487 8554 
3 7360 9200 7359 
3 6056 11228 10253 
3 8913 11248 6698 
3 8325 10925 7152 
3 5550 7163 6347 
3 10435 10644 6992 
3 4593 7205 4591 
3 4710 10918 10635 
3 5370 7110 5371 
3 6116 8069 6978 
3 3333 7307 2721 
3 2444 9264 6985 
3 4697 8572 4629 
3 5371 7110 7047 
3 7446 9210 2811 
3 10604 11309 7376 
3 4038 8210 7442 
3 7363 8336 1165 
3 10975 10983 7195 
3 3429 8736 7703 
3 9606 9923 6576 
3 7354 7484 5443 
3 8392 8394 6584 
3 4873 7111 7047 
3 4827 10586 10399 
3 5721 9726 5415 
3 9584 10411 4074 
3 7015 7221 3376 
3 3704 9051 3706 
3 6267 10164 9836 
3 3376 7190 7015 
3 4326 7583 7147 
3 6064 7634 6990 
3 3055 11174 10836 
3 6412 11034 6965 
3 6226 9996 7407 
3 1885 7225 7041 
3 4456 10581 9051 
3 11223 11254 535 
3 2727 8409 8408 
3 3751 10626 8429 
3 8040 8041 5260 
3 7114 7587 6149 
3 4044 7450 3744 
3 4253 9913 9825 
3 7850 9264 5742 
3 6979 9220 3745 
3 3745 9409 6979 
3 2075 9784 2010 
3 8561 10889 6065 
3 3387 8292 7303 
3 5911 8213 8212 
3 8085 10679 7174 
3 3796 7450 3982 
3 4858 8124 8123 
3 5550 7281 7163 
3 7154 8427 7119 
3 2415 10789 7197 
3 6028 10592 7449 
3 2508 10445 10359 
3 3426 8381 7676 
3 4511 7108 7107 
3 7511 9378 5050 
3 6678 11283 11274 
3 7296 7298 7288 
3 11185 11236 7620 
3 11308 11344 8202 
3 8571 9833 8264 
3 4784 7813 6300 
3 7509 7807 7806 
3 6526 9378 7511 
3 7359 9200 1475 
3 10695 11067 6080 
3 6584 8394 7277 
3 5586 9266 7978 
3 6273 10248 7601 
3 5893 10984 10336 
3 10298 10299 7294 
3 2815 8210 4038 
3 2970 11067 10695 
3 7038 7238 6343 
3 5773 10190 8486 
3 3333 8164 7305 
3 7018 7019 7017 
3 7083 10867 1766 
3 7751 10406 9821 
3 9220 10047 3745 
3 7037 8336 7363 
3 5272 7194 5271 
3 6681 11286 11285 
3 7419 9511 7226 
3 7260 7802 1760 
3 4586 10634 10195 
3 7144 10350 5875 
3 4351 7217 4349 
3 8534 8974 6667 
3 7007 7496 3601 
3 5722 10503 7000 
3 9899 10812 7538 
3 8203 9762 8204 
3 7713 10037 9652 
3 7634 9393 1199 
3 3941 7300 7299 
3 5271 7192 4905 
3 5312 8262 5294 
3 6420 9651 7803 
3 2653 10250 7695 
3 6574 10961 7231 
3 1626 7707 1683 
3 5498 10995 10259 
3 7930 8312 4861 
3 5436 9598 5435 
3 6828 10394 7019 
3 7515 10468 9555 
3 7078 8244 1582 
3 4511 8013 7108 
3 6940 11197 6987 
3 2624 10509 7379 
3 3930 8362 7139 
3 5415 10751 5414 
3 6669 11098 5926 
3 7438 8591 7436 
3 1750 7269 795 
3 1091 8735 7071 
3 6693 9762 8203 
3 5151 8974 4716 
3 7444 8007 7446 
3 9555 10468 2819 
3 6190 7146 5764 
3 3752 9370 7785 
3 11126 11240 6121 
3 7058 10689 7859 
3 7302 8860 7303 
3 7888 10192 6591 
3 7321 7324 7322 
3 9882 10196 8241 
3 2026 11353 893 
3 4198 8260 8259 
3 7159 7350 6722 
3 7082 9410 3245 
3 7106 10666 3367 
3 2565 10167 8409 
3 3402 8852 6994 
3 7360 10049 4204 
3 5410 10611 4929 
3 1330 10993 10837 
3 1863 7979 1761 
3 6746 10319 4767 
3 4771 7091 7090 
3 5294 8262 6311 
3 4359 7419 7417 
3 7086 10418 6339 
3 10323 10460 6446 
3 4911 7596 7595 
3 8843 11318 6637 
3 7352 10127 8169 
3 1564 9474 7068 
3 1936 10638 10530 
3 7143 8713 3562 
3 7037 8153 3726 
3 3726 8336 7037 
3 4414 7051 7050 
3 7107 10007 4511 
3 7597 9465 4960 
3 8608 10381 5968 
3 10948 10954 6381 
3 6783 10212 7472 
3 10513 10667 7463 
3 4845 7111 4873 
3 3797 10288 4268 
3 7262 10653 4888 
3 7203 7204 6367 
3 6997 10556 5990 
3 7222 8649 7221 
3 8852 8871 6983 
3 7090 7873 4771 
3 7716 10198 9071 
3 5642 10844 9994 
3 6584 10244 8392 
3 7941 10456 10180 
3 7167 9600 1758 
3 5173 9512 7498 
3 6581 9870 7576 
3 1758 9600 1756 
3 7927 9725 7585 
3 4888 10279 7262 
3 5876 7379 7095 
3 2963 9824 2779 
3 7464 10568 6388 
3 974 8860 7302 
3 1874 8848 1657 
3 4975 10898 5445 
3 11015 11035 9024 
3 3525 11244 11012 
3 6515 11225 11207 
3 6955 10710 6344 
3 7148 10330 7815 
3 8974 9468 5321 
3 7770 10112 7073 
3 9825 9913 8103 
3 4439 10120 5198 
3 8037 8040 5260 
3 5701 10964 10131 
3 7528 7530 5243 
3 7265 7266 3527 
3 3527 8562 7265 
3 7704 7804 1198 
3 3951 10209 4784 
3 5369 8619 8618 
3 6064 9393 7634 
3 4712 10364 6975 
3 6346 7094 7048 
3 9836 10164 6389 
3 5425 7207 5426 
3 6975 10364 6376 
3 3574 10950 10888 
3 4268 10288 10089 
3 6387 10310 6388 
3 8601 10190 5773 
3 10303 10656 2344 
3 7064 9359 7826 
3 7112 10283 2924 
3 4236 11041 10290 
3 8469 10154 1431 
3 7208 10683 10370 
3 7139 8362 6394 
3 7071 7072 1091 
3 7172 10899 7177 
3 6999 11262 6101 
3 6340 9972 7412 
3 7204 10226 6367 
3 10203 11257 10378 
3 7495 7940 2713 
3 7288 7298 7290 
3 7798 9899 7538 
3 3389 11271 10932 
3 5849 10805 5864 
3 6272 7276 6275 
3 11354 11356 2652 
3 4878 9307 8029 
3 2005 8188 7412 
3 7148 7815 7147 
3 4326 9432 7583 
3 3328 7250 3990 
3 7179 7224 5449 
3 6535 10097 8110 
3 8559 9408 5833 
3 6994 8360 3402 
3 7076 7160 6178 
3 5385 8852 6983 
3 7072 8888 1091 
3 6065 10903 8561 
3 9902 10136 7702 
3 9268 11175 11166 
3 5449 7224 4898 
3 7096 7539 6404 
3 7802 8562 1760 
3 7266 7269 3527 
3 7277 8394 3627 
3 5899 7770 7073 
3 6339 8505 7086 
3 6188 11251 9284 
3 7068 7109 1564 
3 7274 9558 6385 
3 10309 10488 8132 
3 8190 11419 11397 
3 7575 8012 1413 
3 5399 9571 3318 
3 8153 9474 3726 
3 10291 10892 4235 
3 5224 7420 4311 
3 7027 8572 4697 
3 7017 7019 4809 
3 7854 10586 4827 
3 5198 10120 7579 
3 5316 9699 6462 
3 7020 7226 5326 
3 6168 11221 8364 
3 7199 10523 6204 
3 6339 10418 9843 
3 6340 9264 8868 
3 8292 8888 7072 
3 4861 8312 5085 
3 5367 7218 7089 
3 6362 9599 7503 
3 5906 10385 10331 
3 9687 11292 6683 
3 7535 10432 5331 
3 9383 11085 10848 
3 3527 7269 1750 
3 7176 11042 7175 
3 825 7789 823 
3 7537 8230 3159 
3 5724 9833 8571 
3 6386 7962 7724 
3 7930 8012 7575 
3 875 10853 7878 
3 4851 10832 9464 
3 3463 10169 8260 
3 3572 9186 9185 
3 7803 9651 3921 
3 5585 7205 4593 
3 7837 7838 5276 
3 6964 11346 11300 
3 4077 7920 7918 
3 1186 7201 1190 
3 7272 9224 4413 
3 5067 11130 8080 
3 7046 10893 2726 
3 7436 8591 4103 
3 7198 11177 5335 
3 7403 7469 7202 
3 10879 11079 9812 
3 7265 8562 7802 
3 7119 8427 1763 
3 10744 10897 7309 
3 7002 8550 4702 
3 7808 10200 2141 
3 4733 11222 6148 
3 7013 10397 5027 
3 6183 11377 11360 
3 7376 11309 7373 
3 3710 9051 7005 
3 7109 8993 1564 
3 2637 11192 9720 
3 8277 9987 5913 
3 5465 9638 5466 
3 4204 10049 9350 
3 9690 10587 6042 
3 9183 9800 7220 
3 6994 8852 5387 
3 7804 8123 7805 
3 7152 10925 5328 
3 7182 7839 1166 
3 5177 11399 11398 
3 5440 8046 8045 
3 6028 8519 7678 
3 6985 9264 7850 
3 7851 9359 7140 
3 573 7856 4295 
3 1592 9663 3053 
3 4649 9628 4647 
3 10199 10575 7573 
3 5227 7470 6831 
3 6677 10978 10784 
3 7480 7635 7633 
3 3402 8360 2557 
3 4413 10020 7271 
3 7157 9450 7402 
3 7296 7635 1961 
3 7918 9503 4077 
3 7434 7436 4103 
3 3901 8211 4285 
3 3950 11076 4195 
3 7052 9983 5352 
3 4872 9571 7067 
3 7263 9571 5399 
3 8184 10927 8185 
3 2985 10680 10403 
3 6609 9712 6398 
3 7279 9462 4405 
3 5407 11069 7500 
3 6273 10760 5286 
3 5449 7225 7179 
3 7429 7594 7427 
3 4878 8029 8028 
3 7601 10248 7600 
3 7591 10056 7418 
3 7371 9715 2623 
3 9347 10476 9348 
3 1898 10987 2064 
3 75 11167 480 
3 3387 8888 8292 
3 7192 7560 4905 
3 6982 9699 5316 
3 3594 7166 7120 
3 5287 7938 5283 
3 1336 11081 11078 
3 2555 8360 2929 
3 7225 8094 7179 
3 6974 7117 6971 
3 4793 8421 4818 
3 3590 10682 7961 
3 9460 9522 8537 
3 3778 7230 3779 
3 5420 7221 7015 
3 5843 10004 9717 
3 6561 9647 9089 
3 4223 7227 2379 
3 8713 9254 3562 
3 8811 8812 8810 
3 1126 9992 8010 
3 1211 10960 7006 
3 10397 10589 5943 
3 7451 8585 1366 
3 1647 7605 7043 
3 3594 8993 7166 
3 7678 10592 6028 
3 8729 10845 2006 
3 2154 9923 9606 
3 2549 9899 7798 
3 2892 7495 2713 
3 5322 11194 4261 
3 6720 9302 5187 
3 7412 8188 5743 
3 6312 10026 7145 
3 6722 7350 6720 
3 8013 10155 7108 
3 7283 10924 10806 
3 7352 10377 10127 
3 3269 8617 3271 
3 7380 7963 6370 
3 9484 10156 9486 
3 7049 7804 7704 
3 5927 10676 10478 
3 4103 7593 7434 
3 7362 9410 7082 
3 10876 10918 4710 
3 2210 7562 7561 
3 4072 11180 11170 
3 9612 10858 7425 
3 7120 7229 3594 
3 2191 7963 7380 
3 3351 10848 7149 
3 7614 10991 10857 
3 7348 8477 7734 
3 7151 9992 9187 
3 7888 7891 4000 
3 7891 10246 4000 
3 7154 9382 4016 
3 7401 8560 3518 
3 8558 9408 8559 
3 5759 10730 10569 
3 10543 10571 5956 
3 8004 9714 6406 
3 6653 7455 5114 
3 9712 9713 6398 
3 48 11455 11414 
3 1400 8469 1431 
3 1860 10882 1971 
3 7826 9359 4520 
3 8204 9762 4872 
3 10018 10171 4981 
3 7098 7450 4044 
3 2710 7940 2709 
3 7244 8508 7967 
3 2087 9743 2117 
3 6434 10851 7812 
3 8944 11252 6923 
3 5399 8181 7263 
3 7040 8223 7824 
3 7257 11164 6118 
3 5304 7239 6934 
3 10359 10445 9707 
3 9187 9992 1126 
3 3349 7593 2931 
3 10618 11023 2863 
3 7089 7217 5367 
3 8405 11149 6651 
3 10315 10750 6663 
3 7109 7237 7166 
3 10715 10880 6624 
3 1352 10889 9253 
3 6000 7112 7111 
3 5827 10524 10508 
3 6974 7707 7117 
3 3439 9205 7049 
3 5367 7217 4351 
3 4405 7280 7279 
3 5725 8050 7181 
3 7185 11011 11002 
3 9464 10832 8124 
3 4861 8012 7930 
3 7850 8144 6985 
3 7561 8126 2210 
3 5419 7221 5420 
3 10514 11214 5651 
3 6275 7276 6894 
3 7318 7322 7317 
3 7205 10407 4591 
3 5405 7160 7076 
3 6538 11207 8776 
3 10955 11086 8413 
3 8709 10733 9594 
3 7402 9450 994 
3 7272 9608 9224 
3 7584 9432 7838 
3 3997 7383 7381 
3 4077 7922 7920 
3 5508 9358 5574 
3 6086 7357 6126 
3 7361 10709 7454 
3 11508 11519 7338 
3 4771 7092 7091 
3 6398 9713 6451 
3 3125 9191 8851 
3 4405 9863 7280 
3 8984 9312 7062 
3 1136 7229 1133 
3 1475 10767 7359 
3 7258 11240 11126 
3 11166 11175 7602 
3 1612 11490 11476 
3 7350 9302 6720 
3 5027 10025 7013 
3 7808 7870 7085 
3 6363 10703 10523 
3 8071 9608 7272 
3 6217 7557 5206 
3 5787 10011 9613 
3 6926 10845 8729 
3 7700 10541 10512 
3 4313 8068 3875 
3 7218 10268 8925 
3 8945 9967 1291 
3 8868 9264 2444 
3 6529 10740 10564 
3 7886 9794 2284 
3 4609 10770 7231 
3 7308 10456 7941 
3 7180 7247 5255 
3 6459 10648 10141 
3 7720 7721 3807 
3 11170 11180 7141 
3 10866 10982 8493 
3 773 11191 1621 
3 3875 8068 3628 
3 7232 8000 1011 
3 7226 9511 5326 
3 7759 10238 7201 
3 10519 10738 7923 
3 7294 7295 7293 
3 1763 8128 7119 
3 10888 10950 6981 
3 7343 11334 3803 
3 7305 8164 6397 
3 7539 9455 6404 
3 8515 10385 5906 
3 933 11179 7375 
3 9826 11038 6118 
3 10016 10704 10490 
3 1862 7387 7385 
3 7385 8275 1862 
3 7824 8223 5410 
3 5445 8415 5657 
3 1225 9350 8523 
3 7939 8312 6356 
3 2887 10628 2884 
3 7207 10683 7208 
3 7297 9156 7633 
3 4463 8715 8452 
3 5453 9675 6254 
3 6344 10710 10614 
3 957 10710 1004 
3 995 7503 999 
3 1885 8094 7225 
3 4223 9709 7214 
3 4812 7470 5227 
3 5441 7403 7202 
3 10836 11174 6283 
3 10943 11074 1059 
3 4338 9965 7004 
3 8557 11245 6924 
3 7542 9395 1771 
3 2398 9621 7061 
3 3588 9395 7541 
3 4940 9834 5846 
3 6396 9984 9738 
3 3521 11210 1087 
3 7061 9312 2398 
3 3167 9193 3133 
3 7315 10688 5292 
3 5925 8585 7451 
3 6705 11314 9062 
3 1708 7389 1710 
3 2475 8481 2312 
3 2914 8230 2912 
3 3729 7922 3227 
3 5360 10325 4264 
3 5222 7236 6755 
3 7207 7208 5426 
3 7484 9955 5443 
3 6057 10831 10796 
3 6313 7145 6925 
3 7777 9001 6602 
3 7062 9312 7061 
3 7383 8275 7385 
3 7964 8378 7690 
3 7916 9503 7918 
3 2019 8833 3039 
3 3997 8275 7383 
3 9695 10709 7361 
3 10333 10390 8757 
3 10806 10924 2288 
3 6097 11217 11177 
3 5863 10171 10018 
3 6002 10978 6677 
3 8516 10402 10259 
3 391 9332 390 
3 4463 8452 8446 
3 5843 9717 4556 
3 6810 8876 7521 
3 5255 7248 7180 
3 7148 10900 10651 
3 7741 9787 7861 
3 7873 7874 3859 
3 2313 9522 9460 
3 2856 7317 4135 
3 10604 11266 3464 
3 5747 9089 7301 
3 8608 10581 4456 
3 7601 10760 6273 
3 3883 10815 4801 
3 6312 7145 6313 
3 10051 10125 7229 
3 9350 10049 8523 
3 6511 10243 9892 
3 1163 10340 1167 
3 6989 9830 9672 
3 10929 11000 7680 
3 11152 11206 8196 
3 2929 8360 7040 
3 7069 11194 5322 
3 6413 10339 9971 
3 1567 9001 7777 
3 9689 10779 1201 
3 7411 7564 3213 
3 7452 8076 5834 
3 7963 8015 6370 
3 6612 11050 10998 
3 6023 10810 5325 
3 7085 7870 5663 
3 7418 10056 7421 
3 2825 7551 2828 
3 6466 8494 7549 
3 1953 11068 10737 
3 5516 10873 5518 
3 6057 10796 6056 
3 6372 7705 6373 
3 1662 7605 1645 
3 9694 10590 3898 
3 10291 10580 6443 
3 7964 10196 9882 
3 5229 7868 6293 
3 3595 11000 10929 
3 10111 10389 4290 
3 5230 7161 6305 
3 7222 9902 973 
3 2322 10106 9490 
3 5551 10238 7759 
3 6425 9387 7599 
3 11083 11103 2869 
3 10146 10441 6544 
3 9248 10170 6290 
3 8191 8903 6326 
3 3013 10307 3051 
3 4211 7157 7155 
3 6541 10769 4590 
3 7208 10370 8046 
3 7878 11052 875 
3 8010 8802 1126 
3 3398 10708 5929 
3 7049 7704 3439 
3 7498 9512 6160 
3 6987 11197 2442 
3 3925 9824 7065 
3 5518 10873 7921 
3 7776 9287 6424 
3 9813 10737 6976 
3 10838 11213 6996 
3 2667 9479 8466 
3 8446 8961 4463 
3 3303 10996 2925 
3 6500 7236 5222 
3 2667 8469 1400 
3 8515 10402 8516 
3 4240 8218 4239 
3 10954 11268 6381 
3 7271 7272 4413 
3 5362 10588 7572 
3 8111 8480 5364 
3 4209 7537 3159 
3 2398 9893 9621 
3 7925 10819 3400 
3 1957 7298 1961 
3 4311 7420 4359 
3 7827 10375 5974 
3 7953 7960 7950 
3 504 11479 8554 
3 8632 8667 7555 
3 7046 10675 5359 
3 3596 11073 2888 
3 1947 7758 7756 
3 6083 7357 6086 
3 6582 10464 9811 
3 7705 10007 7107 
3 7254 9458 7253 
3 7771 10112 7770 
3 2037 7516 2323 
3 7519 8000 7232 
3 7541 9395 7542 
3 4800 7209 7126 
3 5244 7528 5243 
3 7959 8907 8003 
3 8010 9205 8802 
3 4315 7945 3888 
3 5501 7831 7517 
3 79 11249 9112 
3 2140 9010 7532 
3 3751 7413 3750 
3 4521 7185 7184 
3 8466 9479 8463 
3 7449 10592 3456 
3 3859 7874 4882 
3 7166 7237 5640 
3 6316 9700 9699 
3 6946 11050 6612 
3 7819 7868 5229 
3 7379 10509 7095 
3 7379 10411 9584 
3 10760 11072 7206 
3 7595 10373 4911 
3 5742 9264 6340 
3 5846 9834 8800 
3 7829 9387 6425 
3 6257 7304 5235 
3 5999 10983 10975 
3 3404 8097 7558 
3 4785 10129 3877 
3 6880 7485 6268 
3 7036 11198 6777 
3 10545 10621 10234 
3 10099 10801 2110 
3 4030 10838 6996 
3 4720 10335 10001 
3 4061 10572 10354 
3 2931 7593 4103 
3 5856 9800 9183 
3 1000 10439 1001 
3 4065 9503 7916 
3 875 11052 610 
3 7149 10848 7578 
3 7513 8219 8218 
3 6972 10426 6973 
3 9553 10414 1617 
3 11390 11396 2394 
3 8718 10262 5519 
3 3577 9266 5586 
3 8291 8757 8288 
3 2436 10750 10315 
3 7164 7551 2827 
3 3751 7414 7413 
3 7155 7503 4211 
3 7633 7635 7297 
3 9079 11372 11371 
3 7261 10882 1860 
3 3574 10888 7053 
3 4211 9450 7157 
3 7228 7821 4770 
3 9726 10751 5415 
3 6090 10990 10887 
3 6423 9938 8314 
3 7218 8925 7089 
3 7395 8231 7682 
3 1718 9839 1720 
3 7227 10306 2076 
3 2210 9827 7562 
3 5643 10014 8593 
3 7181 8325 5725 
3 7281 7607 6361 
3 6600 11053 7149 
3 10354 10572 7566 
3 3594 7229 1136 
3 7150 9814 3462 
3 8452 8715 5658 
3 9621 9893 6408 
3 1946 8179 4397 
3 2141 7870 7808 
3 2219 7270 2221 
3 2462 7312 7310 
3 8466 8468 2667 
3 3706 9051 3710 
3 8110 10097 3889 
3 7139 9053 3930 
3 4345 9324 4509 
3 5033 8494 6466 
3 5159 7141 6356 
3 7509 7806 5213 
3 5429 7207 5425 
3 5663 8713 7085 
3 5911 8212 8211 
3 6128 11012 7121 
3 7592 7926 6409 
3 6410 7247 7180 
3 6442 10965 10766 
3 6508 10003 9009 
3 8478 9796 6531 
3 7067 9890 8204 
3 7140 9053 7139 
3 7140 9359 9053 
3 8169 9973 7352 
3 7678 8519 7638 
3 8851 9191 7985 
3 9071 10198 8042 
3 10149 10184 9457 
3 3125 8851 3123 
3 5870 10427 7377 
3 8802 9205 3439 
3 8445 10448 8448 
3 7392 8092 4053 
3 7417 9131 4359 
3 6181 8620 4756 
3 10242 10350 7144 
3 9733 11318 11290 
3 6345 8111 5364 
3 7695 10440 2653 
3 8468 8469 2667 
3 5396 7233 6771 
3 7516 10422 10087 
3 3330 10008 7250 
3 5475 8092 7392 
3 3573 11032 576 
3 3938 7300 3941 
3 4084 11005 10735 
3 5481 9301 9173 
3 7162 11221 6168 
3 6421 7239 5304 
3 7622 11035 11015 
3 933 7375 935 
3 2549 11220 10499 
3 4736 11193 6713 
3 4638 7472 4635 
3 5183 8034 4644 
3 7747 9965 9837 
3 8111 9324 4364 
3 7576 10920 6581 
3 9980 11046 7447 
3 1462 10154 1519 
3 7783 10072 5784 
3 1191 7201 1186 
3 1291 10620 8945 
3 2501 8612 7599 
3 2531 7479 3029 
3 4685 8042 4683 
3 8362 8363 6394 
3 7703 9638 3429 
3 3870 9196 4318 
3 453 11438 11342 
3 5346 7196 5841 
3 10192 10526 6591 
3 7783 10535 10072 
3 3042 7570 4155 
3 7393 8197 8081 
3 7769 9752 9495 
3 1171 7828 3344 
3 3854 7535 4909 
3 7273 10441 7274 
3 6992 10644 1201 
3 1201 10779 6992 
3 4635 7472 4633 
3 7729 11104 10981 
3 7224 8065 4898 
3 7794 10906 10855 
3 2544 7860 3028 
3 6591 10526 4721 
3 7302 9089 974 
3 2827 7551 2825 
3 3007 8453 8447 
3 8843 10928 7893 
3 8228 10191 754 
3 2828 10174 2927 
3 7996 8097 3404 
3 5505 7776 6424 
3 6965 11080 6412 
3 7182 10339 6413 
3 4152 9775 4150 
3 7246 9629 9628 
3 7422 8075 4023 
3 8141 9994 4883 
3 5827 10629 5825 
3 3099 8005 2994 
3 4791 7835 4324 
3 6116 8070 5096 
3 5206 7557 5684 
3 8223 10611 5410 
3 7769 9495 8359 
3 8160 9967 8945 
3 588 10867 586 
3 5499 7831 5501 
3 9187 9814 7151 
3 9984 10268 7218 
3 1074 10717 10428 
3 3462 10051 7150 
3 4352 7544 5200 
3 5642 9994 8141 
3 6360 10405 10064 
3 6406 9715 7371 
3 10260 10481 7634 
3 7365 9499 3079 
3 7392 8093 5475 
3 7877 10152 5543 
3 7163 7281 6361 
3 7201 10238 1190 
3 5006 10423 4342 
3 7238 7523 5366 
3 9652 10037 5594 
3 5764 7146 5766 
3 6115 10742 7906 
3 8015 10200 6370 
3 9486 10156 6450 
3 7113 8227 7094 
3 8200 8203 8199 
3 6343 7238 5366 
3 7504 9667 7189 
3 6971 7117 6329 
3 7756 8695 1947 
3 4516 9169 9168 
3 4516 9426 9169 
3 7189 8494 5033 
3 4456 9051 3704 
3 6339 9843 4972 
3 8381 9879 9433 
3 3774 9410 7362 
3 2075 11036 9784 
3 4765 7627 6745 
3 10210 10455 3347 
3 7961 10682 7960 
3 1993 10381 8609 
3 3834 8156 4158 
3 5283 7938 5285 
3 4763 10261 6232 
3 5194 11087 10804 
3 6345 10844 9324 
3 7635 9908 1961 
3 7317 7322 4135 
3 6114 11086 10955 
3 1645 7605 1647 
3 7532 9010 7851 
3 2400 7567 2091 
3 7551 10174 2828 
3 3861 7712 2920 
3 6667 8974 5151 
3 1944 8179 1946 
3 7122 10790 2315 
3 7247 8488 6520 
3 10508 10524 6634 
3 1399 11290 11256 
3 7023 10962 4955 
3 7835 7837 5276 
3 7594 9905 7427 
3 10384 10414 9553 
3 2098 7608 2096 
3 3458 7607 7281 
3 7052 10656 10303 
3 4321 9432 4326 
3 7788 7839 7182 
3 1758 8085 7167 
3 7631 7632 3645 
3 7198 11117 5329 
3 3343 10425 3924 
3 4895 7765 7764 
3 9714 9715 6406 
3 2877 8641 2874 
3 7125 10309 4221 
3 4331 7784 4362 
3 4516 9168 8947 
3 10853 10976 6600 
3 1608 7700 1656 
3 7113 8090 3837 
3 7415 10641 9716 
3 2140 8848 1874 
3 7115 9522 2313 
3 5471 10386 3184 
3 9658 9659 5528 
3 10527 11338 6161 
3 7421 9131 7418 
3 8379 9921 7706 
3 8997 10076 9476 
3 5456 8560 7401 
3 1657 8848 3562 
3 4286 7855 4363 
3 4455 8370 4452 
3 5632 10224 6055 
3 5751 10900 7148 
3 1069 10897 10744 
3 8488 8616 6520 
3 7423 8614 3270 
3 4909 7535 5331 
3 5984 10382 9881 
3 7768 9011 7769 
3 8178 9722 8180 
3 7254 9379 7316 
3 8132 10488 1165 
3 10263 10563 4902 
3 7380 8378 7964 
3 1806 7565 1828 
3 7123 10974 10909 
3 4213 8197 7393 
3 3256 10192 4000 
3 7502 7904 6389 
3 2076 10306 1962 
3 7077 10130 4709 
3 6997 11137 10971 
3 7693 7694 7688 
3 1167 7828 1171 
3 3590 10797 2513 
3 6963 6964 5296 
3 935 7375 4505 
3 1854 8094 1855 
3 7824 7825 2929 
3 5209 7681 4908 
3 6011 7730 5590 
3 5365 7523 6390 
3 4591 10407 1603 
3 7603 7604 3933 
3 4694 10054 5218 
3 8318 8663 5921 
3 7466 7467 3346 
3 8317 8663 8318 
3 2936 9581 7832 
3 7214 7215 4223 
3 8735 9638 7071 
3 10320 10641 7415 
3 8736 9902 7703 
3 7377 10427 1001 
3 1687 10808 7118 
3 2827 8134 7164 
3 7221 8649 3376 
3 5369 8618 8617 
3 8203 8204 8199 
3 3404 7908 984 
3 4211 7503 995 
3 1013 9489 1007 
3 4394 7927 5451 
3 4554 7223 5835 
3 7149 7578 5330 
3 7118 7205 5585 
3 7577 9839 1718 
3 7478 7479 2390 
3 2646 9608 8071 
3 4423 11070 8603 
3 9446 10781 4423 
3 7553 8420 4799 
3 7464 10310 4869 
3 7232 9598 5436 
3 5756 8000 7519 
3 7191 10769 6541 
3 6541 10802 7191 
3 7875 10836 7036 
3 1716 7577 1718 
3 4406 9740 3335 
3 4006 10515 2090 
3 3225 10469 6993 
3 4180 8617 3269 
3 7618 8988 3543 
3 3990 7250 7249 
3 4619 9049 4617 
3 4632 9932 4722 
3 4687 8037 5260 
3 4784 10209 7813 
3 7210 7211 4914 
3 4960 7598 7597 
3 4963 7189 5033 
3 5256 7275 6294 
3 7050 7052 5352 
3 7921 10738 5518 
3 6409 7754 7592 
3 9822 10078 6601 
3 6771 7814 7813 
3 7052 10303 9983 
3 9013 10096 7388 
3 7418 9131 7417 
3 9660 10653 7596 
3 8020 9644 7711 
3 7181 8050 4966 
3 9598 9599 6362 
3 7381 7577 3997 
3 6018 7854 7853 
3 10343 10994 9368 
3 1175 7313 1180 
3 3113 10401 3032 
3 8847 10440 7696 
3 2354 9744 2158 
3 3558 10719 10374 
3 7366 8610 7858 
3 579 7405 581 
3 1165 10488 7363 
3 1766 11161 11054 
3 7505 7508 5213 
3 5250 7022 6403 
3 7021 7591 7418 
3 9738 9984 7218 
3 238 8642 237 
3 5790 9996 5875 
3 7647 8976 7645 
3 7045 10348 7607 
3 7237 7501 5640 
3 6461 7882 7881 
3 8180 9722 3393 
3 5874 10563 10263 
3 9011 9752 7769 
3 2436 8298 7087 
3 8287 8289 2665 
3 9709 9800 7214 
3 3896 10672 3897 
3 4324 7835 4322 
3 6561 9089 5747 
3 1862 7389 7387 
3 3344 7523 7238 
3 3583 9266 3579 
3 5972 8988 7618 
3 7720 8062 7160 
3 5877 9977 9221 
3 7259 10206 6397 
3 1450 9852 9385 
3 7281 8484 3458 
3 3518 8561 7401 
3 5114 7455 5112 
3 5963 10787 10088 
3 4119 7230 3778 
3 10563 10655 7525 
3 9015 9043 3037 
3 3227 7922 4077 
3 7222 10136 9902 
3 5452 8421 4793 
3 10088 10787 5542 
3 6267 9836 6367 
3 1577 8013 1491 
3 4575 10700 6615 
3 7508 7509 5213 
3 7141 7939 6356 
3 2980 7364 4939 
3 10777 10822 6623 
3 7695 10250 7694 
3 8204 9890 8199 
3 581 7405 3100 
3 3462 10125 10051 
3 3562 8848 7143 
3 9465 9763 4960 
3 5027 10397 5943 
3 7696 10440 7695 
3 11400 11420 6195 
3 3907 10170 9248 
3 4397 8179 8176 
3 7071 9638 5465 
3 1491 8013 1444 
3 7445 11246 8007 
3 3636 10939 7728 
3 7544 7546 7545 
3 8534 9468 8974 
3 9356 9662 2637 
3 3902 8005 3099 
3 6931 6942 6941 
3 7387 10420 7388 
3 3285 7209 3874 
3 3318 9571 4872 
3 3539 7764 3538 
3 6363 10523 4892 
3 6530 10740 6529 
3 6601 10078 9926 
3 7348 7735 7349 
3 10331 10385 8559 
3 7558 7908 3404 
3 6245 7528 5244 
3 5366 7523 5365 
3 8225 10497 9579 
3 10306 10916 9989 
3 3837 8227 7113 
3 4572 9617 4570 
3 5266 9628 4649 
3 8262 8263 6311 
3 1439 8757 8291 
3 5551 10674 3507 
3 5550 8484 7281 
3 1793 8016 3702 
3 10038 10284 2881 
3 7364 8285 4939 
3 6410 8488 7247 
3 9287 9288 6424 
3 10855 10906 2106 
3 8100 10284 8101 
3 8886 10921 10884 
3 11275 11280 427 
3 2858 7317 2856 
3 3146 9587 3848 
3 6470 9942 6474 
3 8113 9849 7467 
3 3942 10329 3945 
3 4065 7916 7914 
3 5663 9254 8713 
3 7583 9432 7584 
3 4902 7525 7524 
3 6427 8718 8717 
3 1421 10441 7273 
3 10675 10723 5359 
3 4164 10083 6731 
3 4716 8974 5321 
3 8189 8903 8191 
3 57 9078 56 
3 7400 7416 6233 
3 6337 10789 7200 
3 7313 9622 7314 
3 8453 8961 8446 
3 6397 10206 4985 
3 7355 7357 6083 
3 6508 9009 7590 
3 6637 10928 8843 
3 1947 9489 7758 
3 4202 9824 2963 
3 7219 10156 3087 
3 3255 8103 3257 
3 3842 8227 3838 
3 4301 8211 3901 
3 4464 10375 7827 
3 6611 9401 5469 
3 5927 10478 7834 
3 5972 8989 8988 
3 5999 11084 10983 
3 6469 10199 7573 
3 7263 8181 7264 
3 7427 9905 7424 
3 8769 10107 9898 
3 5279 7945 4315 
3 2779 9824 3925 
3 4818 8421 6816 
3 5330 7578 4988 
3 6423 8314 7153 
3 7719 7796 7795 
3 11322 11459 6945 
3 8290 8291 8288 
3 7533 8377 2690 
3 3279 9131 7421 
3 9893 10191 6408 
3 1710 7389 1862 
3 4833 7784 4331 
3 9593 10960 1211 
3 4212 8741 4859 
3 4557 10496 4553 
3 3041 7570 3042 
3 4314 7560 5372 
3 7473 10197 7476 
3 3142 9589 9588 
3 3224 8707 3222 
3 10434 10714 7042 
3 5372 7560 7192 
3 827 10881 825 
3 4076 8210 2817 
3 4285 8211 5247 
3 5173 7498 6161 
3 5205 7400 6233 
3 7325 7326 7323 
3 7607 10348 6361 
3 4816 7855 4286 
3 9675 9676 6254 
3 6389 10164 7502 
3 3729 7923 7922 
3 7604 9156 7297 
3 9874 10443 9758 
3 3050 9981 3048 
3 7713 9652 4462 
3 3052 9498 7468 
3 10591 10743 3091 
3 9564 11144 4578 
3 5390 8244 7078 
3 6508 7590 7589 
3 7151 9814 7150 
3 9391 9971 1685 
3 2312 8481 2740 
3 3007 8961 8453 
3 8510 8511 2133 
3 7380 7964 2191 
3 4221 9808 7125 
3 6658 9878 4563 
3 5192 8032 6727 
3 5839 10318 10258 
3 6646 10301 9781 
3 6973 6974 6971 
3 8947 9168 7565 
3 7950 7960 7951 
3 7953 7961 7960 
3 9293 9294 8108 
3 1696 11003 886 
3 4316 7520 4317 
3 7532 10163 2140 
3 2328 8298 2436 
3 10928 11025 4126 
3 4644 8034 4646 
3 4689 8037 4687 
3 7906 11085 6115 
3 7264 8181 8171 
3 7346 8477 7348 
3 7483 10678 10454 
3 7722 9546 1800 
3 3089 9796 8478 
3 7992 10571 10543 
3 7209 9891 6414 
3 1758 10679 8085 
3 3886 7560 4314 
3 5590 10063 5589 
3 6181 8621 8620 
3 984 7908 986 
3 3291 7495 2892 
3 2964 7466 3346 
3 7238 9251 3344 
3 10506 10871 6593 
3 9221 9977 7270 
3 11199 11253 7114 
3 2462 7313 7312 
3 4866 7537 4209 
3 7148 10651 10330 
3 9892 10243 8773 
3 2239 7823 2242 
3 9898 10107 7988 
3 6862 8217 8216 
3 11449 11454 7545 
3 2916 8238 2918 
3 6615 9617 4572 
3 6544 10046 9385 
3 6757 7060 7059 
3 7412 9972 2005 
3 2426 7533 2690 
3 3028 7860 5874 
3 3035 9701 3139 
3 4326 7815 3894 
3 7231 10770 6574 
3 10635 10918 9612 
3 8234 8398 503 
3 3657 9533 3658 
3 7393 8740 4213 
3 4645 9059 4643 
3 10258 10318 6630 
3 10512 10541 7469 
3 10304 10367 8630 
3 1708 9135 7389 
3 3367 10207 7106 
3 4158 8156 4422 
3 4949 8218 4240 
3 5057 9538 5363 
3 6416 7948 7566 
3 7365 8610 7366 
3 2038 7516 2037 
3 3144 10161 10080 
3 5077 8103 3255 
3 5096 8070 4265 
3 4961 8004 6406 
3 6576 9923 9488 
3 6857 7088 6936 
3 6974 10973 7707 
3 7728 10939 7726 
3 8481 9334 8480 
3 2387 7860 2544 
3 3272 9567 4565 
3 3576 8271 3580 
3 9121 9434 5891 
3 6107 8874 7362 
3 6427 8717 8043 
3 8146 10147 6460 
3 7301 9089 7302 
3 7422 8076 7452 
3 7709 7710 4123 
3 5235 7304 6415 
3 6329 7118 5585 
3 2753 10270 7625 
3 5855 10181 4066 
3 4855 10136 5419 
3 5067 11084 5999 
3 5419 7222 7221 
3 9348 10476 5502 
3 4323 10263 4902 
3 4436 9458 4433 
3 4750 10032 6194 
3 6110 10884 6995 
3 6603 10767 8694 
3 11224 11279 6652 
3 965 10932 1455 
3 7503 9599 999 
3 1001 10439 7377 
3 1756 9600 1760 
3 2040 7259 2329 
3 2133 9122 8510 
3 7053 10840 3574 
3 3673 7771 3678 
3 4017 9164 7958 
3 4757 7627 4765 
3 5532 10752 10712 
3 5934 10962 7023 
3 5994 9693 8596 
3 6422 8097 7996 
3 10505 10552 7016 
3 7402 10184 10149 
3 8810 10251 8727 
3 9563 11008 10856 
3 7153 8314 868 
3 11274 11283 1585 
3 5443 9955 2175 
3 8071 10720 2646 
3 9383 10848 3351 
3 3458 9339 7607 
3 7220 9800 3728 
3 4482 7882 6461 
3 4561 8813 4518 
3 7358 9402 4913 
3 8486 10190 4931 
3 7544 7545 5200 
3 6763 7536 5824 
3 10436 11187 6969 
3 6986 10960 10733 
3 7645 8976 7676 
3 8759 10731 9468 
3 9613 10011 2978 
3 4675 7795 4673 
3 6268 7485 5918 
3 6346 7113 7094 
3 6408 10191 8228 
3 1175 9622 7313 
3 1447 9386 1419 
3 1480 9852 1450 
3 1558 7589 1628 
3 1956 7298 1957 
3 10370 10683 2116 
3 2132 8512 2136 
3 2233 10885 9806 
3 7310 7492 2462 
3 3051 10667 2687 
3 3039 8833 4967 
3 3103 9196 3870 
3 3344 7828 7523 
3 3785 7598 3375 
3 3846 7736 3843 
3 4831 10103 3914 
3 8705 9684 4381 
3 7408 7409 4515 
3 5248 9249 4797 
3 7308 10423 5006 
3 5220 10825 10393 
3 5223 7059 6836 
3 6691 8509 5228 
3 5249 7315 5292 
3 10312 10588 5362 
3 8480 9334 5364 
3 9358 10901 5574 
3 8334 9394 6008 
3 7108 10851 6375 
3 6443 10580 7003 
3 6474 9942 8552 
3 6635 11089 10671 
3 11203 11215 6699 
3 7012 7018 7017 
3 7086 8505 7592 
3 7274 10441 10146 
3 9539 10380 7408 
3 8112 8113 7467 
3 7550 10180 9966 
3 7885 9316 8761 
3 7912 9321 7914 
3 8276 9987 8277 
3 9003 9921 8379 
3 9352 10159 8479 
3 9046 10077 8997 
3 10131 10964 9146 
3 7586 7853 4389 
3 9851 9941 5847 
3 3750 7413 3865 
3 1612 8338 1518 
3 2002 9011 7768 
3 10410 10786 6614 
3 10582 10585 6628 
3 10937 10946 6653 
3 1167 10340 7828 
3 2051 9911 2052 
3 8426 9401 6611 
3 2089 7478 2390 
3 5228 8509 4813 
3 7280 8126 7561 
3 5524 10009 572 
3 1543 8244 1574 
3 2541 9555 2819 
3 3801 7423 3270 
3 5857 10468 7515 
3 6018 10586 7854 
3 8043 8145 4959 
3 2018 7465 2016 
3 5846 9851 5847 
3 10141 10648 7682 
3 1795 8016 1793 
3 2222 7270 2219 
3 9900 10318 5839 
3 8890 8891 6696 
3 7256 11376 1203 
3 4195 11076 6930 
3 5012 7869 5136 
3 571 7856 573 
3 2096 7608 2357 
3 6149 7587 5133 
3 10300 11065 10368 
3 7703 9902 7702 
3 7801 9838 3161 
3 7677 7678 7638 
3 6459 8285 7234 
3 4284 7819 4283 
3 11186 11422 6393 
3 6915 6916 6914 
3 8538 8756 8537 
3 4881 8155 3300 
3 5834 8077 7452 
3 8447 8454 3007 
3 3300 8155 3102 
3 9631 9810 3294 
3 6081 7355 6083 
3 6232 10261 7800 
3 1936 11219 10638 
3 3247 7735 2761 
3 3290 8090 3289 
3 3838 8227 3837 
3 6439 9850 9737 
3 9294 9295 8108 
3 4392 7927 4394 
3 5333 10432 6571 
3 7809 7810 6218 
3 6551 10351 10187 
3 11151 11159 3264 
3 4895 7764 3539 
3 4543 7779 3707 
3 5242 9872 7699 
3 6717 11432 11426 
3 7432 7594 7429 
3 1844 8187 2005 
3 3087 10134 7219 
3 7196 10017 5841 
3 5979 10152 7877 
3 6435 9499 7365 
3 7693 7695 7694 
3 3986 9417 4990 
3 4908 7681 4907 
3 6511 10150 5373 
3 6266 7685 6265 
3 6404 9455 4503 
3 7956 9164 6556 
3 2653 10440 1290 
3 7914 9321 4065 
3 7473 7474 4759 
3 7190 10505 7016 
3 1489 9445 7881 
3 3045 7487 3055 
3 5363 9538 6809 
3 3426 9879 8381 
3 6862 8216 5253 
3 6443 10892 10291 
3 7572 8110 3889 
3 6757 7059 4790 
3 6118 11038 7257 
3 10308 10729 9658 
3 2411 8589 2149 
3 4220 7457 4869 
3 7191 10802 4886 
3 5332 7526 6220 
3 9173 9462 7279 
3 7452 10666 5881 
3 6423 10153 9938 
3 6652 11279 7494 
3 7423 9905 8614 
3 8989 9055 8991 
3 6031 8308 5126 
3 6035 10936 10859 
3 9699 10473 6316 
3 7722 10014 9546 
3 3053 9663 9039 
3 3271 8617 4179 
3 9124 9125 7793 
3 10643 10999 8932 
3 4264 10325 3759 
3 3835 7350 7159 
3 7985 10662 4956 
3 10503 11200 7000 
3 3832 8156 3834 
3 8582 10521 9941 
3 1682 8187 1844 
3 7482 7483 2609 
3 2707 8020 7711 
3 2918 8238 3288 
3 4942 10140 8801 
3 11520 11523 7476 
3 3340 8078 2029 
3 4381 9684 8082 
3 10994 11121 5130 
3 10336 10984 8673 
3 7269 10391 795 
3 872 11022 806 
3 4023 8076 7422 
3 6866 9249 5248 
3 6845 7938 5287 
3 3916 10145 5887 
3 6425 7991 7829 
3 1220 10665 3400 
3 7351 9973 4536 
3 8136 8140 5204 
3 5467 10299 10298 
3 7177 10899 8134 
3 4173 7548 3882 
3 8742 9677 5428 
3 7832 10476 9347 
3 1672 7884 1679 
3 2944 9746 9295 
3 3079 8610 7365 
3 3213 7565 7411 
3 3267 8004 4961 
3 3871 7408 4515 
3 7710 10220 4123 
3 4426 9293 8107 
3 6288 7497 5438 
3 7024 9830 6989 
3 2773 10507 2772 
3 1166 10339 7182 
3 1427 8240 1415 
3 10072 10535 1508 
3 1609 7700 1608 
3 2097 9372 7929 
3 3026 7709 4123 
3 8359 9495 3244 
3 5507 9631 3294 
3 8448 10448 3460 
3 3601 9386 7007 
3 4389 7853 6319 
3 4860 7447 6089 
3 4954 10903 4952 
3 5510 10065 9496 
3 7278 10308 5532 
3 7799 11061 5823 
3 6055 10224 7924 
3 6129 11183 11172 
3 10504 10701 6633 
3 7090 7874 7873 
3 7388 10420 9013 
3 7597 10373 7595 
3 7688 7694 7687 
3 7988 9759 7987 
3 8081 8197 8082 
3 8628 10372 10286 
3 9001 10728 10686 
3 2390 7479 2531 
3 5681 7541 5680 
3 6467 8654 8303 
3 1007 9489 1947 
3 9957 10042 3368 
3 7792 9896 4700 
3 10976 11053 6600 
3 10184 10344 7559 
3 8301 8954 8942 
3 1518 8338 1523 
3 5238 7875 7036 
3 7406 7407 5790 
3 7592 8505 7926 
3 10840 10967 868 
3 4857 8150 7701 
3 5451 7927 7453 
3 3682 7771 3673 
3 4388 8239 5530 
3 97 8195 470 
3 7829 7991 1837 
3 3631 10782 9743 
3 7035 9976 3840 
3 5972 9055 8989 
3 6355 10279 7217 
3 11128 11197 6940 
3 7538 10812 8230 
3 6571 10432 10045 
3 2141 8015 1530 
3 5805 10042 9957 
3 7478 9908 7480 
3 2947 9712 9166 
3 3081 7567 2400 
3 4207 8104 3341 
3 3499 10166 9803 
3 4055 9321 7912 
3 7039 7201 1191 
3 2211 8880 2208 
3 9300 9547 2572 
3 4808 7809 6218 
3 6466 10146 6544 
3 3858 7873 3859 
3 10064 10405 4895 
3 10403 10680 6609 
3 6341 10876 4710 
3 10454 10678 5108 
3 6447 7853 7586 
3 7881 9445 6461 
3 7762 7845 7844 
3 1763 9839 8128 
3 7730 10063 5590 
3 10195 10634 7511 
3 9938 10153 2647 
3 7959 8003 7958 
3 8046 10370 8045 
3 4942 9834 4940 
3 7958 9164 7956 
3 9392 10517 10194 
3 390 9332 458 
3 1080 9395 1078 
3 1439 8756 8538 
3 4902 7524 4325 
3 7274 10146 4897 
3 5171 7587 7114 
3 5911 8215 8213 
3 7311 7492 7310 
3 7362 8874 3774 
3 3917 7830 3899 
3 4426 9970 8542 
3 9295 9746 8108 
3 8334 9993 8335 
3 8117 10445 2508 
3 3143 9587 3146 
3 7237 8127 7501 
3 7280 9863 8126 
3 9049 10577 9048 
3 7259 8164 2329 
3 2906 9567 3272 
3 7299 10329 3941 
3 9781 10301 4259 
3 6271 7276 6272 
3 8492 11018 8491 
3 1836 9575 1901 
3 9173 9301 2452 
3 10324 10457 6509 
3 3138 9891 3285 
3 3580 8271 8269 
3 8028 8813 4878 
3 7395 7682 7681 
3 2051 8897 7973 
3 4756 8620 5369 
3 7250 11069 7249 
3 7757 10646 10277 
3 8538 8757 1439 
3 3808 8062 3807 
3 7619 10070 9920 
3 8150 9411 7701 
3 543 9332 391 
3 1242 10055 9554 
3 7599 9387 2501 
3 10859 10936 8643 
3 2029 8078 1899 
3 2341 8298 2328 
3 2740 8481 7282 
3 7282 9401 2740 
3 4222 9667 7504 
3 7065 10675 6011 
3 7909 10332 3106 
3 5435 9598 6362 
3 1760 9600 7260 
3 2408 8271 3576 
3 10286 10372 3519 
3 5149 8352 8246 
3 4174 8420 4173 
3 8198 8200 8199 
3 2761 7735 2698 
3 9808 10977 7125 
3 9486 10620 9487 
3 5254 7697 6825 
3 10516 10694 5850 
3 6413 9971 9391 
3 1415 8240 1414 
3 1914 9922 1912 
3 8611 8612 2501 
3 3842 7736 7497 
3 4882 7874 5340 
3 7147 7583 5752 
3 5788 7406 5790 
3 10294 10416 4981 
3 1385 8672 1406 
3 2573 9975 2411 
3 3133 9193 3132 
3 3285 9891 7209 
3 3564 8501 7571 
3 7252 11032 3573 
3 10116 10332 7909 
3 2722 7540 2894 
3 5276 9432 4321 
3 7468 9498 6428 
3 11269 11330 7076 
3 6880 7486 7485 
3 7792 9897 9896 
3 3142 9588 9587 
3 8550 9034 4089 
3 8093 9935 5475 
3 7779 7783 5784 
3 3448 8086 889 
3 1347 9209 1494 
3 8697 10591 3091 
3 3740 10142 3793 
3 4192 7736 3846 
3 9672 9830 4851 
3 7208 8740 5426 
3 8156 9651 6420 
3 7763 11162 11115 
3 7790 9124 7793 
3 8596 9693 7820 
3 3031 7481 4391 
3 5419 10136 7222 
3 5906 10402 8515 
3 4448 9240 1511 
3 3997 7577 1716 
3 1720 9839 1763 
3 2140 10163 8848 
3 8206 9664 3637 
3 8303 10566 6468 
3 1230 10305 7344 
3 1705 10282 1944 
3 2032 9756 2034 
3 2616 10734 10615 
3 5996 9049 4619 
3 5545 11055 7448 
3 7552 8420 7553 
3 8107 9293 8108 
3 3580 8269 8006 
3 4981 10171 4151 
3 8268 9348 5502 
3 11261 11284 8891 
3 6260 7552 6830 
3 7886 10787 9794 
3 3352 8094 1854 
3 2831 8613 2847 
3 7832 9347 2936 
3 4280 7400 5205 
3 7251 10903 4954 
3 5466 9638 7703 
3 7415 9716 5871 
3 7659 7686 7670 
3 2180 9436 3357 
3 3785 10373 7598 
3 4786 10198 7716 
3 4854 7746 5060 
3 975 10505 7190 
3 2430 7563 2431 
3 3316 8527 2992 
3 8208 10328 3308 
3 11285 11286 3777 
3 7285 7286 3937 
3 4473 9343 8297 
3 9032 9285 5546 
3 5728 8120 6675 
3 7268 10391 7269 
3 7684 8695 7756 
3 7747 9837 9591 
3 8286 8289 8287 
3 7255 11022 872 
3 7006 10988 1211 
3 1972 8936 7749 
3 2188 11527 11526 
3 7563 10622 2623 
3 3261 7721 3263 
3 3375 7598 3373 
3 7948 9466 3381 
3 3381 9477 7948 
3 4029 8663 8317 
3 4350 7544 4352 
3 5481 9173 7279 
3 6980 7541 5681 
3 11189 11216 6674 
3 7271 10020 7273 
3 7488 9226 7975 
3 7640 9915 9134 
3 7775 8194 8193 
3 2117 9743 2176 
3 6993 10869 3225 
3 7816 7818 3661 
3 3664 9615 4517 
3 3741 9440 3737 
3 4667 9325 4665 
3 5261 7795 4675 
3 6008 9993 8334 
3 7038 9251 7238 
3 656 10052 654 
3 1161 8605 1169 
3 1180 7313 2462 
3 4428 8672 1385 
3 1582 8244 1543 
3 1580 9392 1633 
3 1677 8251 1881 
3 1958 7811 1849 
3 1940 10444 1937 
3 7768 9067 2002 
3 7465 8530 2016 
3 2021 7465 2018 
3 8511 8512 2133 
3 2168 7624 2339 
3 2279 10880 10715 
3 7762 7844 2298 
3 2519 10500 9290 
3 3279 7421 2770 
3 10300 10628 2887 
3 2901 8004 3267 
3 3055 10057 3047 
3 3053 9582 8250 
3 3117 7588 3119 
3 3278 9537 3892 
3 3619 9341 3621 
3 4030 7183 3694 
3 3835 7159 3836 
3 4825 8031 3947 
3 8991 9055 4059 
3 4106 9848 5157 
3 6357 8104 4207 
3 4299 7247 6520 
3 4374 8505 4376 
3 4397 8176 8175 
3 4454 10612 10579 
3 5963 10088 4605 
3 4623 7928 4696 
3 4664 8136 5204 
3 4665 9325 5264 
3 4672 7505 5213 
3 4677 7714 5261 
3 4682 7473 4759 
3 7967 8508 4787 
3 4859 8741 5440 
3 5086 10561 9683 
3 7210 7249 5408 
3 7497 7736 5438 
3 5458 8192 7910 
3 10508 10629 5827 
3 7876 9237 5939 
3 10944 11272 6148 
3 11080 11328 6412 
3 8510 9122 6448 
3 6697 11216 11189 
3 10418 10690 7009 
3 7189 9667 8494 
3 8020 9379 7254 
3 7299 7300 7289 
3 7311 8066 7492 
3 9014 9016 7404 
3 8072 10495 10316 
3 8165 9604 9349 
3 8172 9864 8175 
3 8225 10567 10497 
3 8226 10786 10410 
3 8564 10274 10101 
3 10551 10759 9290 
3 9760 10019 9315 
3 9668 10400 9981 
3 4966 8050 1465 
3 1828 7565 3213 
3 2064 10987 7778 
3 2475 9334 8481 
3 4310 7729 4309 
3 7217 10279 4349 
3 4984 8207 4983 
3 7563 9984 6396 
3 10926 11039 9225 
3 5188 10613 4648 
3 7701 7702 4857 
3 6559 11096 7183 
3 3689 8363 8362 
3 7975 9226 4019 
3 7862 7864 4170 
3 5359 10893 7046 
3 9216 9529 5596 
3 6130 11278 11211 
3 7973 8897 6438 
3 7481 7633 4391 
3 5441 7404 7403 
3 9947 11325 11265 
3 3995 8742 4933 
3 6416 9466 7948 
3 8314 9938 818 
3 2300 9828 2302 
3 5838 10104 3943 
3 4221 10309 8132 
3 5505 8337 7776 
3 10259 10995 8516 
3 2097 7929 2331 
3 5201 11446 11375 
3 6696 9361 8890 
3 9134 9915 8960 
3 572 10009 569 
3 1686 10346 1662 
3 2702 10087 7364 
3 7712 9130 2920 
3 4606 7522 5960 
3 7239 7240 908 
3 2161 7482 2609 
3 2847 8613 2976 
3 8614 9905 3349 
3 6618 7995 5165 
3 6985 8144 6327 
3 7228 9095 7821 
3 2907 10701 10504 
3 4568 10783 7609 
3 7523 7828 6390 
3 6594 10871 7213 
3 1693 9211 8158 
3 9768 10120 4439 
3 4836 8144 4835 
3 7457 7464 4869 
3 7051 7052 7050 
3 1798 7722 1800 
3 2201 9827 2203 
3 2496 9657 2890 
3 2594 10949 10631 
3 707 10547 9920 
3 8146 9438 5030 
3 5030 10147 8146 
3 7549 10146 6466 
3 7989 8361 7987 
3 1679 7884 1889 
3 7751 9821 2429 
3 4485 7872 3440 
3 4791 7836 7835 
3 10704 11033 5689 
3 10857 10991 8618 
3 7589 7590 1628 
3 2625 7203 2910 
3 5990 10556 7230 
3 5342 7943 5339 
3 6451 10459 6597 
3 586 11066 584 
3 2378 8925 2170 
3 4025 7725 4480 
3 6509 10457 7625 
3 1808 8950 1811 
3 6556 8474 7955 
3 8381 9433 7642 
3 1784 8611 1786 
3 3933 7604 7285 
3 8171 8173 7264 
3 7468 9684 8705 
3 8267 10317 8268 
3 1942 10737 9813 
3 4996 9341 3619 
3 4282 7395 7394 
3 4817 10961 4289 
3 5532 10712 7278 
3 8593 10014 7722 
3 7760 7761 2298 
3 3661 7818 3662 
3 2682 10092 4259 
3 8082 8197 4381 
3 6516 10069 9572 
3 9496 10575 10199 
3 9536 10421 9820 
3 1530 8015 1528 
3 1413 10007 7705 
3 1901 9575 3555 
3 2527 7591 7021 
3 8003 8907 2781 
3 4543 7780 7779 
3 5075 8710 5753 
3 7714 7718 5261 
3 7283 7284 5879 
3 6367 9836 7203 
3 6409 8017 7754 
3 7291 10711 7299 
3 3106 10332 2836 
3 4063 10059 4064 
3 5445 10898 8415 
3 6397 8164 7259 
3 9053 9359 7064 
3 1432 8241 4408 
3 7742 7745 2385 
3 7468 8705 3052 
3 4266 9665 9373 
3 4517 9615 6521 
3 6732 7606 6730 
3 8106 9877 1902 
3 3851 9033 2979 
3 5339 7943 5338 
3 7453 9675 5453 
3 1895 7974 1896 
3 1991 7974 1895 
3 2419 9657 2496 
3 4298 7712 3861 
3 8188 11213 5743 
3 5939 9237 5938 
3 6432 7825 7824 
3 1011 9598 7232 
3 7569 9746 2944 
3 6459 10141 8285 
3 11295 11331 7306 
3 8756 9460 8537 
3 2649 9759 7988 
3 2874 8641 2872 
3 7571 8500 3564 
3 4069 10399 10364 
3 6418 7681 5209 
3 1990 8454 8450 
3 2384 8349 2252 
3 3633 8276 2265 
3 5455 7283 5879 
3 10686 10728 6025 
3 7639 7677 7638 
3 7919 11039 10926 
3 5130 8404 4112 
3 4318 9196 6499 
3 8325 9802 5725 
3 2716 7600 2776 
3 3891 10000 4141 
3 4150 9775 5195 
3 7094 8227 7497 
3 3161 9838 8908 
3 4914 10872 3327 
3 3952 10209 3951 
3 9344 10503 5722 
3 5884 10389 10111 
3 7220 10097 6535 
3 7884 9316 7885 
3 7934 8028 8025 
3 3008 10321 9610 
3 10323 11027 5797 
3 1824 7944 3361 
3 3538 7764 4912 
3 5165 7995 4916 
3 5903 10520 10322 
3 1577 10155 8013 
3 1927 9846 3800 
3 2133 8512 2132 
3 8205 8206 3637 
3 7215 7227 4223 
3 5006 10456 7308 
3 5179 7499 6177 
3 7759 10674 5551 
3 7253 10703 6363 
3 7352 9973 7351 
3 8997 10077 10076 
3 5080 8471 1458 
3 3253 8100 5077 
3 7666 7993 7654 
3 2736 8089 7846 
3 4112 8404 4115 
3 3843 7736 3842 
3 4773 7819 4284 
3 5528 9659 4386 
3 4924 11129 11120 
3 5434 8075 7422 
3 1633 9392 1667 
3 1934 7840 1936 
3 2623 10622 7371 
3 5187 9302 4277 
3 4340 9511 6324 
3 4634 7620 4636 
3 4722 9932 7622 
3 8041 9071 8042 
3 8287 8290 8288 
3 1853 8454 1990 
3 2982 7535 3854 
3 2149 8589 1975 
3 3572 10798 9186 
3 3625 9690 9689 
3 7501 8127 3980 
3 5975 10660 10616 
3 7955 7956 6556 
3 7676 8381 7643 
3 8089 8109 7846 
3 9496 10065 8359 
3 6968 8222 3342 
3 3388 8337 5505 
3 3460 10273 8448 
3 3707 7779 3705 
3 7638 8519 4246 
3 5960 9895 5962 
3 8922 9530 6737 
3 7229 10125 1133 
3 1567 10594 1566 
3 1944 10282 8179 
3 3366 8044 1955 
3 7683 9888 3080 
3 3296 8707 3224 
3 3837 8090 3290 
3 3428 8361 7989 
3 3845 9997 3847 
3 3877 10129 3878 
3 4173 7552 7548 
3 8241 10196 4408 
3 4452 8370 4454 
3 4548 8063 4545 
3 4578 11144 7142 
3 4839 8144 4836 
3 5166 11046 9980 
3 5374 7788 7182 
3 5530 8239 6285 
3 8819 9058 5600 
3 8673 10382 5928 
3 5968 10581 8608 
3 10627 10904 6258 
3 6444 9007 9006 
3 8064 8853 6498 
3 8069 8597 6514 
3 8133 10414 10384 
3 8152 9764 8151 
3 2315 10790 582 
3 7746 7747 5060 
3 7488 7489 5660 
3 7273 7274 6385 
3 10557 10720 6604 
3 7754 8017 2167 
3 4055 7912 7910 
3 7910 8192 4055 
3 4788 7520 4316 
3 5944 8371 5097 
3 5302 9286 6779 
3 5913 9987 7869 
3 5913 10624 8277 
3 448 8642 238 
3 7741 7860 2387 
3 3080 9888 9384 
3 4170 8652 7862 
3 5660 10189 9780 
3 10712 10752 6819 
3 208 7898 473 
3 3742 7539 4044 
3 10316 10495 709 
3 1849 7811 1681 
3 2778 7826 4520 
3 3996 8272 3186 
3 4437 9768 4439 
3 9767 9886 5048 
3 7684 8097 6422 
3 6555 9164 8088 
3 7424 9905 7423 
3 9772 10334 9190 
3 7497 8227 3842 
3 7864 7866 4170 
3 4387 8239 4388 
3 5130 11121 8404 
3 5928 10382 5984 
3 6973 10426 7057 
3 7588 7905 3119 
3 4241 10778 10649 
3 10217 10313 9666 
3 2492 8067 7527 
3 4515 9681 3105 
3 3958 10177 9596 
3 4630 9932 4632 
3 10256 10257 6597 
3 6725 9297 1540 
3 7973 9911 2051 
3 4692 10054 4694 
3 6401 8298 8154 
3 7123 10909 10790 
3 7260 8529 7802 
3 9317 9654 2230 
3 5863 10018 7632 
3 7550 9966 8880 
3 453 9078 57 
3 3400 10665 7925 
3 5953 7564 7411 
3 7440 8210 4076 
3 7323 9031 4135 
3 9531 9680 5778 
3 6499 9194 6500 
3 479 8687 26 
3 9009 10003 3090 
3 3960 10335 4720 
3 10082 10449 5775 
3 6609 10680 9166 
3 9780 10189 8209 
3 4895 10405 7765 
3 10017 10556 5841 
3 613 9526 1438 
3 8343 8611 1784 
3 7974 8849 1896 
3 3600 10481 10260 
3 3739 9455 7539 
3 7126 7209 6414 
3 6604 10802 6541 
3 98 8195 97 
3 661 9516 658 
3 3807 7721 3261 
3 4766 9656 4188 
3 5097 8371 5098 
3 5469 9401 7282 
3 6205 10820 5661 
3 7951 7956 7955 
3 108 9337 107 
3 907 8558 3408 
3 2838 8142 2840 
3 7998 9662 9356 
3 1055 10305 1230 
3 2339 7624 2447 
3 7089 8925 2378 
3 4780 7697 5254 
3 9520 9883 5404 
3 6123 7490 6125 
3 7574 8104 6357 
3 7885 9763 9465 
3 56 9078 522 
3 1283 7972 1215 
3 6394 8363 5668 
3 5741 7412 5743 
3 8260 8261 8259 
3 1169 8605 1187 
3 5908 8215 5911 
3 7697 7698 6825 
3 8801 10140 10121 
3 2274 9318 2276 
3 4950 7512 4949 
3 6427 8043 4959 
3 5126 8308 5066 
3 5887 11024 5888 
3 10001 10335 5976 
3 2210 8126 2205 
3 2411 9975 8589 
3 3309 10436 6338 
3 11052 11090 3625 
3 4943 10975 7195 
3 6364 9644 8020 
3 7841 9547 9300 
3 4226 8875 3484 
3 6493 7822 6497 
3 7314 9622 9384 
3 7903 8899 8432 
3 1983 9016 1981 
3 7883 9429 2730 
3 3174 9301 4002 
3 3689 9507 8363 
3 5831 10204 6578 
3 5910 8215 5908 
3 9616 10795 6044 
3 6105 8874 6107 
3 8195 8196 470 
3 2767 9562 3758 
3 5404 9883 4142 
3 10255 10391 7268 
3 2041 8760 1852 
3 5824 7536 5826 
3 6458 8423 8008 
3 5361 7616 5362 
3 5864 10805 9966 
3 6444 9514 9007 
3 514 8791 8754 
3 1458 8471 1503 
3 3698 9255 2270 
3 3440 7872 2640 
3 3293 7603 3933 
3 3608 9748 3419 
3 4367 7361 3622 
3 3660 7933 3659 
3 3998 8192 5458 
3 4141 10000 6741 
3 5561 7936 5004 
3 7345 8549 5459 
3 6167 11071 9988 
3 9186 9830 7024 
3 237 8642 501 
3 7200 10789 1101 
3 1253 8462 1255 
3 1586 8014 1502 
3 3874 7209 4800 
3 4795 8216 5251 
3 7615 10105 5290 
3 8019 8994 8018 
3 1662 10346 7605 
3 9048 10577 3548 
3 7264 8370 4455 
3 5875 10349 5789 
3 8997 9476 8996 
3 1340 8671 1342 
3 1411 8235 3524 
3 3678 7771 3957 
3 3722 10501 9951 
3 3775 8597 8069 
3 8109 8742 3995 
3 6089 9682 4214 
3 5772 8379 7706 
3 9373 9665 6130 
3 9122 9367 6448 
3 9214 9797 6685 
3 9046 9764 8152 
3 7804 7805 1198 
3 2240 8051 2237 
3 2241 7823 2239 
3 6487 9240 4448 
3 4609 7231 4611 
3 4853 8908 8521 
3 1001 10427 10267 
3 7778 10858 2064 
3 7270 9977 2221 
3 2329 8164 2403 
3 4384 8257 2401 
3 5726 9776 9769 
3 1955 8044 1845 
3 2113 7820 2157 
3 2270 9255 2272 
3 9255 9257 2382 
3 6414 9891 4193 
3 4283 7819 5229 
3 4306 7849 4360 
3 7609 10453 4568 
3 4929 10611 7301 
3 5383 8408 5381 
3 10393 10825 5882 
3 9610 10321 10022 
3 5804 9440 3741 
3 4598 7770 5899 
3 4787 8508 4657 
3 5837 10393 5882 
3 7552 7553 6830 
3 3798 7887 2849 
3 4053 8092 1561 
3 1855 8094 1885 
3 2011 7859 1904 
3 2034 9756 2321 
3 2421 9744 2354 
3 3736 7907 3740 
3 4641 10480 4639 
3 7790 7791 4700 
3 10968 10992 5509 
3 10075 10371 5939 
3 7656 7658 7657 
3 8814 8818 3501 
3 4518 8813 7933 
3 5267 9059 4645 
3 7878 10853 7877 
3 1534 7870 1532 
3 2189 9601 2187 
3 2414 9862 8651 
3 6932 8407 5317 
3 5368 11217 6097 
3 5668 8363 5666 
3 7325 7327 7326 
3 7687 7694 7689 
3 1806 8947 7565 
3 2240 8850 8051 
3 7708 7907 2375 
3 3192 8322 3190 
3 3335 9740 3334 
3 10835 10863 3603 
3 5180 9430 3833 
3 3860 10111 4290 
3 4229 8033 4924 
3 5411 8128 6391 
3 5584 9154 9153 
3 7375 7376 7373 
3 8194 10123 9559 
3 825 10881 7789 
3 7344 10124 1230 
3 1397 9807 8501 
3 1407 8133 3089 
3 2002 9067 9006 
3 2530 9146 2389 
3 2550 7883 2730 
3 2665 8290 8287 
3 3289 8090 4194 
3 3336 8840 4270 
3 3341 8104 3345 
3 3711 9508 3713 
3 4177 8420 4174 
3 4577 7378 5307 
3 5459 8549 4595 
3 7512 7513 4949 
3 7834 10478 5783 
3 9089 9647 974 
3 5933 9371 1490 
3 2028 9490 2030 
3 2171 10218 10053 
3 2403 8164 3333 
3 4023 8075 3586 
3 4023 9540 8076 
3 5377 7990 6961 
3 5492 8536 6399 
3 6561 9948 9647 
3 7346 7348 7347 
3 1352 9253 1297 
3 7838 9432 5276 
3 5521 9465 7597 
3 5789 10349 10011 
3 8593 10543 5956 
3 6371 11024 10792 
3 7765 10488 10309 
3 8511 8513 8512 
3 889 8086 891 
3 8890 9361 1602 
3 2181 7899 2935 
3 3485 7982 5836 
3 4084 9439 8548 
3 4342 10423 4399 
3 5493 9583 5502 
3 5501 10390 10333 
3 5601 9581 9443 
3 7861 10563 5874 
3 8910 10150 6511 
3 7123 10790 7122 
3 7173 7976 7176 
3 7556 9411 8150 
3 11418 11443 7669 
3 7741 7861 7860 
3 8451 9275 7748 
3 8146 9456 9438 
3 8908 9838 8521 
3 1576 9480 5467 
3 2081 7741 2387 
3 3274 9998 2990 
3 4898 8065 3495 
3 3627 10267 7277 
3 4536 10400 7351 
3 7004 10771 6603 
3 7760 9755 7763 
3 8289 8507 2665 
3 4736 11300 8637 
3 5869 8207 4984 
3 5402 9095 7228 
3 7774 7775 5583 
3 7116 10743 10591 
3 9290 10500 7410 
3 7653 7679 7673 
3 7746 9965 7747 
3 8158 9211 8157 
3 8436 9718 8439 
3 9212 10654 1020 
3 1032 9780 8209 
3 1113 7704 1198 
3 9224 9608 1303 
3 1829 8865 1867 
3 7749 8965 1972 
3 2184 7742 2385 
3 2505 7550 2503 
3 4281 9033 3851 
3 3887 7560 3886 
3 4884 7501 3981 
3 10252 10289 4114 
3 4414 7524 7051 
3 6458 8008 4551 
3 8521 8522 4853 
3 5525 10348 7045 
3 5564 7992 7991 
3 7541 7542 5680 
3 7519 9865 5756 
3 9306 9958 5771 
3 10799 10813 7267 
3 7732 10753 9853 
3 10277 10646 7975 
3 10365 10650 10061 
3 10061 10778 10365 
3 1307 10647 10601 
3 3080 9376 7683 
3 3805 8168 6688 
3 4702 8550 4089 
3 7636 7637 4246 
3 8107 9970 4426 
3 4662 8136 4664 
3 5715 8529 7260 
3 6391 7577 7381 
3 6445 8319 7971 
3 9627 10471 8999 
3 1049 8957 1040 
3 3419 9748 1208 
3 1381 7980 1405 
3 1590 9663 1592 
3 1625 8250 1677 
3 2167 8017 2103 
3 2225 8347 3560 
3 2296 7760 2298 
3 9611 10106 2322 
3 7737 9562 2543 
3 7904 8238 2916 
3 4536 9973 3046 
3 3116 9981 3050 
3 8221 9498 3052 
3 8590 9500 3092 
3 3105 9681 3093 
3 3325 9532 3096 
3 3693 10469 3098 
3 3119 7905 3121 
3 3158 9564 4578 
3 3237 8403 3235 
3 3288 8238 4377 
3 10201 10766 3339 
3 3349 7594 7593 
3 3510 9353 3508 
3 3649 8485 3676 
3 3654 8024 4471 
3 3844 9976 4743 
3 3873 8616 8488 
3 4305 8366 3880 
3 4880 9766 3989 
3 4920 8272 3996 
3 4302 7875 5238 
3 4360 7849 5742 
3 8175 8182 4397 
3 4497 7626 5644 
3 5270 7472 4638 
3 4647 9628 5267 
3 4668 10135 5207 
3 4724 9125 9124 
3 7475 7833 4759 
3 4801 10815 7010 
3 5221 9771 4810 
3 4827 11063 7854 
3 4835 8144 7850 
3 4897 10146 7549 
3 4933 8742 5428 
3 4947 10142 8052 
3 7687 7689 5013 
3 8041 8042 5260 
3 7719 7795 5261 
3 5394 7390 6758 
3 6309 7233 5396 
3 5477 7812 7811 
3 5645 10367 10304 
3 5701 10965 10964 
3 5919 10081 6269 
3 5928 10336 8673 
3 6376 10586 6016 
3 9789 10090 6369 
3 10658 10785 6426 
3 9006 9067 6444 
3 9768 10215 6590 
3 6593 10871 6594 
3 10369 10590 6774 
3 6942 7493 6941 
3 7164 8134 7165 
3 7344 10305 7345 
3 7454 10709 7465 
3 7466 10334 9772 
3 7467 9772 8112 
3 7521 8876 7520 
3 9821 10406 7624 
3 7915 10819 7913 
3 7923 10738 7922 
3 8022 9313 8023 
3 9481 9939 8023 
3 10479 10510 8130 
3 9018 9482 8148 
3 8613 10350 10242 
3 9697 10109 9397 
3 4188 9656 3856 
3 6986 10733 4971 
3 9572 10069 655 
3 6184 7842 1665 
3 4625 7928 4623 
3 5779 9646 8151 
3 6348 8713 7143 
3 7374 9434 9121 
3 8271 10264 8270 
3 8711 10362 10074 
3 9342 10416 10294 
3 3599 8955 619 
3 1019 8558 907 
3 1799 9310 1797 
3 1819 8865 1829 
3 7556 8150 4401 
3 7211 7212 4914 
3 5499 7832 7831 
3 5535 8817 6540 
3 651 8198 4203 
3 4467 8118 2651 
3 3430 10066 8476 
3 3609 7962 3610 
3 5726 9769 4512 
3 9117 9238 4541 
3 7155 7156 5437 
3 7948 9477 5503 
3 6469 9942 6470 
3 9007 9514 6517 
3 6589 10240 10068 
3 7466 9772 7467 
3 7618 10070 7619 
3 994 10184 7402 
3 1238 8406 1236 
3 3377 8299 2704 
3 3033 9701 3035 
3 6384 8071 7272 
3 6611 9674 8426 
3 7661 7686 7659 
3 1413 8012 1373 
3 2154 9606 6655 
3 3639 9828 2300 
3 7825 7883 2551 
3 2944 8374 7569 
3 3087 10156 9484 
3 3249 7713 4462 
3 6409 7926 4368 
3 4568 10453 9819 
3 5149 11215 11203 
3 6489 9035 8836 
3 9695 10913 10849 
3 10651 10900 3106 
3 4878 8813 4561 
3 8612 8633 7599 
3 8270 10264 9903 
3 2156 7708 2375 
3 2375 7907 3736 
3 7394 7400 4282 
3 5676 8120 5728 
3 7902 8900 8899 
3 8434 9718 8436 
3 3658 9533 3661 
3 7933 7934 3659 
3 3772 7346 4344 
3 5319 7353 6377 
3 6768 10004 5843 
3 6890 7276 6271 
3 10912 11066 7084 
3 2494 8067 2492 
3 3029 7481 3031 
3 4939 8231 3852 
3 5526 8910 8909 
3 8897 8965 6438 
3 7734 7735 7348 
3 2503 8880 2211 
3 2230 9654 8348 
3 4189 7873 3858 
3 4161 9569 4820 
3 4239 8218 4896 
3 5306 9637 6479 
3 7559 10344 7908 
3 8234 8399 8398 
3 3692 9601 2189 
3 7346 7347 4344 
3 4626 9855 4628 
3 6350 10907 7940 
3 6636 11025 10928 
3 7934 8025 8024 
3 9643 9702 8850 
3 2830 8591 4076 
3 4474 8641 2877 
3 7301 10611 5747 
3 9636 11288 11243 
3 1185 7492 1195 
3 4602 8119 5989 
3 6809 8876 6810 
3 5477 7811 1958 
3 7454 7465 2021 
3 3363 8805 2256 
3 2389 9146 4006 
3 2603 9236 2760 
3 9926 10078 2784 
3 3366 8045 8044 
3 7184 10235 5889 
3 6316 10473 6314 
3 8237 9046 8997 
3 8514 10385 8515 
3 4029 8317 909 
3 1747 9543 1764 
3 2405 10021 2423 
3 7961 10797 3590 
3 11071 11239 6580 
3 1405 7980 1425 
3 1561 8092 1488 
3 10483 10691 2314 
3 3161 10174 7801 
3 3222 8707 3771 
3 3508 9353 3525 
3 9502 9507 3689 
3 4058 7687 5013 
3 5051 8119 4602 
3 4842 9919 4840 
3 5502 9583 8268 
3 8246 8352 8245 
3 8895 8936 1972 
3 2656 7488 5660 
3 3563 8278 2940 
3 7472 10212 4633 
3 6549 8655 6550 
3 6645 10921 10774 
3 6731 10985 6733 
3 8306 9181 8563 
3 8522 10049 9592 
3 8966 9285 9032 
3 8044 10370 2116 
3 3263 7721 3961 
3 4144 10032 4750 
3 1164 8132 1165 
3 8250 8251 1677 
3 1881 8251 1911 
3 2158 9744 7708 
3 2196 8347 2225 
3 3145 9960 3144 
3 3828 7866 4396 
3 3899 7830 4288 
3 4007 10498 10477 
3 4173 8420 7552 
3 7706 7872 5772 
3 7085 8713 6348 
3 6357 7930 7574 
3 6467 8303 6468 
3 8850 9702 8051 
3 8963 9774 9271 
3 2551 7883 2550 
3 8170 9174 2604 
3 5417 10109 9697 
3 7111 10609 7047 
3 10569 10730 7562 
3 7632 9757 9756 
3 1142 9107 1148 
3 3591 9252 1331 
3 1904 7859 2007 
3 3368 8760 2041 
3 2592 9847 7982 
3 3273 7821 3275 
3 4183 9095 5402 
3 5317 8407 5318 
3 611 9526 613 
3 619 8955 621 
3 1791 8650 1789 
3 7971 8319 1822 
3 4431 9827 2201 
3 7949 7955 2410 
3 2623 9715 2433 
3 7753 10071 4408 
3 5598 9703 4923 
3 7561 7562 5598 
3 5862 10397 7013 
3 5925 10358 8585 
3 6539 10545 10234 
3 1181 9223 5709 
3 6054 10977 1204 
3 5123 8491 6094 
3 1255 8462 1289 
3 1463 8241 1432 
3 1687 7118 7117 
3 2027 7733 2322 
3 2401 8257 2402 
3 2729 9015 3037 
3 3634 9680 9531 
3 5480 8063 4548 
3 5053 7415 5871 
3 7806 7807 5215 
3 5369 8620 8619 
3 7755 8840 5476 
3 9895 10117 5962 
3 8344 9499 6436 
3 6531 9796 6532 
3 7690 10196 7964 
3 3007 8454 1853 
3 5536 10254 4429 
3 5338 7943 7087 
3 5597 7561 5598 
3 798 10183 796 
3 4499 9489 1013 
3 2430 9984 7563 
3 3926 10425 3343 
3 4132 9997 3845 
3 6433 8109 8089 
3 479 8688 8687 
3 3702 8650 1791 
3 2208 8880 4404 
3 3354 8403 3237 
3 5405 7720 7160 
3 9966 10180 5864 
3 2508 10359 1969 
3 2022 8531 7843 
3 4397 8182 2045 
3 2136 8512 8473 
3 3606 7241 3607 
3 3656 8024 3654 
3 3659 8024 3656 
3 5506 10406 7751 
3 7843 9378 6526 
3 7654 7993 7656 
3 7951 7955 7949 
3 1254 9452 1252 
3 1672 9316 7884 
3 3545 9802 8325 
3 8800 9851 5846 
3 7855 11331 11295 
3 11290 11318 8843 
3 11149 11171 4885 
3 9168 9169 6465 
3 10194 10517 7709 
3 1342 9209 1347 
3 8028 8029 8027 
3 2499 10078 9822 
3 7592 7754 2525 
3 2929 7825 2553 
3 9575 9953 3555 
3 4897 7549 3983 
3 11224 11273 4134 
3 5740 8366 4305 
3 5014 7534 4458 
3 7718 7719 5261 
3 7626 9150 5644 
3 7610 10453 7609 
3 1081 8583 1585 
3 1085 8249 3521 
3 5549 8772 6488 
3 7548 7552 6260 
3 6756 8116 8115 
3 7625 10270 8308 
3 8600 10813 10799 
3 2374 9847 2592 
3 2519 8739 2681 
3 2942 7982 3485 
3 3645 9490 7631 
3 9830 10832 4851 
3 5480 7839 7788 
3 798 10947 10911 
3 2252 8349 2254 
3 2382 9318 2274 
3 7821 9095 3275 
3 10228 10529 3413 
3 3648 8485 3649 
3 8102 8103 5077 
3 10357 10472 6005 
3 7568 11219 7840 
3 4425 8645 8504 
3 7174 10679 7979 
3 1782 7944 1824 
3 2846 8591 2830 
3 2889 8100 3253 
3 7479 7481 3029 
3 3520 10841 10702 
3 4145 9147 3620 
3 6997 10971 6041 
3 6427 10262 8718 
3 7502 8238 7904 
3 4473 8297 1002 
3 4613 9195 3104 
3 8300 8566 3461 
3 7396 7965 4661 
3 4684 7833 4686 
3 4703 9132 4704 
3 5140 7726 6066 
3 8479 10159 8478 
3 9657 9658 2890 
3 7982 7983 5836 
3 6446 10460 9713 
3 7976 7977 7176 
3 7832 9581 7831 
3 1362 8884 623 
3 663 8819 5600 
3 3612 8950 1808 
3 1830 9298 1820 
3 3631 9743 2087 
3 3618 9925 2696 
3 3304 8968 3155 
3 5437 9740 4406 
3 4468 8147 5677 
3 5937 10421 9536 
3 6379 8009 8008 
3 6436 8633 8612 
3 6558 10354 7566 
3 1235 9485 1237 
3 1574 8244 4210 
3 1618 8351 1886 
3 1913 10075 2672 
3 1941 8054 2017 
3 2014 9956 2169 
3 2017 8833 2019 
3 2045 8182 2369 
3 2256 8805 2258 
3 2265 8276 2263 
3 3561 10450 9357 
3 3663 7933 3660 
3 3985 7984 4956 
3 4275 9789 6369 
3 7926 8505 4374 
3 6374 9766 4880 
3 5045 7969 5044 
3 5460 9067 5462 
3 7788 8063 5480 
3 5486 8266 5497 
3 5543 10152 7847 
3 6379 8010 8009 
3 6422 8695 7684 
3 7285 7604 7287 
3 8023 9313 8387 
3 8289 9603 8507 
3 1179 9251 1183 
3 8537 9522 8536 
3 1595 10557 10236 
3 3631 10714 10434 
3 10222 10725 3730 
3 5494 8536 5492 
3 8113 8114 6673 
3 7230 10556 10017 
3 7339 7342 7341 
3 3934 7285 3937 
3 5640 7501 4884 
3 4959 8145 6460 
3 6326 6608 5034 
3 7651 9459 7649 
3 9370 10663 7785 
3 7777 10594 1567 
3 10887 10990 3799 
3 5609 7997 4421 
3 4556 9717 4555 
3 5260 8042 4685 
3 7625 8308 6031 
3 8401 8402 8400 
3 848 8386 846 
3 1023 8889 3350 
3 5710 8864 1827 
3 2704 8299 2507 
3 2905 7585 2903 
3 3829 9660 4911 
3 4545 8063 3970 
3 5564 10571 7992 
3 8449 10607 10548 
3 909 8317 1026 
3 1210 8878 1052 
3 1797 9310 1826 
3 2150 7949 2410 
3 4073 9586 2325 
3 3184 10386 3122 
3 4849 7510 5759 
3 7513 8218 4949 
3 5300 8429 5298 
3 9468 10731 5321 
3 5428 9677 5525 
3 5844 10105 7615 
3 9941 10521 5847 
3 10130 10860 6054 
3 8380 8423 6458 
3 7998 10013 8527 
3 1382 7972 1283 
3 2298 7844 2294 
3 7734 8477 2691 
3 3455 10585 10582 
3 5337 6010 4721 
3 7043 7044 5429 
3 5705 9431 8091 
3 8498 8655 6549 
3 7345 10305 9806 
3 9806 10885 7345 
3 623 8884 625 
3 1166 10340 1163 
3 1496 8525 1231 
3 1233 8066 1364 
3 1288 10636 10511 
3 1397 8501 1499 
3 7273 10020 1421 
3 1424 8666 5080 
3 1467 8337 3388 
3 7772 11003 1696 
3 1786 8611 2501 
3 1886 8351 2473 
3 2003 9003 4998 
3 2304 8225 2307 
3 2314 10691 10544 
3 2380 7737 2543 
3 2602 8170 2604 
3 2691 8477 2689 
3 4122 9876 3027 
3 9960 10161 3144 
3 3148 9960 3145 
3 3390 9397 5806 
3 3509 8365 3511 
3 3642 10540 10536 
3 3786 7866 3828 
3 4066 10181 3864 
3 7629 7630 4837 
3 7867 8229 4998 
3 5004 7936 5047 
3 5102 8710 5075 
3 5109 8159 5777 
3 5399 9174 8181 
3 5426 8740 7393 
3 5561 8651 7936 
3 7862 8652 5670 
3 8769 9773 5738 
3 5830 9263 9262 
3 7494 7498 6160 
3 7067 9571 6407 
3 6428 9498 6429 
3 7986 8361 6463 
3 8842 9650 6471 
3 6483 10065 6482 
3 6495 7822 6493 
3 6496 10240 6589 
3 7313 7314 7312 
3 7533 9874 8377 
3 8179 10282 8178 
3 9443 9581 8278 
3 8626 9831 8631 
3 9058 10579 10461 
3 9261 9885 9262 
3 1036 9550 9470 
3 9053 9999 3930 
3 4996 9874 9342 
3 5367 9738 7218 
3 10757 10967 6586 
3 9415 9557 8918 
3 4411 8886 876 
3 2207 9863 2209 
3 5484 8266 5486 
3 7861 10655 10563 
3 1772 9485 1235 
3 1713 10115 10074 
3 1748 10273 3460 
3 3017 9417 3986 
3 4401 9456 7556 
3 4841 8273 5293 
3 5506 10215 9768 
3 7775 8193 5583 
3 9501 10081 5919 
3 6534 9760 6517 
3 7364 10422 8285 
3 7987 9759 7989 
3 10579 10612 8177 
3 8268 10317 9348 
3 846 9317 844 
3 1039 8125 5527 
3 1499 8501 3564 
3 3032 10401 3030 
3 3533 9927 4252 
3 6536 7390 5394 
3 6861 7528 6245 
3 6362 7503 7155 
3 7987 8361 7986 
3 8175 9864 8182 
3 1075 9669 8921 
3 1495 8814 3501 
3 4463 8961 1552 
3 10127 10377 1629 
3 2495 7586 4385 
3 7074 10996 3303 
3 4032 8875 8773 
3 4325 7524 4328 
3 8157 9211 4481 
3 5921 10113 8318 
3 6550 8569 8568 
3 7181 10925 8325 
3 7658 9424 7660 
3 9338 9482 1695 
3 1932 8002 1939 
3 4341 7495 3291 
3 3620 9147 3618 
3 4022 9389 9231 
3 4256 7587 5171 
3 4444 10420 9135 
3 5408 7249 5407 
3 9349 9604 6688 
3 6921 7088 6857 
3 7836 7837 7835 
3 9315 10019 8014 
3 8148 9482 9338 
3 8631 9364 9180 
3 1079 8583 1081 
3 2553 7825 2551 
3 7732 9853 3334 
3 3812 7790 4700 
3 5989 5990 4119 
3 4014 8302 8301 
3 9837 9965 4338 
3 7653 7673 7651 
3 26 8687 25 
3 1811 8950 7971 
3 4959 6460 2241 
3 2490 7527 2624 
3 2775 8154 2532 
3 5235 6414 4193 
3 6594 7210 5408 
3 9385 9852 5541 
3 5643 8593 5956 
3 5752 7581 5750 
3 2199 8001 4431 
3 3430 8476 2928 
3 3429 9638 8735 
3 5840 6404 4503 
3 4805 7629 4837 
3 5286 10760 5284 
3 5373 10150 7224 
3 6949 9121 5891 
3 6498 8853 6492 
3 8292 9605 7303 
3 10 7994 475 
3 3008 9461 7752 
3 7859 10689 3317 
3 6186 9883 9520 
3 10693 11006 9781 
3 3602 9127 1323 
3 1859 9900 5839 
3 1912 9922 9008 
3 3121 7905 3124 
3 3948 3949 3946 
3 4075 7241 6616 
3 7520 8876 4317 
3 4679 7714 4677 
3 6308 6309 5396 
3 5554 8499 8296 
3 6440 8127 7237 
3 9538 10380 9539 
3 10002 10687 10138 
3 3561 10558 1157 
3 8526 9731 2395 
3 8563 9181 2395 
3 2780 8084 2589 
3 2975 9788 8428 
3 3364 10307 3013 
3 3115 9959 3131 
3 3248 9848 4106 
3 4355 9512 5173 
3 8801 9834 4942 
3 5273 7367 6761 
3 5875 9996 7144 
3 6433 9677 8742 
3 1052 8878 4403 
3 1078 9395 3588 
3 1083 8249 1085 
3 1696 10884 7772 
3 2013 8189 2115 
3 8558 8559 3408 
3 5246 7830 6824 
3 8052 9634 5621 
3 5860 5862 5861 
3 6020 9736 6547 
3 7158 10753 7732 
3 8286 8287 7518 
3 7749 8936 7750 
3 8452 10448 8445 
3 9278 9745 9279 
3 1168 8132 1164 
3 2978 7543 2816 
3 5283 5284 5281 
3 8060 9374 9242 
3 9242 9467 8060 
3 4539 9516 661 
3 8602 9068 1393 
3 2100 8903 8189 
3 2295 9021 2297 
3 2432 10342 10269 
3 2707 9379 8020 
3 3662 7818 3665 
3 4446 10059 4063 
3 4809 7008 4298 
3 4368 7926 4370 
3 5265 7243 7242 
3 5430 8378 7380 
3 10180 10456 5864 
3 6673 9849 8113 
3 7404 9043 9015 
3 9657 9659 9658 
3 5600 9473 665 
3 870 8328 4411 
3 2681 8739 5153 
3 3139 9701 7603 
3 4265 10661 3250 
3 3615 10237 4059 
3 3729 7924 7923 
3 7223 10355 5835 
3 8639 9396 6485 
3 6528 10107 8769 
3 7006 10960 6579 
3 7997 8527 3316 
3 8266 8267 5497 
3 209 7898 208 
3 8540 10316 709 
3 1361 9288 9287 
3 7403 9016 1983 
3 3170 3171 2608 
3 10677 10823 2822 
3 5472 7942 3282 
3 3305 9644 3849 
3 3892 9537 4310 
3 3914 10103 3912 
3 6576 9488 4588 
3 6470 6471 4979 
3 11371 11372 6190 
3 7283 10806 7284 
3 1282 8958 8311 
3 2144 9648 5519 
3 3981 7501 3980 
3 10774 10921 4411 
3 3462 9814 1125 
3 7979 10679 1761 
3 6436 9499 6435 
3 10616 10660 9188 
3 1190 10238 1197 
3 3536 9145 2278 
3 7955 8474 2410 
3 7379 9584 2624 
3 3833 9430 3831 
3 3951 4784 3953 
3 7958 8003 4017 
3 4565 9567 6551 
3 5758 7855 4816 
3 8931 8935 8896 
3 8896 8975 8931 
3 1027 8374 910 
3 1812 9426 1810 
3 2897 8966 2719 
3 7752 10321 3008 
3 3323 9991 8088 
3 3391 7725 4025 
3 5512 10116 7909 
3 9910 10091 5578 
3 10101 10274 6557 
3 7951 7957 7956 
3 7550 8880 2503 
3 2940 8278 2664 
3 3880 8366 3696 
3 4970 8633 6436 
3 6453 8375 6452 
3 7389 10420 7387 
3 7504 10400 9668 
3 9376 10012 7683 
3 8641 10527 8640 
3 99 568 98 
3 898 8514 1387 
3 8406 8878 1236 
3 3215 7847 3038 
3 3048 9981 4536 
3 7632 9756 3645 
3 4170 7866 3786 
3 3852 8231 4282 
3 4792 6781 6765 
3 4961 5409 4962 
3 5021 8286 5022 
3 8100 8101 5077 
3 5250 6402 5078 
3 5750 7581 6756 
3 6908 6909 6309 
3 7609 10783 6341 
3 7435 7437 7436 
3 7658 7660 7659 
3 8489 10368 8490 
3 9825 10694 10516 
3 1323 9127 1321 
3 7941 10180 3216 
3 4419 9457 5439 
3 8024 8025 4471 
3 5873 9727 5065 
3 7972 10012 9376 
3 10794 10816 8595 
3 1032 8209 1025 
3 1067 8606 1065 
3 6724 6725 1540 
3 1892 1906 1891 
3 1891 9530 8922 
3 3597 9975 2573 
3 3228 3229 2805 
3 3071 8765 5645 
3 3190 8322 4001 
3 3368 10158 8760 
3 8068 9785 3628 
3 4704 9132 4713 
3 6471 9650 4979 
3 5634 8206 8205 
3 7049 9205 6378 
3 6438 8965 7749 
3 8631 9180 8627 
3 2765 7600 2716 
3 7603 9156 7604 
3 8006 8269 8266 
3 1054 8845 1090 
3 1279 7947 1306 
3 1373 8012 1372 
3 4408 10071 1401 
3 7991 7992 1837 
3 1910 1988 1909 
3 2651 8118 2126 
3 2236 8051 4976 
3 2930 9502 2993 
3 2990 9998 2989 
3 4376 8505 6339 
3 5427 7819 4773 
3 5122 8491 5123 
3 5251 8216 6864 
3 5584 9413 9154 
3 5974 10375 8511 
3 6627 10824 9930 
3 1981 9016 2047 
3 2104 9820 2105 
3 2541 2819 2764 
3 2696 9925 2697 
3 3153 9761 3223 
3 10434 10782 3631 
3 5201 9775 4152 
3 6415 7304 7128 
3 6546 8544 8369 
3 8046 8740 7208 
3 1245 8053 1247 
3 1419 9386 1445 
3 3414 8237 1553 
3 3873 5473 5472 
3 5047 6563 5058 
3 7044 7207 5429 
3 5649 9047 9036 
3 9036 9070 5649 
3 5687 10096 9013 
3 5766 5852 5851 
3 5824 5825 5823 
3 6430 9887 9633 
3 8145 8146 6460 
3 9683 10561 8738 
3 1371 9216 5596 
3 1485 8816 1487 
3 1813 7971 1822 
3 2539 10812 9899 
3 2992 8527 2955 
3 3096 9532 3083 
3 3292 9891 3138 
3 5269 5270 4638 
3 5265 7242 4653 
3 4759 7833 4684 
3 5259 8037 4689 
3 7308 7941 5562 
3 6350 7940 7495 
3 7028 7030 7029 
3 9592 10049 7360 
3 9582 10371 8250 
3 2198 9298 1830 
3 2322 9490 2028 
3 2109 2112 2111 
3 4552 7223 4554 
3 5456 7251 5457 
3 6858 6921 6857 
3 7118 10808 7205 
3 7171 8085 7174 
3 1102 9303 1104 
3 1229 9308 1273 
3 2112 7820 2113 
3 2851 2853 2852 
3 3650 9108 3647 
3 3733 3890 3734 
3 4143 5164 4916 
3 4565 6551 4761 
3 5253 8216 4795 
3 8159 8160 5777 
3 6107 7362 6153 
3 7287 7297 7296 
3 8720 8953 8719 
3 2285 7886 2284 
3 3433 8320 2509 
3 4010 8302 2796 
3 7799 10401 3113 
3 4778 5235 4193 
3 8008 8009 4551 
3 4994 7774 5583 
3 5264 7397 7396 
3 6954 8528 5314 
3 9567 10351 6551 
3 2113 2157 2156 
3 3511 8365 4231 
3 3582 9540 3584 
3 4818 4819 4395 
3 5138 6630 6629 
3 6111 11057 6646 
3 7794 10855 7792 
3 1016 8316 8315 
3 8587 9420 1316 
3 1440 8242 6670 
3 1738 8863 5646 
3 6187 8324 6188 
3 2064 10858 7733 
3 2525 7754 2338 
3 2413 7872 7706 
3 2684 9280 9025 
3 3161 8908 3160 
3 3160 8908 3434 
3 3244 9496 8359 
3 4169 9963 3306 
3 3357 9436 7744 
3 3604 7636 4246 
3 3935 10904 10627 
3 6121 7392 4053 
3 4779 5078 4341 
3 4608 7787 6595 
3 4682 4759 4684 
3 7791 7792 4700 
3 6320 7784 4833 
3 4892 7199 6183 
3 5913 7869 5012 
3 5134 6075 5133 
3 5218 10054 6243 
3 5285 5286 5284 
3 5355 8117 6441 
3 5521 7597 7595 
3 5530 6285 6284 
3 8236 8817 5535 
3 5749 5751 5750 
3 6876 7048 6288 
3 6373 6375 6374 
3 6378 9205 6379 
3 7337 9968 7336 
3 7916 7917 7915 
3 8448 10273 8449 
3 1947 8695 1003 
3 1346 8662 8077 
3 8077 9408 1346 
3 1481 9857 1451 
3 3091 10603 8697 
3 4239 4503 3792 
3 3796 3813 3812 
3 3813 3815 3814 
3 4288 5246 4817 
3 5535 8816 8236 
3 6479 8499 5552 
3 9343 9344 5722 
3 5826 7536 6762 
3 8817 9529 6540 
3 11120 11129 6671 
3 10426 10663 7057 
3 10970 11107 7663 
3 8207 10328 8208 
3 638 8643 3754 
3 1275 8995 1344 
3 1667 1668 1666 
3 1777 8342 1779 
3 4938 9372 2093 
3 2101 10053 2100 
3 2182 7742 2184 
3 2393 8661 8660 
3 2913 7904 2916 
3 3072 8839 4028 
3 3430 9275 8451 
3 3715 9230 3712 
3 4172 4173 3882 
3 4208 7723 4864 
3 5186 5187 4277 
3 4422 6420 5304 
3 6600 7149 5330 
3 9632 9704 5461 
3 5678 8500 7571 
3 8231 10141 7682 
3 4423 8603 857 
3 1009 1014 1008 
3 1316 9420 1318 
3 5702 8946 1339 
3 2237 8051 2236 
3 10021 10137 2423 
3 2733 9301 3174 
3 5476 8840 3195 
3 4392 4394 4393 
3 8303 8654 4458 
3 6656 6658 4563 
3 4695 9790 5258 
3 4820 9569 5853 
3 6296 6297 5300 
3 7119 8128 5412 
3 9153 9412 5584 
3 5833 10331 8559 
3 5857 7515 7215 
3 6153 7362 7082 
3 8663 10271 6557 
3 7664 7671 7661 
3 522 9078 9077 
3 1202 8555 5544 
3 1617 10208 9553 
3 1677 1881 1880 
3 2414 9751 2129 
3 3409 9377 3040 
3 3075 9041 3077 
3 3198 9864 8172 
3 3345 4879 3989 
3 3882 7548 3881 
3 4764 6130 4140 
3 4256 5171 4255 
3 4789 5224 4311 
3 4666 10135 4668 
3 4670 7505 4672 
3 6719 6720 5187 
3 5380 9413 5584 
3 5401 8223 5389 
3 6400 8696 5491 
3 8348 9063 5560 
3 6171 7374 7372 
3 6432 7883 7825 
3 7981 9889 6528 
3 8468 8470 8469 
3 822 823 821 
3 824 825 823 
3 925 10169 3463 
3 2144 5519 1991 
3 2105 9820 2108 
3 2425 7482 2161 
3 3565 9643 2941 
3 3123 3126 3122 
3 3127 3128 3125 
3 8006 9206 3580 
3 4032 8773 8772 
3 4163 10083 4164 
3 4495 8075 5434 
3 4778 10627 6258 
3 8091 9431 4870 
3 6065 7512 4950 
3 5180 11310 11284 
3 5318 6393 6009 
3 5381 8408 6323 
3 5434 7422 5881 
3 5519 9648 8718 
3 5532 10308 5529 
3 5745 9263 5830 
3 6175 6640 6134 
3 7655 7679 7653 
3 7660 7661 7659 
3 7660 9424 7668 
3 7693 7696 7695 
3 7982 9847 7983 
3 8828 9414 8827 
3 570 571 569 
3 1606 1626 1607 
3 4906 5272 5271 
3 7214 9800 5856 
3 6335 7370 7369 
3 7892 8843 7893 
3 109 8011 474 
3 826 8328 870 
3 876 8886 881 
3 953 954 952 
3 1182 9223 1181 
3 1810 9426 4516 
3 1855 1858 1857 
3 8189 8190 2115 
3 2148 2193 2192 
3 2568 2569 2567 
3 3402 8871 8852 
3 3467 8258 3919 
3 3486 8909 4226 
3 5464 9411 3968 
3 4086 10735 8393 
3 4863 5184 4136 
3 4494 9979 5538 
3 7212 10872 4914 
3 5985 6058 4955 
3 5022 8286 7518 
3 5246 6824 6823 
3 6833 6845 5287 
3 5382 5384 5383 
3 5462 7768 6483 
3 5470 5636 5635 
3 6756 8115 5513 
3 5604 5892 5891 
3 6103 6104 6102 
3 6511 9892 8910 
3 8091 8292 7072 
3 7224 10150 8065 
3 7983 9847 9809 
3 8655 9326 8570 
3 133 8690 488 
3 953 955 954 
3 1150 9971 1154 
3 5658 8715 1386 
3 5662 9578 1441 
3 2336 10218 2171 
3 9476 10076 2396 
3 3867 3927 3926 
3 3999 9639 9441 
3 7075 10515 4006 
3 4031 10027 9805 
3 8370 10612 4454 
3 7257 7258 5095 
3 5265 8508 7244 
3 5470 7556 5636 
3 5603 9034 8550 
3 9590 9907 5718 
3 7175 11042 10172 
3 7290 7291 7289 
3 10486 10597 7691 
3 9357 10450 7822 
3 8307 8569 771 
3 771 8956 8307 
3 842 9492 840 
3 904 3636 1022 
3 911 8557 3471 
3 972 9160 8517 
3 9152 9154 972 
3 1565 8388 987 
3 1003 8695 998 
3 999 1005 1000 
3 1459 8484 5550 
3 1565 9841 8390 
3 1598 9361 4742 
3 1663 8424 1747 
3 1693 9815 8461 
3 1999 8294 2588 
3 2548 9250 2355 
3 2390 2531 2530 
3 2577 9869 9327 
3 2588 11051 11010 
3 2953 2954 2639 
3 2958 10429 2723 
3 2794 8055 4010 
3 2798 8302 4014 
3 2799 9724 9381 
3 4393 8966 2897 
3 3432 8928 2926 
3 2927 10174 3161 
3 3768 9273 2954 
3 3342 8222 3137 
3 3923 7997 3316 
3 3421 8841 3999 
3 3422 8937 4977 
3 3451 4003 3450 
3 8941 9380 3544 
3 3544 9535 8941 
3 3680 3682 3673 
3 3958 9596 3679 
3 4378 4736 3920 
3 3957 4598 4597 
3 4003 4982 4457 
3 4228 8975 8896 
3 4731 6661 4732 
3 4745 8922 6737 
3 4899 5713 5450 
3 4977 8935 8931 
3 6150 6151 4982 
3 6550 8568 5025 
3 5140 6066 5141 
3 5175 8047 6093 
3 5393 9183 7220 
3 7802 8529 5422 
3 5456 7401 7251 
3 7558 8097 5533 
3 5552 8499 5554 
3 5559 6951 5558 
3 5696 8638 5697 
3 5718 9907 9269 
3 5766 7146 6189 
3 5803 10846 6059 
3 5820 9653 6562 
3 7772 10884 6110 
3 6151 8636 8635 
3 6249 8220 6250 
3 6685 9797 6682 
3 8430 8451 7748 
3 7750 8937 8933 
3 8942 8954 7775 
3 9787 10655 7861 
3 8056 8060 8058 
3 8060 9467 8504 
3 8956 9181 8306 
3 8432 8899 8450 
3 8570 9326 8556 
3 8935 8936 8896 
3 1011 8000 1009 
3 1012 8316 1016 
3 1025 8209 1017 
3 1033 9550 1036 
3 1062 1063 1061 
3 1065 8606 5605 
3 1068 9735 4566 
3 1079 1081 1080 
3 1771 9395 1080 
3 1226 8958 1282 
3 1349 4413 1301 
3 1312 1313 1309 
3 1317 8960 8670 
3 1399 11256 9088 
3 1490 9371 1470 
3 3458 8484 1492 
3 1552 8961 1640 
3 4590 4591 1603 
3 1646 8186 1682 
3 1720 1763 1722 
3 1722 8427 1724 
3 1731 8645 4425 
3 1732 8862 2000 
3 1735 8863 1738 
3 1743 9093 1739 
3 1815 10433 9426 
3 2000 9388 8544 
3 2052 9911 2119 
3 2057 8646 2486 
3 2143 9957 3368 
3 2232 9543 8964 
3 2433 9715 2521 
3 2736 7846 2578 
3 2580 8901 7900 
3 2661 8247 2659 
3 2663 8166 2786 
3 3003 8967 3624 
3 3155 8968 6019 
3 4337 4398 3163 
3 3334 9853 3194 
3 3196 3336 3335 
3 9737 9850 3323 
3 3355 9745 9278 
3 3362 8600 8599 
3 3427 9311 8647 
3 9546 10014 3612 
3 3675 8953 3669 
3 3756 4114 4111 
3 4127 8503 3820 
3 3937 7300 3938 
3 4002 9301 5481 
3 7900 7901 4043 
3 4220 4460 4459 
3 5189 7544 4350 
3 4383 9278 5413 
3 4893 4894 4398 
3 5175 5675 4443 
3 4460 8709 4604 
3 4560 7871 4562 
3 4701 10890 10788 
3 6383 6384 4887 
3 4961 6406 5409 
3 9417 10152 4990 
3 5412 8128 5411 
3 5521 7595 5998 
3 7054 8771 5558 
3 7489 10189 5660 
3 5860 10589 10397 
3 5936 5947 5935 
3 5947 6040 6039 
3 6458 9649 8380 
3 6460 10147 7823 
3 10236 10557 6604 
3 7120 10051 7229 
3 7155 7157 7156 
3 7287 7288 7286 
3 10428 10717 7366 
3 7640 7641 7639 
3 7644 7645 7643 
3 8059 8954 8301 
3 8340 8862 8339 
3 7970 8386 852 
3 1036 9470 1038 
3 1038 2233 1041 
3 1089 1229 1228 
3 7972 9376 1215 
3 1273 9308 3397 
3 1296 8998 5699 
3 1320 1321 1319 
3 4130 9445 1489 
3 8657 8866 1952 
3 4500 8339 2004 
3 2915 9564 3158 
3 3111 6634 3896 
3 3263 3961 3960 
3 3572 10827 10798 
3 5688 8321 3589 
3 3650 9556 9108 
3 3766 8368 5043 
3 3991 9660 3829 
3 4171 4172 3882 
3 3946 7848 3944 
3 4663 7396 4661 
3 4664 5204 4666 
3 4691 10736 5259 
3 8101 8102 5077 
3 6179 7499 5179 
3 8140 9541 5204 
3 5523 6408 5353 
3 5688 8913 8912 
3 10121 10140 5748 
3 8710 8711 5753 
3 5857 7214 5856 
3 6098 6669 5926 
3 7068 8153 6359 
3 7524 7525 7051 
3 7339 7341 7340 
3 7840 10444 7568 
3 7642 7677 7639 
3 8938 9388 8340 
3 10864 10931 10079 
3 644 8978 642 
3 649 8198 651 
3 672 8540 709 
3 742 2652 744 
3 8386 9317 846 
3 3512 9107 1142 
3 1147 8483 1153 
3 1162 8422 1158 
3 1264 9403 1219 
3 1247 8053 1288 
3 1250 9451 3685 
3 1251 10193 4537 
3 1252 9452 9451 
3 1270 1311 1310 
3 1304 7947 1279 
3 1359 3686 1304 
3 1312 8587 1313 
3 1374 8665 3406 
3 1471 1491 1444 
3 1515 9162 1505 
3 1591 9480 1545 
3 1592 3053 1625 
3 1993 8609 1674 
3 8186 8187 1682 
3 8256 9005 1741 
3 1915 9488 1916 
3 1916 1919 1918 
3 1935 8831 1938 
3 2022 7843 2024 
3 2089 2390 2389 
3 2338 7754 2167 
3 5079 9753 2173 
3 2254 2255 2253 
3 2260 2261 2259 
3 2272 2273 2271 
3 2272 9255 2382 
3 2276 9318 3536 
3 2283 2285 2284 
3 2295 2296 2294 
3 2305 10724 9867 
3 2310 11015 9024 
3 3535 8350 2317 
3 3039 3040 2320 
3 2347 2348 2346 
3 2346 7591 2527 
3 2349 2350 2348 
3 2349 8226 2642 
3 2640 7872 2413 
3 2448 7316 2450 
3 2535 9130 2449 
3 2458 10472 10357 
3 2479 9190 2477 
3 5088 7086 2525 
3 2527 7021 7020 
3 2832 9146 2530 
3 2596 9123 2595 
3 8245 8352 2608 
3 9026 9027 2621 
3 2650 9018 8147 
3 10071 10250 2653 
3 2806 2807 2685 
3 2707 7711 2708 
3 2777 9985 2715 
3 10458 10854 2777 
3 2810 8355 3541 
3 2818 7543 3405 
3 2911 7904 2913 
3 3002 8197 4213 
3 8836 9035 3011 
3 3041 3042 3040 
3 6169 7570 3041 
3 3065 9204 3068 
3 3070 8839 3072 
3 3074 8248 3078 
3 3078 9274 9042 
3 3126 3184 3122 
3 3144 10080 3141 
3 3185 7984 3985 
3 3196 8840 3336 
3 3205 8147 4468 
3 3248 4106 3364 
3 3281 3695 3694 
3 3849 4168 3306 
3 3911 10008 3332 
3 3337 9052 4407 
3 5050 9377 3409 
3 3410 3816 3411 
3 4155 9045 3410 
3 3543 10070 7618 
3 4245 9627 3605 
3 3635 9778 9234 
3 3646 5991 3648 
3 3681 9533 3657 
3 4569 5454 3681 
3 3684 11149 4885 
3 3695 3879 3696 
3 3720 8567 3714 
3 3758 9562 4380 
3 4167 8652 3783 
3 3800 9846 9406 
3 4586 10195 3817 
3 3825 8653 4166 
3 3827 9158 8653 
3 3848 9587 5978 
3 3883 4297 3861 
3 3879 4303 3880 
3 3910 3913 3912 
3 3943 10104 3940 
3 5837 5838 3943 
3 3949 7848 3946 
3 8708 9389 4022 
3 4168 5192 4169 
3 4846 10723 4202 
3 8198 8199 4203 
3 4578 7723 4208 
3 4210 8244 5390 
3 4270 8840 7755 
3 4276 9045 5463 
3 4309 7729 4789 
3 4328 4329 4327 
3 4340 5302 5288 
3 9438 9456 4401 
3 4434 4435 4433 
3 4543 7781 7780 
3 5938 5940 4588 
3 5997 10487 4603 
3 4618 5226 4790 
3 6026 9626 4620 
3 4634 4635 4633 
3 4643 9059 5268 
3 4652 4653 4651 
3 4651 7242 5266 
3 4655 8508 5265 
3 4672 4673 4671 
3 4674 4675 4673 
3 4680 10197 7473 
3 4686 7833 5216 
3 4718 5017 5016 
3 5592 6697 4741 
3 4786 7716 7715 
3 6784 7520 4788 
3 4789 6780 6760 
3 5982 7470 4812 
3 6310 9919 4842 
3 5604 5891 4862 
3 7984 7985 4956 
3 5418 5744 4963 
3 5010 10624 5913 
3 5017 6523 6522 
3 8072 8073 5102 
3 8073 8074 5102 
3 5118 9179 9178 
3 5144 8358 6530 
3 5157 9848 6099 
3 6614 6639 5159 
3 5192 6726 5193 
3 6203 10430 5199 
3 6766 7161 5230 
3 6303 7022 5250 
3 5250 6403 6402 
3 5264 7399 7397 
3 5265 7244 7243 
3 7246 9628 5266 
3 6782 6783 5270 
3 6324 9286 5302 
3 6982 7500 5320 
3 5390 7078 6382 
3 5858 7344 5459 
3 9667 10386 5471 
3 8502 9630 5507 
3 7185 11002 5599 
3 5634 8205 5631 
3 5667 7808 7085 
3 5677 8500 5678 
3 8147 8148 5677 
3 5807 10042 5805 
3 5863 7632 7631 
3 5916 9501 5919 
3 5939 10371 7876 
3 6004 6005 5964 
3 6004 10117 10102 
3 6088 6559 6142 
3 7094 7497 6288 
3 6298 6799 6299 
3 6909 6910 6309 
3 6366 10394 6828 
3 6369 7580 7579 
3 6403 7011 7010 
3 6429 7311 7310 
3 7312 9887 6430 
3 6433 8742 8109 
3 7929 9372 6447 
3 6448 9367 8118 
3 7573 9942 6469 
3 6485 9396 6484 
3 6490 8354 8353 
3 6507 9158 6505 
3 6518 9422 9421 
3 8616 9880 6520 
3 6546 8369 8368 
3 6554 10077 10060 
3 6559 6996 6560 
3 6617 10554 10462 
3 9243 9878 6658 
3 6795 6797 6796 
3 6851 6853 6852 
3 7021 7417 7226 
3 7034 7186 7033 
3 8173 8370 7264 
3 9135 10420 7389 
3 7398 7965 7396 
3 7473 7476 7474 
3 7568 10444 7567 
3 7760 7763 7761 
3 9231 9389 7781 
3 7863 7865 7864 
3 8761 9763 7885 
3 7934 8813 8028 
3 8025 8028 8027 
3 8029 8030 8027 
3 8178 10282 9722 
3 9993 10478 8335 
3 8544 9710 9560 
3 8607 8609 8608 
3 9040 10696 10281 
3 3236 3237 3235 
3 5137 6121 4053 
3 4407 9052 5652 
3 1174 9251 1179 
3 1346 9408 8558 
3 1554 1694 1553 
3 1642 9002 1869 
3 1886 2455 1887 
3 2091 10444 1940 
3 2131 8417 2414 
3 2136 2137 2134 
3 3426 8243 2247 
3 2283 2286 2285 
3 2483 9190 2479 
3 2755 3057 3019 
3 8346 9625 3054 
3 3057 3059 3058 
3 3065 3067 3066 
3 3082 3083 3081 
3 3094 3103 3093 
3 3235 8403 4007 
3 3238 8192 3998 
3 3369 9763 8761 
3 3422 4977 3420 
3 4412 5737 3556 
3 3607 4056 3608 
3 3710 9870 3708 
3 3910 3912 3911 
3 4013 5001 5000 
3 5990 7230 4119 
3 7322 7323 4135 
3 4258 5029 5028 
3 5089 9064 4258 
3 4333 5306 5305 
3 4513 5408 5407 
3 4530 8973 4533 
3 5029 5567 5566 
3 5037 6485 6484 
3 5175 6093 5676 
3 5336 8141 5508 
3 5458 5858 5459 
3 5624 6478 5560 
3 5568 9064 5986 
3 5684 7557 6215 
3 5916 5919 5918 
3 6038 9133 9132 
3 7801 10174 6392 
3 6454 6455 6453 
3 8060 8504 8058 
3 8836 9073 8712 
3 186 9525 8781 
3 217 8310 439 
3 225 9208 490 
3 524 11253 11199 
3 2409 9300 2572 
3 3347 8142 2838 
3 2849 7887 2851 
3 3621 4144 3620 
3 4235 7935 4234 
3 4567 10783 4568 
3 6477 10129 4785 
3 6447 9372 4938 
3 6328 6329 5585 
3 7860 7861 5874 
3 6395 7139 6394 
3 7750 8936 8935 
3 8504 8645 8061 
3 3520 8978 644 
3 902 8514 898 
3 1505 9162 1504 
3 5731 8535 1719 
3 1720 1722 1721 
3 1763 8427 1722 
3 2497 9531 5778 
3 3265 10143 3147 
3 3519 10304 8630 
3 4255 8062 3808 
3 4602 5989 4119 
3 4383 5413 5412 
3 6492 8853 4478 
3 8817 9692 5596 
3 6517 9760 9007 
3 1242 9554 1240 
3 1354 9871 1398 
3 8236 8816 1485 
3 5663 7870 1534 
3 3854 4908 4907 
3 4421 7997 3923 
3 5346 5841 5348 
3 5596 9529 8817 
3 6235 6236 6234 
3 7951 7960 7957 
3 8463 9479 8462 
3 1681 7811 3559 
3 2119 9911 8636 
3 2225 3560 2227 
3 2418 9952 2617 
3 3725 9123 2596 
3 3074 3078 3075 
3 3083 5015 3081 
3 3082 3776 3095 
3 3086 9313 8022 
3 4008 9029 3229 
3 3328 3990 3327 
3 3607 4075 4056 
3 3793 10142 4947 
3 4062 9510 8764 
3 4150 5195 4148 
3 4266 9373 5094 
3 4370 4374 4372 
3 4708 11028 10886 
3 4891 6363 4892 
3 5099 9354 6001 
3 6182 6202 5199 
3 7841 8474 5593 
3 5919 6268 5918 
3 6449 10156 7219 
3 8597 8977 6514 
3 6578 10204 9554 
3 6734 6735 6732 
3 7311 8221 8066 
3 9025 9280 8341 
3 8681 8683 8678 
3 800 801 797 
3 863 9184 865 
3 910 8374 2944 
3 3874 3875 3628 
3 6521 7871 4560 
3 4875 8664 6380 
3 6654 7181 4966 
3 5153 6613 6022 
3 5285 6772 6271 
3 8654 8772 5549 
3 5806 9397 5809 
3 7077 7184 5889 
3 7032 7034 7033 
3 8447 8453 8441 
3 9153 9154 9152 
3 5119 7270 2222 
3 3275 3287 3286 
3 4144 4145 3620 
3 3928 10930 10463 
3 5912 6158 4739 
3 6398 6451 5051 
3 5882 6802 6298 
3 6123 6125 6124 
3 7048 7094 6288 
3 7675 8976 7647 
3 7774 8942 7775 
3 8172 8175 8174 
3 8346 9943 9625 
3 8964 9774 8963 
3 19 8714 436 
3 594 9088 592 
3 1115 7704 1113 
3 8422 9188 1158 
3 1884 8221 3052 
3 2204 9461 3008 
3 2563 2727 2561 
3 2941 9643 2591 
3 4592 6598 5313 
3 8076 9540 5769 
3 5876 10411 7379 
3 1658 8483 1147 
3 7492 8066 1195 
3 1986 9813 2335 
3 4399 7516 2038 
3 3285 3628 3036 
3 5836 10139 3487 
3 8249 8547 3521 
3 5586 8898 3575 
3 3947 3948 3946 
3 5635 8716 3967 
3 5684 6215 5686 
3 6984 6985 6327 
3 7009 10690 7712 
3 8254 8255 543 
3 4127 8774 8594 
3 5278 5280 5279 
3 6584 7277 5872 
3 8498 9840 9435 
3 1008 10439 1000 
3 5196 5443 2175 
3 3399 10617 10552 
3 10548 10607 3454 
3 4659 4787 4657 
3 4786 7715 7714 
3 6290 10170 4806 
3 7747 7748 5060 
3 5714 9986 6542 
3 8160 8945 5777 
3 8941 9535 5800 
3 6934 7055 6935 
3 8507 9603 8506 
3 1527 9916 1611 
3 2034 2321 2036 
3 4563 9878 2095 
3 2598 2599 2596 
3 2881 2883 2882 
3 3437 9880 3129 
3 3895 4321 3894 
3 8395 8396 4346 
3 5139 9855 4626 
3 5072 8914 5792 
3 5074 5075 5073 
3 6075 6149 5133 
3 5264 9325 7399 
3 5595 9056 6029 
3 5635 8717 8716 
3 9970 10285 5654 
3 9069 9542 5717 
3 6051 10902 10891 
3 6342 7609 6341 
3 6721 6723 6722 
3 7329 7330 7328 
3 504 8554 8553 
3 1148 9107 1685 
3 1172 8422 1162 
3 1366 10374 7451 
3 1492 8484 1460 
3 3610 4061 4052 
3 9279 9745 4091 
3 4705 9661 4534 
3 4576 10353 4573 
3 5321 9215 4714 
3 6552 6553 5049 
3 5513 8115 5274 
3 5347 7196 5346 
3 5414 10751 7154 
3 6150 11201 11193 
3 7634 10481 6990 
3 87 9524 524 
3 384 9331 532 
3 1212 8606 1067 
3 7823 9428 2242 
3 3323 8088 2934 
3 3580 9206 3578 
3 10404 10941 4260 
3 4598 5899 5898 
3 7869 10722 5136 
3 5340 5351 5350 
3 5918 7485 6773 
3 6075 6702 6149 
3 11 7994 10 
3 646 8644 3520 
3 666 8820 5623 
3 793 8598 703 
3 1145 8518 1658 
3 4861 5085 1493 
3 8158 9815 1693 
3 1910 9008 1988 
3 2166 2168 2167 
3 2715 3081 2400 
3 2620 7316 2448 
3 2708 2709 2706 
3 2889 3252 3251 
3 3257 3258 3256 
3 3548 9537 3278 
3 5446 6231 3623 
3 4879 4880 3989 
3 4094 5121 5120 
3 5057 5360 4264 
3 4437 4439 4438 
3 5940 6576 4588 
3 4618 4619 4617 
3 4977 8931 8929 
3 8023 9939 6486 
3 7011 7012 7010 
3 10615 10734 7731 
3 8935 8937 7750 
3 8137 8140 8136 
3 678 9118 680 
3 1502 8014 1457 
3 7706 9921 1583 
3 1875 9003 2003 
3 2361 7852 2048 
3 2124 9018 2650 
3 8348 9492 2230 
3 3428 7989 2671 
3 3262 9913 4253 
3 8630 10286 3519 
3 5118 9178 4447 
3 9804 10043 5042 
3 8489 8490 5122 
3 8490 8491 5122 
3 6331 6815 6332 
3 6582 9811 8052 
3 10536 10540 6620 
3 8490 8492 8491 
3 8708 9552 9389 
3 8497 9435 1759 
3 2619 2629 2571 
3 5611 9273 3768 
3 7206 7945 5279 
3 5609 7998 7997 
3 8951 10014 5643 
3 5862 7013 6221 
3 5903 7519 7232 
3 8968 8969 6019 
3 7090 7091 6750 
3 6973 7056 6974 
3 8461 9815 8300 
3 226 9208 225 
3 7149 11053 3351 
3 3827 9283 9158 
3 3937 3938 3936 
3 5208 7773 6211 
3 6359 8153 6358 
3 7285 7287 7286 
3 8369 9388 8938 
3 8066 8221 1364 
3 2527 7020 5352 
3 2645 10317 9903 
3 8380 9649 2782 
3 4168 4169 3306 
3 8333 8334 3512 
3 8827 9414 3517 
3 3672 9597 3670 
3 4075 6565 5100 
3 4762 4771 4189 
3 4546 10920 8571 
3 4684 4686 4685 
3 4735 5182 5181 
3 5298 6320 4833 
3 8377 9874 4996 
3 5058 9773 8769 
3 8551 8552 5143 
3 5764 5766 5765 
3 6803 8215 5910 
3 6619 7252 6618 
3 7030 7032 7031 
3 7775 8954 8194 
3 7916 7918 7917 
3 8763 9861 9340 
3 8972 9065 8906 
3 8514 8515 1387 
3 8129 8130 1563 
3 1888 8294 1999 
3 8762 9143 1996 
3 2860 4137 2858 
3 3103 3105 3093 
3 4182 7821 3273 
3 3895 4323 4322 
3 4293 8632 4799 
3 4549 8264 5890 
3 6010 6591 4721 
3 5284 7206 5281 
3 5382 9412 5384 
3 6253 6789 5452 
3 6262 8098 6301 
3 6549 9840 8498 
3 10469 11096 6993 
3 7903 8432 8431 
3 110 8011 109 
3 9647 9948 946 
3 2310 9024 9021 
3 8564 9289 2472 
3 2727 8871 2561 
3 3396 9374 8924 
3 3578 9206 3581 
3 4151 4153 4152 
3 4482 6461 4734 
3 8082 10109 5417 
3 5820 5822 5821 
3 5873 9728 9727 
3 6278 6279 6277 
3 6335 7369 7368 
3 7278 10729 10308 
3 7758 10646 7757 
3 615 9159 617 
3 4964 4966 1465 
3 1820 9298 3547 
3 1871 9299 1872 
3 2979 8575 2700 
3 3307 4127 3820 
3 9298 10338 3547 
3 3612 8951 8950 
3 4756 5369 4180 
3 5203 5883 4278 
3 4912 7764 5720 
3 4944 6111 5128 
3 5447 8951 5643 
3 7280 7561 5597 
3 6366 6828 6827 
3 7271 7273 6385 
3 7411 9168 6465 
3 9136 9137 6539 
3 6557 10271 10101 
3 7478 7480 7479 
3 7636 9915 7637 
3 7954 10726 7953 
3 1331 9252 1329 
3 9955 10442 1671 
3 1835 8867 5710 
3 2569 3502 2567 
3 2571 8545 2569 
3 7179 8094 3352 
3 3359 8109 3995 
3 4611 5253 4795 
3 4988 7578 4989 
3 5627 9065 8972 
3 5712 10003 6508 
3 5814 9888 7683 
3 7363 10405 6360 
3 6457 9746 6455 
3 10552 10617 7016 
3 9384 9888 7314 
3 8256 9094 9005 
3 1028 1029 1019 
3 1457 8014 4427 
3 1553 8237 1498 
3 1539 10073 3791 
3 3811 4354 1609 
3 7700 10512 1656 
3 8342 8343 1779 
3 1792 7829 1837 
3 2178 9436 2180 
3 2484 9025 2316 
3 2357 7608 6023 
3 2586 7852 2361 
3 2617 9952 4727 
3 2762 10210 3347 
3 2767 3758 3110 
3 3925 7826 2778 
3 3037 9043 3214 
3 3909 3910 3332 
3 3788 5148 4124 
3 4042 9767 5048 
3 4158 4353 4159 
3 4584 4585 4256 
3 5908 5911 4301 
3 4439 5198 5197 
3 4676 5215 4678 
3 5016 5592 4741 
3 4873 7110 5406 
3 6325 6326 5034 
3 8369 8938 5043 
3 5113 5114 5112 
3 5148 5514 5167 
3 6639 7141 5159 
3 5273 6761 5275 
3 5441 9043 7404 
3 5592 6698 6697 
3 6191 6201 5670 
3 8548 9439 5770 
3 5788 5790 5789 
3 6506 6507 6505 
3 10322 10520 7241 
3 7404 9015 9014 
3 9490 10106 7631 
3 7780 7783 7779 
3 10478 10676 8335 
3 9280 9509 8341 
3 8569 9333 771 
3 813 8290 811 
3 926 8918 924 
3 1077 8921 3777 
3 8797 9303 1102 
3 1607 10094 2025 
3 3498 9463 3497 
3 4666 4668 4667 
3 4672 4674 4673 
3 4798 5248 4797 
3 5150 6664 5151 
3 6244 6245 5244 
3 7395 7681 6418 
3 7101 7102 7100 
3 7460 7462 7459 
3 468 8252 294 
3 807 8506 803 
3 929 9415 8918 
3 1623 4053 1561 
3 1764 9543 2232 
3 1889 7884 5520 
3 2109 7766 2112 
3 2658 9226 7488 
3 3165 8423 8380 
3 3193 3194 3192 
3 3669 8953 8952 
3 9248 10424 3907 
3 5332 6220 5210 
3 5413 9278 5704 
3 5713 5966 5450 
3 5966 7041 5450 
3 6882 6891 6881 
3 9556 9742 9108 
3 628 8977 8597 
3 662 9117 2069 
3 3568 9118 678 
3 682 684 683 
3 702 704 703 
3 864 8542 861 
3 1249 1251 1250 
3 1269 9477 3381 
3 1340 1342 1341 
3 1434 8337 1467 
3 1510 8674 1456 
3 2412 2413 1583 
3 2074 8868 2444 
3 2128 2129 2127 
3 2502 9889 7981 
3 2595 9123 2747 
3 2606 9174 3170 
3 2689 8477 3023 
3 4062 8764 3019 
3 3026 4123 4122 
3 3061 3063 3062 
3 4464 10266 3061 
3 3063 3065 3064 
3 3403 8765 3076 
3 5573 9175 3338 
3 3390 5806 5805 
3 3481 9505 9322 
3 4415 4416 3539 
3 3569 9967 8160 
3 9421 9422 3763 
3 3813 3814 3812 
3 4083 8685 8281 
3 5761 9147 4145 
3 4541 8623 8622 
3 4849 5759 5578 
3 5004 5005 5003 
3 6486 9176 5059 
3 5138 10258 6630 
3 6783 7472 5270 
3 7572 10325 5360 
3 5374 6413 5638 
3 6555 9991 5442 
3 6444 9067 5460 
3 6489 8836 5647 
3 5738 9773 5737 
3 7853 7854 6319 
3 10068 10098 6589 
3 6931 6943 6942 
3 9260 9491 6967 
3 7611 7612 7610 
3 10388 10636 8053 
3 8181 9174 8170 
3 8280 8372 8279 
3 538 7898 209 
3 633 8977 630 
3 922 8887 920 
3 1040 8957 3382 
3 1219 9403 3529 
3 1270 1310 1269 
3 1300 9287 1363 
3 1305 1360 1359 
3 3394 7980 1381 
3 3830 8240 1427 
3 3643 9480 1591 
3 1592 1625 1624 
3 3053 8250 1625 
3 4985 10206 1879 
3 1915 1916 1914 
3 1921 2154 1923 
3 1926 10023 1925 
3 2024 2103 2102 
3 2102 4366 3622 
3 2294 7844 2292 
3 2310 9021 2295 
3 9190 10334 2477 
3 2920 9130 2535 
3 2737 7900 4043 
3 3039 3041 3040 
3 3146 3848 3265 
3 3278 3892 3279 
3 3805 6688 6687 
3 3816 9045 4276 
3 4297 4298 3861 
3 3881 4776 4192 
3 3957 7770 4598 
3 4366 6409 4368 
3 4435 4436 4433 
3 4541 9238 8623 
3 5664 8272 4920 
3 6596 7534 5014 
3 5195 7739 7738 
3 5249 5292 5291 
3 5318 8407 6923 
3 5374 7182 6413 
3 5593 8474 6556 
3 8542 9970 5654 
3 5682 9399 6585 
3 6448 8118 5768 
3 6197 10090 9789 
3 6258 6842 6841 
3 6272 6274 6273 
3 6490 8353 6491 
3 8088 9991 6555 
3 6580 7006 6579 
3 10477 10498 7384 
3 7600 10248 10247 
3 10186 10502 7952 
3 8122 8242 1295 
3 1369 9407 1335 
3 1482 1560 1481 
3 1864 1980 1978 
3 5655 9218 2231 
3 2541 2764 2716 
3 2627 9203 8949 
3 2861 2863 2862 
3 2885 2887 2884 
3 3434 4853 4852 
3 3532 9914 8861 
3 3584 9540 4023 
3 7728 10943 3636 
3 4449 5549 4448 
3 5549 6488 6487 
3 6155 6157 6156 
3 1448 1450 1417 
3 4559 4590 1603 
3 1776 10134 3087 
3 2387 2388 2228 
3 7087 10750 2436 
3 2808 9277 8926 
3 2927 3161 3160 
3 9037 9073 3011 
3 3026 4122 3027 
3 3223 9761 5507 
3 4124 8932 3395 
3 3916 5885 5884 
3 3916 5887 5885 
3 3984 9558 4897 
3 4100 8358 5144 
3 5438 7736 4192 
3 4792 5225 4313 
3 4946 5726 4512 
3 5744 7189 4963 
3 5392 6397 4985 
3 8074 8710 5102 
3 5107 8159 5109 
3 6222 6418 5209 
3 6754 7616 5361 
3 5390 6382 6381 
3 8428 9788 5763 
3 6472 6473 6471 
3 7476 10197 9954 
3 9177 10216 10031 
3 498 568 99 
3 795 10391 762 
3 779 780 778 
3 911 3471 913 
3 916 8723 914 
3 1195 8066 1233 
3 1341 5702 1339 
3 1512 1587 1562 
3 1833 1898 1834 
3 1859 5839 1857 
3 3645 9756 2032 
3 2254 2256 2255 
3 3168 9429 3965 
3 3478 8592 3475 
3 9453 10229 3629 
3 4098 4596 3801 
3 3965 4928 4871 
3 4021 4491 4489 
3 4657 8508 4655 
3 4662 4664 4663 
3 4674 4676 4675 
3 4715 8939 5150 
3 7474 7475 4759 
3 4813 8509 5997 
3 6548 6549 5025 
3 8211 8212 5247 
3 6753 6782 5270 
3 8265 9413 5378 
3 5759 9910 5578 
3 5826 5828 5827 
3 6171 6196 6170 
3 6867 6868 6290 
3 6405 7096 6404 
3 7417 7419 7226 
3 7529 7530 7528 
3 7747 9591 7748 
3 9351 9528 8541 
3 855 9446 4423 
3 1097 8759 1095 
3 1487 2943 1511 
3 1691 8828 8827 
3 1897 1991 1895 
3 1896 8849 2235 
3 2243 8850 2240 
3 3401 9030 2812 
3 2943 4449 4448 
3 3139 3293 3292 
3 6520 9880 3437 
3 3595 11045 11000 
3 8088 9164 4017 
3 5232 5233 4816 
3 6832 6833 5287 
3 5771 9958 5760 
3 9154 9413 9160 
3 9112 11275 427 
3 8398 8399 448 
3 776 8526 2395 
3 810 3574 812 
3 1313 8587 1316 
3 1664 9161 1453 
3 2461 2937 2664 
3 2936 9347 2644 
3 4133 8356 2850 
3 2880 4474 2877 
3 3137 8222 3135 
3 3993 4136 3451 
3 6755 6784 4788 
3 5389 6994 5387 
3 5500 8536 5494 
3 7542 9307 5680 
3 7752 10805 5849 
3 6981 7255 6980 
3 7448 9980 7447 
3 471 8253 393 
3 4445 9120 1134 
3 3353 5092 1557 
3 1606 1687 1626 
3 4249 9299 1871 
3 7767 7820 2112 
3 2357 5325 4563 
3 8354 8615 2679 
3 2812 9030 2814 
3 3658 3659 3656 
3 3698 9256 9255 
3 4263 4264 3759 
3 3941 3942 3940 
3 3965 4870 3964 
3 3965 9429 4928 
3 4210 5390 4850 
3 4340 6324 5302 
3 7681 7682 4907 
3 4957 7070 7069 
3 5036 5950 5849 
3 5195 7740 7739 
3 5735 6766 5230 
3 5309 8265 5378 
3 5379 7990 5377 
3 5378 9413 5380 
3 5385 6983 5383 
3 6445 8951 5447 
3 5490 5491 5489 
3 6364 8020 7254 
3 7572 10588 8110 
3 9356 10013 7998 
3 8392 8393 8391 
3 9475 10098 8995 
3 522 9076 9075 
3 828 8944 869 
3 3471 9165 913 
3 985 3399 982 
3 989 1565 987 
3 1000 1001 996 
3 8293 8294 1888 
3 2434 2435 2324 
3 2701 3401 2812 
3 3123 8851 3126 
3 3204 3421 3420 
3 3283 3343 3342 
3 4977 8929 3420 
3 8056 8057 4010 
3 4070 4071 4069 
3 4074 10411 4571 
3 4473 9344 9343 
3 4571 4574 4573 
3 4577 5307 5211 
3 4720 5337 4721 
3 5829 9732 5039 
3 5175 5676 5675 
3 5305 8940 6333 
3 5420 6014 5770 
3 9595 10043 5771 
3 5862 6221 6214 
3 6592 7890 7889 
3 8726 8727 8725 
3 600 10644 3770 
3 973 9902 8736 
3 1035 8125 1039 
3 1324 1326 1325 
3 1724 1725 1723 
3 1977 8923 1745 
3 1781 8343 1784 
3 1952 8866 1893 
3 2056 2058 2057 
3 4137 7317 2858 
3 8278 9581 2936 
3 3182 9439 4084 
3 4198 8258 3467 
3 3586 8075 3978 
3 3919 4378 3920 
3 8909 8910 4226 
3 4692 4694 4693 
3 4808 5244 5243 
3 4857 10136 4855 
3 4973 8319 6445 
3 5138 6629 5137 
3 5375 8090 7113 
3 5413 5414 5412 
3 5903 7232 5436 
3 5646 9467 9242 
3 5742 6340 5741 
3 5834 8076 5769 
3 6586 7053 6061 
3 7971 8950 6445 
3 9572 9890 6516 
3 6547 9736 9470 
3 7043 7605 7044 
3 7458 7460 7459 
3 8544 9388 8369 
3 8839 10449 10082 
3 960 8735 958 
3 968 8649 966 
3 1273 1284 1274 
3 1320 1322 1321 
3 1716 1717 1715 
3 1739 9093 8256 
3 2104 2105 2008 
3 2030 9490 3645 
3 2196 2225 2224 
3 2772 2832 2530 
3 2840 8142 2974 
3 2849 2850 2848 
3 2979 9033 8575 
3 3283 3342 3137 
3 3281 9823 3695 
3 3832 3833 3831 
3 4186 4283 4185 
3 4900 7788 5374 
3 4970 6436 6435 
3 6015 8548 5770 
3 8536 9522 6399 
3 7433 7434 7432 
3 7437 7438 7436 
3 562 8011 110 
3 961 3389 963 
3 965 1455 967 
3 971 8758 976 
3 979 980 977 
3 981 7996 3404 
3 995 996 993 
3 1005 1008 1000 
3 1948 8316 1012 
3 3457 8737 1152 
3 1258 9452 1254 
3 1261 3503 1286 
3 1424 1458 1457 
3 1458 1503 1502 
3 1560 1584 1481 
3 1643 9003 1875 
3 1712 1713 1711 
3 1779 8343 1781 
3 1850 4745 2175 
3 1966 9826 2080 
3 2007 7859 3317 
3 2343 8347 2196 
3 2225 2227 2226 
3 2264 2266 2265 
3 2458 9493 2269 
3 2597 9012 2368 
3 2452 2733 2732 
3 3171 8245 2608 
3 3027 3369 2695 
3 2708 7711 2711 
3 2945 8357 3416 
3 2962 8948 7713 
3 3095 3096 3083 
3 3319 3320 3171 
3 3242 8358 4100 
3 3249 4462 4265 
3 3302 3326 3325 
3 3305 3849 3306 
3 3329 9694 3898 
3 3372 3373 3371 
3 3374 3375 3373 
3 3373 7598 4960 
3 3461 8461 8300 
3 3865 3917 3899 
3 4075 5100 4056 
3 7851 7852 4520 
3 5732 8595 4526 
3 4532 8973 4530 
3 4627 4698 4625 
3 4742 9361 6696 
3 4789 7729 6780 
3 4834 5298 4833 
3 4916 7995 5327 
3 5430 5431 4920 
3 5053 5870 5869 
3 5167 11181 6002 
3 5208 6211 5209 
3 5375 6295 5231 
3 5306 5552 5311 
3 7751 10215 5506 
3 5552 5554 5553 
3 5558 8771 5555 
3 5715 6353 5868 
3 5832 5905 5904 
3 6287 9730 6898 
3 9706 9766 6374 
3 6489 9070 9036 
3 6524 9110 6525 
3 8911 9497 6524 
3 8147 9018 8148 
3 8297 9343 8296 
3 8357 10048 9929 
3 8428 10455 10210 
3 1645 1647 1615 
3 1762 9435 3385 
3 8169 10127 1965 
3 8187 8188 2005 
3 2147 2408 2146 
3 2184 2385 2186 
3 2644 2645 2460 
3 9347 9348 2645 
3 2901 3267 3266 
3 7534 8303 4458 
3 4554 4556 4555 
3 5537 6064 4702 
3 6219 7627 4757 
3 6598 6599 5313 
3 7902 8899 7903 
3 571 573 572 
3 654 10052 3635 
3 759 761 760 
3 8722 8723 916 
3 933 935 934 
3 1042 3088 1030 
3 1284 8122 1295 
3 1295 8242 1308 
3 1315 1368 1314 
3 1336 1338 1337 
3 1428 9050 3637 
3 5103 9392 1580 
3 1606 10808 1687 
3 1842 1843 1631 
3 9559 10123 1740 
3 2749 9320 8353 
3 3299 3300 3102 
3 3143 3145 3144 
3 3289 4194 3876 
3 8971 9506 3481 
3 9560 9710 3532 
3 3714 8567 3716 
3 3841 3842 3838 
3 3961 3962 3960 
3 4355 5173 4845 
3 5164 5165 4916 
3 4996 9342 9341 
3 6547 9549 5061 
3 6188 9284 5127 
3 6304 6798 5219 
3 9150 9696 5644 
3 5686 10157 5786 
3 5810 9633 5808 
3 6246 6248 6247 
3 6399 7115 6400 
3 6516 7067 6407 
3 6915 6917 6916 
3 6943 6945 6944 
3 7099 7100 7098 
3 8151 9646 7626 
3 7665 8915 7650 
3 8498 9435 8497 
3 9516 10052 656 
3 2069 4539 661 
3 667 669 668 
3 670 8540 672 
3 673 3443 671 
3 676 3568 678 
3 681 3697 679 
3 680 1697 682 
3 686 708 688 
3 691 3642 689 
3 699 3470 697 
3 1268 8387 860 
3 861 8542 862 
3 972 8517 934 
3 1237 9487 1239 
3 1252 9451 1250 
3 1379 9225 1305 
3 1535 1573 1537 
3 1542 9128 5103 
3 1701 1702 1700 
3 1966 1967 1843 
3 1869 9002 2469 
3 1962 10306 1964 
3 1996 9143 1995 
3 2016 8530 2015 
3 2437 3044 2114 
3 2121 9017 8346 
3 2165 7843 6526 
3 2614 2615 2376 
3 2416 9037 2666 
3 2447 7624 4432 
3 2463 9091 2465 
3 2480 8590 3092 
3 2584 10036 8948 
3 2711 2712 2710 
3 2769 2834 2833 
3 2993 3689 3441 
3 3504 8767 3006 
3 3060 8279 3058 
3 3202 4020 3212 
3 3232 3234 3233 
3 3234 3236 3235 
3 3312 8395 4346 
3 3789 9052 3337 
3 3349 9905 7594 
3 4711 5090 3789 
3 4777 5816 3876 
3 3945 10329 4825 
3 4350 4351 4349 
3 4451 9058 8819 
3 4491 5504 4489 
3 4509 9369 8762 
3 4665 5264 4663 
3 4669 5263 4667 
3 4937 5219 4936 
3 5040 5714 5703 
3 6567 6568 5045 
3 5064 8853 8064 
3 5333 6571 6570 
3 5542 7283 5455 
3 5964 6617 5961 
3 6017 6376 6016 
3 6202 6204 6203 
3 6262 6264 6263 
3 6910 7233 6309 
3 6383 8071 6384 
3 8022 8023 6486 
3 7673 9459 7651 
3 7697 7699 7698 
3 7900 8901 7902 
3 8660 8661 8163 
3 8304 8563 8305 
3 8399 8401 8400 
3 9238 9831 8626 
3 495 7880 297 
3 930 933 932 
3 941 943 942 
3 1691 8827 942 
3 1278 9200 4204 
3 1334 1336 1335 
3 2235 2237 2236 
3 2331 7929 2495 
3 2692 2696 2693 
3 3784 3785 3375 
3 4458 8654 4449 
3 6198 7066 4770 
3 6237 6238 6236 
3 6239 6240 6238 
3 6991 9220 6352 
3 8774 8970 6537 
3 7553 7555 7554 
3 8757 10390 8288 
3 849 903 851 
3 1200 8844 941 
3 945 947 946 
3 1318 1320 1319 
3 2242 2373 2243 
3 2506 2507 2505 
3 4103 8591 2846 
3 3097 3098 2961 
3 3044 9973 8169 
3 3049 3869 3114 
3 3126 3185 3184 
3 3126 7984 3185 
3 10016 10490 3150 
3 3737 9440 3735 
3 3828 3829 3787 
3 3788 5149 5148 
3 4106 5157 5156 
3 5670 8652 4167 
3 5233 5758 4816 
3 5292 6291 5291 
3 6721 6722 6720 
3 7426 7428 7427 
3 8445 8448 8444 
3 748 749 747 
3 3522 8829 945 
3 947 949 948 
3 1228 8586 1088 
3 1587 1650 1588 
3 2561 8871 2559 
3 2592 7982 2942 
3 2757 3176 2756 
3 2816 7543 2818 
3 3483 3565 2941 
3 3964 3966 3169 
3 3177 4086 3176 
3 3515 8376 4829 
3 3740 3792 3738 
3 3815 3921 3824 
3 3854 4909 4908 
3 4175 5177 4176 
3 4183 5214 4184 
3 4555 4558 4557 
3 5034 10496 4557 
3 4598 5896 4597 
3 4829 8265 5309 
3 5421 9605 4871 
3 4882 5339 5338 
3 4912 5719 5391 
3 4928 5410 4929 
3 4965 10460 10323 
3 6323 7990 5379 
3 6299 10104 5838 
3 5899 6995 6645 
3 6119 6997 5990 
3 6887 6888 6270 
3 6857 6936 6297 
3 6380 8664 8123 
3 6550 8570 8569 
3 7288 7289 7286 
3 8406 9642 8878 
3 8964 9543 8425 
3 9271 9398 8963 
3 313 9114 527 
3 739 741 738 
3 949 951 950 
3 1010 8856 949 
3 3387 8860 952 
3 1139 1140 1134 
3 1138 3594 1136 
3 2100 8189 2013 
3 2034 2036 2035 
3 2366 2367 2153 
3 2178 2180 2179 
3 3456 8904 2257 
3 2353 2533 2404 
3 2434 2700 2435 
3 2543 9562 2767 
3 2673 8767 2674 
3 3005 3006 2673 
3 3183 4401 4400 
3 3288 4296 3905 
3 4991 5373 3352 
3 3467 3468 3466 
3 3489 4004 3490 
3 3865 7413 3917 
3 3919 8258 4379 
3 4874 5464 3968 
3 4855 4856 3976 
3 4184 4186 4185 
3 4302 5237 4783 
3 4302 5238 5237 
3 4606 5960 5959 
3 4612 5931 4620 
3 4653 7242 4651 
3 4753 8136 4662 
3 5213 7806 4674 
3 7630 8273 4837 
3 5021 5022 5020 
3 5109 5777 5111 
3 5340 5350 5341 
3 5787 9613 5785 
3 5960 5962 5961 
3 6623 10822 9393 
3 11398 11399 6736 
3 7397 7398 7396 
3 7642 9433 7677 
3 7970 9396 8639 
3 8152 10077 9046 
3 8509 10854 10458 
3 608 3625 606 
3 3376 8649 968 
3 1093 8846 3534 
3 1096 1097 1095 
3 1098 1099 1097 
3 1326 1328 1327 
3 1367 8295 1327 
3 1640 3007 1853 
3 1755 1757 1756 
3 1906 9530 1891 
3 3555 4342 2038 
3 2180 2182 2181 
3 2406 2537 2336 
3 2493 2494 2492 
3 4552 4553 2537 
3 2928 8476 2829 
3 2927 3160 2928 
3 3240 9034 2952 
3 3262 3807 3261 
3 3730 7725 3391 
3 4159 9569 4161 
3 4178 4293 4177 
3 5716 9728 4249 
3 4547 8571 8264 
3 6038 9132 4703 
3 4763 6232 6216 
3 6332 8632 4811 
3 4912 5720 5719 
3 5036 9953 5951 
3 5150 8939 6665 
3 7378 10319 5307 
3 5519 10262 7974 
3 5950 7752 5849 
3 5872 10427 5870 
3 6156 6694 6154 
3 8503 8594 6208 
3 6229 6747 6212 
3 6355 7217 7089 
3 8353 9320 6494 
3 6506 11356 11354 
3 8949 9203 6513 
3 6755 6835 6784 
3 7902 8901 8900 
3 8029 9362 8030 
3 8441 8453 8443 
3 8454 9718 8450 
3 607 608 606 
3 618 3351 616 
3 765 8556 764 
3 779 8557 781 
3 791 792 790 
3 801 8506 4481 
3 850 8532 853 
3 903 1093 851 
3 8603 9184 863 
3 3043 8917 867 
3 959 961 960 
3 1004 8919 959 
3 967 969 968 
3 3500 8758 971 
3 992 4211 995 
3 1002 1003 998 
3 998 8695 6422 
3 1006 1007 1003 
3 5605 5606 1066 
3 1104 9303 3558 
3 1112 1113 1111 
3 1120 10822 10777 
3 5725 9802 1358 
3 1383 4463 1552 
3 1460 8484 1459 
3 1749 1751 1750 
3 2509 8320 1832 
3 1989 2041 1852 
3 2182 2184 2183 
3 3472 3473 2197 
3 2430 10268 9984 
3 2431 2623 2433 
3 2452 9301 2733 
3 2580 7900 2737 
3 3163 8089 2736 
3 2738 9327 8565 
3 2792 8565 3413 
3 2822 2823 2821 
3 3431 9791 7774 
3 4363 8005 3902 
3 4225 9866 4970 
3 4420 9457 4419 
3 4489 8304 4490 
3 4526 4527 4525 
3 4574 4577 4576 
3 4731 9437 6662 
3 8123 8664 4858 
3 4875 6380 6378 
3 5448 7931 4974 
3 7931 8881 4974 
3 4983 6053 5865 
3 5552 5553 5311 
3 6988 6989 5433 
3 5489 8696 5498 
3 5834 9408 8077 
3 5870 7377 5869 
3 10589 10622 5943 
3 5953 6465 6464 
3 6171 7372 6196 
3 6207 11396 11390 
3 6379 9205 8010 
3 6461 9445 8143 
3 6556 9164 6555 
3 7442 8210 7440 
3 10374 10719 7451 
3 7790 7793 7791 
3 8439 9718 8447 
3 8448 8449 8444 
3 8570 9333 8569 
3 8725 9528 9351 
3 8963 9398 8962 
3 9085 9086 457 
3 845 847 846 
3 8331 8581 847 
3 853 9446 855 
3 857 8603 859 
3 1124 1125 1123 
3 1138 8993 3594 
3 4221 8132 1168 
3 1618 1619 1268 
3 1551 4418 1382 
3 1436 8995 5662 
3 8424 9543 1747 
3 2248 2384 2252 
3 2257 8904 2255 
3 2263 2594 2261 
3 2264 2342 2266 
3 2268 3698 2270 
3 2342 9020 9019 
3 4581 10067 2417 
3 3280 3281 3098 
3 3217 9270 4039 
3 3383 4050 4049 
3 3721 3969 3720 
3 3747 3752 3749 
3 4941 9044 4049 
3 4244 5007 4245 
3 7637 7638 4246 
3 5907 5908 4301 
3 4333 5305 4843 
3 4346 8396 4365 
3 4630 4632 4631 
3 4634 4636 4635 
3 4704 4713 4706 
3 4810 9771 5239 
3 4841 4842 4840 
3 4889 9335 5423 
3 5847 9061 4941 
3 5072 5792 5076 
3 9271 9774 5116 
3 6211 6222 5209 
3 5232 6855 6292 
3 7393 8081 5424 
3 5473 6256 5474 
3 5530 6284 5531 
3 5563 7991 6425 
3 5574 5575 5573 
3 5612 6678 5613 
3 9419 9937 5675 
3 5811 5812 5807 
3 8397 10358 5925 
3 6086 6126 6123 
3 6206 6744 6224 
3 6440 7237 7109 
3 6455 7569 6453 
3 7021 7418 7417 
3 7335 7338 7337 
3 218 8310 217 
3 626 3775 624 
3 630 8977 628 
3 629 1218 631 
3 634 1202 633 
3 637 8659 639 
3 640 8643 638 
3 645 9171 647 
3 648 8644 646 
3 651 4203 653 
3 658 9516 656 
3 657 804 659 
3 662 2069 661 
3 665 9473 667 
3 668 8820 666 
3 670 671 668 
3 674 675 673 
3 680 681 679 
3 681 8824 3697 
3 684 685 683 
3 694 695 693 
3 699 8161 3470 
3 715 8327 713 
3 728 8691 1746 
3 732 8983 4487 
3 734 735 733 
3 738 740 737 
3 740 1395 1394 
3 772 8956 769 
3 796 797 792 
3 852 8386 848 
3 854 7970 852 
3 856 3086 854 
3 1016 1017 1013 
3 1015 5756 1021 
3 1024 1025 1017 
3 1030 1031 1025 
3 1031 1033 1032 
3 1033 1035 1034 
3 1036 1037 1035 
3 1131 9309 1139 
3 1141 8518 1145 
3 1152 8737 1146 
3 1148 1150 1149 
3 1150 1154 1151 
3 1156 3457 1152 
3 1153 3561 1157 
3 1158 9188 1156 
3 1165 8336 1160 
3 1170 1172 1162 
3 3080 9384 1188 
3 5929 9795 1216 
3 1217 1222 1221 
3 1268 9481 8387 
3 1356 2667 1400 
3 1395 1509 1456 
3 1426 9050 1428 
3 1442 3830 1427 
3 1617 10414 1446 
3 1468 1507 1469 
3 3601 8416 1468 
3 1504 1540 1473 
3 1549 3458 1492 
3 1500 1701 1700 
3 1509 1546 1510 
3 1620 8674 1510 
3 6192 6724 1540 
3 1546 1566 1555 
3 1554 9338 1695 
3 1566 1642 1641 
3 1574 1635 1575 
3 9180 9364 1589 
3 1665 7842 1632 
3 1688 8424 1663 
3 1846 1847 1684 
3 2116 10346 1686 
3 3700 7722 1798 
3 4564 8865 1819 
3 1858 1859 1857 
3 1983 10512 7469 
3 2044 9012 4444 
3 2074 2333 2075 
3 2128 9122 2130 
3 2130 2133 2132 
3 2134 8417 2131 
3 2362 2363 2229 
3 2312 2740 2250 
3 2405 2421 2354 
3 8417 9862 2414 
3 2617 4581 2417 
3 2666 2744 2456 
3 2467 2468 2466 
3 2474 8354 2679 
3 2579 3358 2643 
3 2590 8705 2752 
3 2599 3725 2596 
3 2603 2760 2601 
3 2604 9174 2606 
3 8837 8838 2610 
3 8473 10179 2611 
3 2658 7488 2656 
3 2662 3818 2957 
3 2666 9037 3011 
3 2670 8357 2945 
3 3006 8767 2673 
3 3026 3027 2695 
3 2740 9401 9355 
3 3010 3012 2744 
3 2744 8835 3084 
3 9123 10093 2747 
3 3101 3102 2775 
3 2775 8155 8154 
3 2786 2787 2785 
3 2788 3189 2787 
3 2809 9038 3246 
3 3111 3112 2832 
3 2859 2860 2858 
3 2886 2888 2885 
3 3140 3291 2892 
3 7203 9836 2910 
3 2913 2916 2915 
3 2951 3241 3240 
3 4212 4214 3001 
3 3057 3058 3019 
3 3058 8279 4062 
3 3143 3146 3145 
3 3146 3265 3147 
3 3289 3876 3148 
3 3152 9761 3153 
3 4208 4209 3159 
3 3310 3338 3188 
3 3227 4077 3228 
3 4089 9034 3240 
3 3241 4088 4087 
3 3242 4100 3243 
3 3453 8358 3242 
3 3249 4265 3250 
3 3915 4300 3291 
3 3931 5793 3296 
3 5185 5444 3320 
3 4106 4107 3364 
3 4107 4108 3364 
3 3379 5736 4410 
3 8706 9696 3428 
3 3441 3442 3440 
3 4078 4447 3504 
3 4229 4238 3510 
3 8334 8335 3512 
3 9036 9047 3530 
3 3531 3557 3556 
3 4009 5706 3546 
3 3587 5116 5115 
3 4849 5578 3597 
3 3626 9798 9171 
3 3706 3707 3705 
3 3705 7779 5784 
3 3713 3714 3712 
3 3713 9508 3721 
3 4242 8135 3724 
3 3788 8352 5149 
3 3802 4098 3801 
3 8367 9038 3804 
3 3828 3850 3829 
3 3828 4396 3850 
3 4287 4785 3877 
3 3878 4068 4067 
3 4900 4901 3969 
3 3974 8486 4931 
3 4550 4884 3981 
3 3993 4862 4136 
3 4001 4419 4011 
3 4013 5000 4012 
3 4028 9777 8248 
3 4058 5013 4919 
3 4059 10237 8991 
3 4712 5855 4066 
3 4070 4780 4071 
3 4087 9471 4616 
3 4094 8489 5122 
3 5145 5146 4102 
3 5168 8932 4124 
3 5184 8934 4136 
3 4864 4865 4209 
3 4220 4869 4460 
3 4252 9927 7691 
3 5169 5170 4269 
3 4749 5186 4277 
3 4365 5468 4364 
3 4365 8396 6610 
3 4383 5412 5411 
3 4410 9513 5510 
3 5117 5118 4447 
3 4447 9178 8546 
3 6407 7263 4455 
3 7827 10266 4464 
3 5768 8118 4467 
3 4476 8615 6490 
3 6491 6492 4478 
3 5772 7872 4485 
3 4945 4946 4512 
3 4517 4560 4518 
3 4528 4530 4529 
3 5365 5480 4548 
3 5325 6656 4563 
3 4581 10528 10067 
3 5242 7697 4780 
3 5256 6294 4781 
3 4804 7629 4805 
3 4847 8405 5358 
3 5319 5545 4860 
3 4868 5587 4866 
3 5587 7537 4866 
3 4877 5681 5680 
3 4885 11171 6978 
3 5431 5664 4920 
3 4943 5328 4944 
3 4945 9514 6444 
3 5460 5461 4946 
3 6469 6470 4979 
3 5560 9063 4992 
3 5003 7986 5001 
3 5042 8720 8719 
3 5064 6628 5981 
3 5070 5925 5924 
3 5075 5753 5073 
3 5074 5595 5101 
3 5109 5110 5108 
3 5112 7455 5980 
3 5124 5400 5169 
3 5124 6166 5400 
3 5142 8551 5143 
3 5928 5984 5152 
3 6137 6138 5170 
3 5186 6718 5187 
3 7545 7547 5200 
3 5210 7773 5208 
3 6770 8048 5241 
3 6265 7275 5256 
3 5338 7087 6401 
3 5371 7047 6644 
3 5375 7113 6346 
3 5462 6482 5461 
3 5468 8480 8111 
3 5470 9411 7556 
3 5496 5500 5494 
3 5567 8712 5566 
3 5589 10063 7867 
3 5593 6556 6555 
3 5595 6029 5946 
3 5623 9238 9117 
3 5630 5632 5631 
3 5638 5927 5791 
3 5649 9070 5717 
3 5669 6621 6620 
3 8764 9510 5669 
3 5741 5743 5740 
3 6340 7412 5741 
3 5776 6448 5768 
3 5786 5787 5785 
3 5811 9633 5814 
3 5842 10105 5844 
3 5844 7615 6786 
3 5892 6949 5891 
3 5905 6452 5904 
3 6200 6717 5949 
3 9064 9517 5986 
3 6002 6677 6676 
3 7063 7065 6011 
3 6048 6049 6047 
3 6139 6140 6138 
3 6144 11214 9568 
3 6305 6790 6477 
3 6939 6984 6327 
3 6463 9696 9150 
3 6478 9068 8602 
3 6484 8022 6486 
3 6489 9036 9035 
3 6491 8353 6494 
3 6587 6588 6495 
3 6563 9860 9418 
3 9051 10581 7005 
3 7039 7759 7201 
3 7532 7851 7140 
3 7282 8481 8480 
3 7327 7328 7326 
3 7426 7778 7428 
3 7441 7442 7440 
3 7538 8230 7537 
3 7626 9646 9150 
3 7637 7640 7639 
3 7637 9915 7640 
3 8026 9845 9742 
3 8172 8174 8173 
3 8178 8180 8177 
3 8248 9776 9274 
3 9072 10326 8284 
3 8926 9277 8323 
3 9542 9974 8329 
3 8406 10314 9642 
3 8512 8513 8473 
3 10381 10866 8493 
3 8766 8767 8546 
3 8629 10408 8628 
3 8629 9180 8823 
3 8675 8681 8678 
3 8679 9688 9602 
3 8762 9369 9144 
3 8989 8990 8987 
3 9042 9704 9632 
3 9323 9390 9328 
3 9363 10098 9475 
3 9453 10232 10229 
3 9765 10052 9515 
3 136 415 135 
3 476 8786 231 
3 235 7999 412 
3 6062 8525 1496 
3 1773 8610 1775 
3 2996 4031 3204 
3 3239 3355 3354 
3 3423 8419 3425 
3 3425 3993 3451 
3 3644 8482 8079 
3 3816 4276 4274 
3 3818 4599 3819 
3 3999 9441 8419 
3 4906 5271 4905 
3 5463 6179 5179 
3 5696 5697 5695 
3 8788 8789 556 
3 605 607 606 
3 625 626 624 
3 629 630 628 
3 631 632 630 
3 635 636 634 
3 657 658 656 
3 688 690 689 
3 696 698 697 
3 3470 8668 697 
3 698 700 699 
3 700 702 701 
3 710 711 707 
3 714 715 713 
3 8313 8691 725 
3 3407 9198 731 
3 829 3543 831 
3 832 2393 830 
3 831 8986 833 
3 836 8329 834 
3 4475 8887 922 
3 1038 1040 1037 
3 1041 1049 1040 
3 1050 1054 1049 
3 1073 1219 1072 
3 1206 1208 1207 
3 3418 3419 1208 
3 1220 1264 1219 
3 1297 1298 1278 
3 1356 1357 1290 
3 1351 1390 1298 
3 1418 1471 1444 
3 1425 5516 1477 
3 5654 8351 1618 
3 1681 3559 1638 
3 1654 1655 1653 
3 1680 1908 1848 
3 1957 1958 1849 
3 1875 2003 2001 
3 1911 10075 1913 
3 1932 1935 1934 
3 2003 2160 2159 
3 2025 8892 8891 
3 2045 2369 2368 
3 2066 9250 5626 
3 2069 4541 4540 
3 2085 2087 2086 
3 2117 2173 2118 
3 2130 9122 2133 
3 2154 6655 6096 
3 2160 2377 2376 
3 2176 5079 2173 
3 2174 2347 2346 
3 2276 2278 2277 
3 2278 2280 2279 
3 2339 2446 2445 
3 2499 9822 2529 
3 2536 9379 2707 
3 2747 10093 2804 
3 2783 8003 2781 
3 2796 8302 2798 
3 2925 2956 2801 
3 2995 9247 2996 
3 3420 8929 3203 
3 3204 8841 3421 
3 3238 3239 3237 
3 4300 4341 3291 
3 3410 9045 3816 
3 3421 3999 3423 
3 3424 8937 3422 
3 3450 8933 3424 
3 3428 9696 8361 
3 7178 8928 3432 
3 3443 9364 8631 
3 3446 8364 3444 
3 4003 4457 3450 
3 3475 8592 3473 
3 5044 9748 3608 
3 3646 9478 5991 
3 3655 3657 3656 
3 3677 3681 3657 
3 3781 4999 3782 
3 3812 4700 3795 
3 3809 9228 4272 
3 4271 4957 3810 
3 4275 4586 3817 
3 3879 9444 4303 
3 3891 4141 4140 
3 3913 3914 3912 
3 4291 4830 3914 
3 4370 4372 4371 
3 4432 4434 4433 
3 4982 5547 4457 
3 4462 5511 5096 
3 5767 5768 4467 
3 7409 7410 4515 
3 4742 6695 5190 
3 4891 4892 4752 
3 4789 6760 5224 
3 4792 6765 5225 
3 5314 8528 4822 
3 5615 8576 4824 
3 4957 7069 6168 
3 6151 8635 4982 
3 4994 5582 4995 
3 4998 9003 8379 
3 5001 7986 6463 
3 6704 6705 5176 
3 6202 6203 5199 
3 5440 7353 5319 
3 7381 7382 5416 
3 5473 6410 6256 
3 6951 7054 5558 
3 6642 6643 5712 
3 5789 10011 5787 
3 6267 6321 6266 
3 6313 6315 6314 
3 6925 6926 6315 
3 6396 10622 7563 
3 6659 9606 6576 
3 6821 6822 6774 
3 7671 7686 7661 
3 8948 10037 7713 
3 8056 8058 8057 
3 8058 8061 8059 
3 8281 9072 8284 
3 10074 10115 8711 
3 8931 8975 8930 
3 138 560 137 
3 577 579 578 
3 3625 9689 606 
3 1532 2141 1530 
3 1539 3791 1609 
3 2040 2329 2328 
3 2584 2586 2361 
3 2531 2772 2530 
3 2587 2778 2586 
3 2587 8948 2962 
3 2629 9719 8545 
3 2855 2857 2856 
3 2869 2871 2870 
3 4016 8193 4015 
3 5543 7847 4093 
3 4320 5512 5274 
3 4592 5313 4593 
3 4820 5853 5317 
3 6327 8144 4839 
3 5689 7315 5249 
3 5453 6253 5452 
3 6077 7877 5543 
3 5786 6213 5788 
3 6628 10585 5981 
3 6133 6175 6134 
3 6239 6708 6706 
3 7333 7335 7334 
3 9426 10433 9169 
3 1358 9802 1293 
3 1344 8995 1436 
3 1405 1415 1414 
3 1425 7980 5516 
3 1430 1459 1429 
3 1453 9161 1437 
3 1540 9297 1473 
3 1517 1612 1518 
3 1533 1535 1534 
3 1580 1632 1579 
3 1847 1974 1684 
3 4502 8424 1688 
3 1716 1718 1717 
3 1718 1720 1719 
3 1722 1724 1723 
3 1724 4015 1725 
3 1728 3532 1726 
3 1727 1740 1729 
3 1729 8645 1731 
3 1732 2000 1730 
3 1731 4425 1733 
3 1734 8862 1732 
3 1735 1738 1737 
3 1742 1744 1743 
3 1745 8923 1768 
3 1769 8893 1767 
3 1894 8965 1951 
3 1984 8321 1950 
3 2054 8902 2056 
3 2057 2486 2055 
3 2059 8646 2057 
3 2065 9241 3396 
3 2502 9939 9481 
3 2826 9666 2824 
3 2865 2969 2867 
3 2998 5603 4883 
3 3003 3624 3307 
3 3146 3147 3145 
3 3157 3918 3156 
3 3241 8615 4476 
3 3427 8647 8646 
3 3836 3838 3837 
3 3845 3846 3843 
3 3934 3936 3935 
3 9591 9837 4043 
3 4210 4850 4470 
3 4453 6516 6407 
3 5538 5539 4493 
3 4805 4836 4835 
3 4886 6383 4887 
3 5515 7986 5003 
3 5581 8286 5021 
3 9677 10348 5525 
3 5589 7867 5772 
3 5630 10224 5632 
3 5632 5633 5631 
3 8521 9838 5656 
3 5775 5973 5776 
3 10958 11047 6122 
3 6424 11012 6128 
3 6208 6210 6209 
3 6967 9491 6966 
3 7426 10858 7778 
3 7488 7975 7489 
3 8073 10452 10176 
3 8636 9911 8635 
3 767 9333 765 
3 1022 1023 905 
3 8759 8846 1095 
3 1240 2244 1238 
3 1303 1547 1263 
3 1398 8666 1424 
3 1457 4427 1423 
3 1586 9315 8014 
3 1595 1596 1594 
3 1736 8339 1734 
3 2190 2343 2196 
3 2392 2541 2540 
3 2851 2971 2853 
3 2953 3768 2954 
3 4737 4738 3589 
3 3621 4147 4146 
3 4046 8368 3766 
3 3992 4347 3991 
3 4732 5127 4139 
3 4770 7821 4182 
3 4574 5876 4577 
3 4840 5297 4839 
3 4841 5293 5240 
3 4867 4868 4866 
3 5422 8529 4890 
3 4919 5430 4920 
3 4934 5700 5653 
3 5792 6545 5076 
3 5333 5334 5332 
3 5750 6756 5513 
3 6410 6411 6256 
3 6439 6440 6359 
3 6419 7394 6418 
3 6641 7358 6426 
3 6440 7109 7068 
3 8108 9746 6457 
3 8565 9327 6542 
3 6553 8019 8018 
3 7632 10018 9757 
3 7656 7667 7658 
3 8307 8956 8306 
3 8342 9499 8344 
3 8450 9718 8434 
3 8656 8866 8657 
3 120 542 119 
3 4418 7972 1382 
3 1606 1607 1605 
3 1669 2694 1877 
3 1712 1714 1713 
3 1714 1716 1715 
3 2163 9027 2061 
3 9983 10303 2088 
3 2359 2552 2551 
3 2426 2690 2689 
3 2485 8350 2806 
3 2533 4607 4535 
3 4553 10496 2537 
3 2555 2929 2553 
3 2554 2556 2555 
3 2600 2602 2601 
3 7527 10509 2624 
3 3369 8761 2695 
3 2711 7711 3305 
3 8022 9396 3086 
3 8665 10114 3406 
3 3605 9627 8999 
3 3685 9885 9261 
3 3825 4166 3826 
3 4288 4289 3900 
3 3961 7721 5403 
3 4079 9650 8842 
3 4099 4710 4098 
3 4751 5761 4145 
3 4194 5375 5231 
3 4374 4376 4375 
3 4547 4548 4545 
3 4722 7620 4634 
3 4661 7965 4659 
3 4718 5016 4741 
3 4738 8913 5688 
3 4765 4767 4766 
3 4790 7059 5223 
3 6330 6331 4811 
3 5482 5483 4922 
3 5017 6522 5016 
3 5101 8072 5102 
3 5850 6622 5131 
3 6035 8551 5142 
3 5144 6530 6529 
3 5458 7910 5858 
3 7344 7345 5459 
3 5579 6412 6013 
3 5595 9282 9056 
3 5751 7147 5752 
3 5786 5788 5787 
3 5808 5811 5807 
3 6434 9706 6374 
3 6410 7180 6411 
3 9442 9518 6512 
3 6621 9510 8373 
3 7381 7383 7382 
3 7737 9563 9562 
3 7753 10250 10071 
3 7889 7892 7891 
3 7912 7914 7913 
3 7918 7920 7919 
3 8341 9509 8938 
3 8905 9258 8906 
3 9069 9974 9542 
3 585 587 586 
3 778 8526 776 
3 805 9669 1075 
3 1062 1064 1063 
3 1557 7589 1558 
3 1840 1841 1629 
3 2142 2364 2143 
3 2480 2481 2479 
3 2533 5994 4607 
3 4215 8423 3165 
3 3671 3672 3670 
3 8719 8953 3675 
3 3742 4044 3744 
3 4113 8719 3757 
3 3793 4239 3792 
3 4316 4317 3871 
3 4074 4571 4570 
3 4096 4104 4097 
3 4220 4459 4118 
3 5171 5172 4255 
3 5095 5983 4267 
3 4294 4811 4293 
3 4337 4893 4398 
3 4524 4526 4525 
3 5712 6508 5092 
3 5153 6022 5154 
3 5351 6750 6749 
3 5657 8521 5656 
3 6201 7862 5670 
3 5709 9223 8079 
3 6428 6429 5810 
3 5833 9408 5834 
3 6321 6322 6266 
3 6733 6734 6732 
3 7171 7173 7172 
3 7892 7893 7891 
3 8436 8438 8437 
3 8799 9304 9303 
3 9245 9246 9244 
3 126 487 125 
3 579 580 578 
3 2203 9827 2210 
3 6355 7089 2378 
3 2402 8257 2419 
3 2430 2431 2407 
3 2491 2492 2490 
3 2562 8105 2564 
3 3263 3960 3959 
3 3666 9615 3664 
3 3963 6417 5562 
3 4953 4954 4952 
3 6451 6597 5051 
3 6597 8119 5051 
3 5327 7122 5976 
3 5388 5746 5401 
3 5533 8097 7684 
3 6276 6278 6277 
3 6285 8239 7786 
3 6335 7368 6334 
3 7433 7435 7434 
3 142 561 141 
3 849 8581 903 
3 1386 8715 1345 
3 2323 2324 2072 
3 7567 10444 2091 
3 2487 9584 4074 
3 2564 2566 2565 
3 2838 2840 2839 
3 2951 8615 3241 
3 2964 3346 3248 
3 3174 4002 3199 
3 3257 3259 3258 
3 3269 3271 3270 
3 3309 5368 3634 
3 7845 10387 3632 
3 3676 9950 3651 
3 4048 4569 3681 
3 3944 5837 3943 
3 4181 4756 4180 
3 4343 5035 5006 
3 5264 7396 4663 
3 5483 5906 4922 
3 4997 6398 5051 
3 5331 5332 5210 
3 5257 6265 5256 
3 5281 7206 5279 
3 6143 6176 5392 
3 6024 7062 7061 
3 7026 7028 7027 
3 7506 7508 7505 
3 8038 8040 8037 
3 8131 9119 9004 
3 9136 9585 9137 
3 144 407 143 
3 148 460 147 
3 232 476 231 
3 522 9077 9076 
3 603 604 602 
3 611 612 610 
3 725 8691 728 
3 730 8983 732 
3 734 8669 736 
3 839 840 838 
3 839 8129 1563 
3 844 9317 2230 
3 5650 8518 1141 
3 1153 8483 3561 
3 1225 8415 8414 
3 1605 8890 1602 
3 1616 9232 1661 
3 1797 1826 1795 
3 1907 2014 2013 
3 2438 2439 2334 
3 2405 2422 2421 
3 2431 2433 2432 
3 2442 11197 2538 
3 2566 2568 2567 
3 2870 3197 2868 
3 2876 2877 2874 
3 2878 2880 2877 
3 3293 3885 3884 
3 9241 9242 3396 
3 5784 9685 3703 
3 3716 3722 3718 
3 3968 9411 5470 
3 4336 9267 4579 
3 4570 9617 5038 
3 4864 5894 5893 
3 4927 5724 5723 
3 5098 6531 5522 
3 5394 6758 5272 
3 5274 7367 5273 
3 6286 6317 5323 
3 5334 7526 5332 
3 6195 7354 5443 
3 9044 9061 5659 
3 5848 9548 5727 
3 6335 9267 7370 
3 6391 9839 7577 
3 6392 7551 7164 
3 7649 7675 7647 
3 9441 9639 7895 
3 8333 9394 8334 
3 109 474 108 
3 111 562 110 
3 118 438 117 
3 488 8744 132 
3 194 551 193 
3 239 448 238 
3 293 563 292 
3 1047 1048 1029 
3 8450 8899 1990 
3 2451 5119 2222 
3 2487 4073 2325 
3 2630 4201 2629 
3 3298 3299 3102 
3 3121 3123 3122 
3 3495 8065 3493 
3 3496 3609 3498 
3 3497 4899 4898 
3 3555 4343 4342 
3 3671 3680 3673 
3 4280 4281 3851 
3 3922 8807 4335 
3 4334 4336 3923 
3 4947 4948 4240 
3 4804 4805 4308 
3 4355 4845 4356 
3 4899 5449 4898 
3 5052 5053 4984 
3 5343 5345 5344 
3 6338 11287 5368 
3 5372 7192 6811 
3 8157 9603 5581 
3 5674 8566 8300 
3 6419 7416 7394 
3 6684 6685 6682 
3 6684 6686 6685 
3 8269 8270 8267 
3 8720 10043 9595 
3 8906 9163 8972 
3 60 508 59 
3 579 581 580 
3 1058 1211 1060 
3 1064 8958 1226 
3 2532 8154 2341 
3 2395 9731 8563 
3 2523 3613 2424 
3 2702 2979 2700 
3 2818 2831 2830 
3 2948 3687 2947 
3 3390 9697 9397 
3 4096 4097 3773 
3 3860 4190 4189 
3 4904 4905 3887 
3 3978 4495 4494 
3 5009 9627 4245 
3 4617 9049 5614 
3 4698 7928 4625 
3 4681 4786 4679 
3 5008 5010 5009 
3 5010 5913 5012 
3 5135 8573 5011 
3 5078 9884 6350 
3 5290 10105 5546 
3 5340 7874 5351 
3 6593 6594 5408 
3 5637 10360 10216 
3 5808 9633 5811 
3 5951 7564 5953 
3 8408 8409 6323 
3 7443 7444 7442 
3 8266 8269 8267 
3 125 8699 124 
3 617 9159 3599 
3 869 888 827 
3 869 3448 889 
3 1070 1071 1057 
3 4566 7946 1063 
3 7839 10340 1166 
3 1523 8338 3727 
3 1710 1711 1709 
3 1825 10811 4542 
3 2695 8761 1877 
3 1946 2045 2044 
3 1976 2149 1975 
3 5779 9749 2135 
3 8330 10015 2393 
3 8838 9037 2416 
3 2426 2689 2688 
3 2469 3312 3311 
3 2703 2704 2507 
3 2579 7846 3359 
3 7483 10732 2609 
3 2659 8247 2662 
3 2693 7734 2691 
3 2804 3729 3227 
3 2851 7887 2971 
3 2855 2856 2854 
3 2857 2858 2856 
3 2865 2866 2864 
3 2873 2874 2872 
3 3011 9035 3010 
3 3023 3772 3024 
3 3085 3619 3618 
3 3085 8377 4996 
3 3194 9853 3192 
3 3220 4121 4120 
3 3252 4126 3251 
3 3253 5077 3255 
3 3312 4346 4345 
3 4583 8395 3312 
3 4410 4978 3380 
3 3511 4229 3510 
3 4416 4895 3539 
3 3617 9148 4251 
3 3668 3670 3666 
3 3674 3756 3675 
3 3772 4095 3773 
3 3850 3992 3991 
3 3863 4287 3877 
3 3878 4067 4066 
3 7962 10572 4061 
3 8372 9510 4062 
3 5059 9057 4227 
3 4562 4876 4561 
3 4751 5762 5761 
3 4815 5232 4816 
3 4941 9061 9044 
3 4993 9047 5649 
3 5055 5832 5831 
3 5064 8064 6628 
3 5070 8397 5925 
3 5084 5969 5637 
3 5099 6001 5975 
3 5185 6712 5444 
3 5462 6483 6482 
3 5569 5571 5570 
3 5717 9068 5624 
3 5739 9176 7981 
3 5764 5765 5763 
3 5970 5971 5969 
3 6046 6047 6045 
3 6050 6052 6051 
3 6072 6073 6071 
3 6285 6877 6284 
3 6475 8766 8546 
3 6478 9492 8348 
3 8216 8217 6864 
3 7103 7104 7102 
3 7158 7732 7156 
3 7171 7172 7170 
3 7977 7978 7176 
3 10096 10583 7388 
3 7611 7614 7612 
3 8030 9734 9607 
3 8342 8344 8343 
3 115 512 114 
3 230 553 229 
3 823 2313 821 
3 879 8293 1888 
3 1177 3386 1172 
3 1403 1433 1402 
3 1434 1464 1433 
3 5503 9477 1493 
3 2040 2328 2327 
3 2158 7708 2156 
3 3721 3970 3969 
3 4450 5535 5014 
3 5155 8112 4987 
3 5836 10320 10139 
3 6731 6732 6730 
3 106 492 105 
3 133 488 132 
3 140 467 139 
3 1399 9088 594 
3 639 8659 1203 
3 1197 1231 1196 
3 1245 1247 1246 
3 3569 8053 1245 
3 1404 7932 1416 
3 1514 1515 1505 
3 1514 1516 1515 
3 3839 9162 1515 
3 1516 1542 1541 
3 1523 1525 1524 
3 1525 1527 1526 
3 1527 1529 1528 
3 1529 1531 1530 
3 1531 3803 1533 
3 1608 1610 1538 
3 1542 1580 1579 
3 1590 1591 1545 
3 1656 1657 1610 
3 1633 1665 1632 
3 1637 10298 1680 
3 1679 1850 1678 
3 1881 1909 1880 
3 1911 1912 1910 
3 1913 2672 1915 
3 1916 1917 1914 
3 1921 1922 1920 
3 1923 1924 1922 
3 1927 3800 1933 
3 2017 2018 2016 
3 2020 2021 2018 
3 2020 2022 2021 
3 2022 2024 2023 
3 2077 2379 2076 
3 2278 9145 2280 
3 2299 7760 2296 
3 7761 7762 2298 
3 2301 9755 2299 
3 2303 2308 2301 
3 2302 2304 2303 
3 2302 2309 2304 
3 2476 2482 2318 
3 2337 2406 2336 
3 2349 2498 2350 
3 2499 2528 2350 
3 2528 10056 2350 
3 2402 2418 2417 
3 2447 4432 2620 
3 2450 2536 2535 
3 2770 7421 2528 
3 2930 2993 2640 
3 2705 3701 2920 
3 2999 3000 2784 
3 2867 2869 2868 
3 3341 3345 3000 
3 3114 3115 3050 
3 3115 3116 3050 
3 3115 3117 3116 
3 3117 3118 3116 
3 3117 3119 3118 
3 3157 5023 4822 
3 3185 3984 3983 
3 3185 3985 3984 
3 3234 9321 4055 
3 3892 3893 3279 
3 3835 3836 3290 
3 3345 3989 3988 
3 3606 3607 3419 
3 4299 6520 3437 
3 3509 3511 3510 
3 3662 3663 3660 
3 3701 3883 3861 
3 3732 9665 4266 
3 3800 6113 4725 
3 3844 3845 3843 
3 3859 4882 4881 
3 3869 4302 3903 
3 8055 8056 4010 
3 4369 5798 4367 
3 5445 5656 4496 
3 4600 4733 4730 
3 5958 5963 4605 
3 5451 5452 4793 
3 4797 9249 5255 
3 4823 8528 5312 
3 6314 10103 4831 
3 5046 7876 6567 
3 5050 9378 9377 
3 5238 6775 5237 
3 5274 8115 7367 
3 5455 5879 5878 
3 5620 6515 6076 
3 5973 5974 5776 
3 5776 8510 6448 
3 5866 7262 6355 
3 6242 6255 6241 
3 6356 8312 6357 
3 6456 6457 6455 
3 6516 9890 7067 
3 7644 7663 7646 
3 7774 9791 8942 
3 8138 8139 8137 
3 8202 8203 8200 
3 8465 8467 8466 
3 621 623 622 
3 1112 3600 1114 
3 1366 8585 8584 
3 1672 1678 1671 
3 3592 9826 1842 
3 1889 5520 2046 
3 2580 2737 2736 
3 3855 3856 2983 
3 3005 3383 3006 
3 3918 8576 3156 
3 3624 8970 3307 
3 4129 8972 3821 
3 3927 4331 3926 
3 5273 5275 4319 
3 4320 5274 5273 
3 4774 4808 4807 
3 5150 6665 6664 
3 5525 7043 5429 
3 5659 6006 5957 
3 6210 6937 6209 
3 7081 7142 7079 
3 7512 7514 7513 
3 8774 8775 8594 
3 198 7879 197 
3 297 7880 296 
3 623 625 624 
3 804 4451 659 
3 660 663 662 
3 663 665 664 
3 665 667 666 
3 1500 1700 669 
3 672 709 674 
3 677 1589 675 
3 685 799 683 
3 689 8825 687 
3 690 3794 692 
3 693 8980 691 
3 692 9197 694 
3 695 751 693 
3 8387 9313 858 
3 862 5654 1618 
3 1096 1098 1097 
3 1098 1100 1099 
3 1137 8333 3512 
3 1145 1146 1144 
3 1170 1175 1172 
3 1239 1291 1241 
3 1256 1258 1254 
3 1255 1289 1257 
3 1259 1260 1258 
3 1286 1287 1262 
3 1354 1355 1287 
3 1353 4428 1385 
3 1469 1617 1446 
3 1503 2412 1583 
3 1507 1582 1543 
3 3564 9338 1554 
3 1702 9483 4504 
3 1802 1804 1803 
3 1842 1966 1843 
3 3311 8762 1996 
3 2009 8868 2074 
3 2368 9012 2044 
3 2333 2334 2075 
3 2080 3623 2078 
3 2120 8346 3054 
3 2122 2123 2121 
3 2124 2125 2123 
3 2125 2128 2127 
3 2128 2130 2129 
3 2132 2136 2134 
3 2366 2463 2367 
3 2466 8879 2367 
3 2464 2734 2463 
3 2465 9090 2467 
3 2521 2719 2520 
3 2625 2626 2539 
3 2650 8147 3205 
3 3015 3207 2669 
3 2729 3037 3017 
3 2804 2805 2748 
3 3227 3228 2805 
3 2831 2847 2846 
3 2852 4133 2850 
3 2883 2884 2882 
3 2922 3003 2923 
3 3002 4213 4212 
3 3531 3556 3012 
3 3019 8764 3018 
3 3063 9204 3065 
3 3066 4085 3064 
3 3068 3070 3069 
3 3482 8839 3070 
3 4028 8248 3074 
3 3210 3403 3076 
3 3533 3996 3186 
3 3338 9175 3188 
3 3441 8362 3930 
3 8161 8162 3470 
3 3557 4412 3556 
3 3617 4250 3616 
3 9765 9778 3635 
3 3637 9050 8205 
3 3695 3696 3694 
3 3714 3715 3712 
3 3915 4802 4300 
3 4932 5417 3994 
3 4042 5048 4498 
3 8279 8372 4062 
3 4070 5242 4780 
3 4083 8280 8279 
3 4085 9072 8685 
3 7786 8239 4390 
3 4615 8622 6573 
3 5207 7505 4670 
3 4715 5150 4716 
3 5290 5546 4819 
3 4993 5624 5560 
3 5002 5004 5003 
3 5566 6510 5028 
3 5029 5568 5567 
3 6484 6486 5059 
3 5059 9176 9057 
3 5081 8770 5082 
3 7282 8480 5468 
3 8712 9073 5566 
3 5648 6489 5647 
3 5739 6528 5738 
3 5900 6631 5901 
3 6088 6142 6087 
3 6153 6155 6154 
3 6552 9207 6553 
3 6943 6944 6942 
3 7691 7692 7688 
3 7851 9010 7852 
3 10038 10361 8101 
3 8281 8282 8280 
3 8626 8631 8627 
3 8674 8681 8675 
3 8675 8678 8677 
3 8678 9688 8679 
3 9319 9323 8879 
3 9274 9704 9042 
3 9674 10311 9774 
3 104 564 103 
3 547 8495 154 
3 199 494 198 
3 425 8648 275 
3 515 8755 288 
3 298 495 297 
3 881 8886 1696 
3 891 892 890 
3 904 1022 905 
3 938 9152 936 
3 2415 8759 1097 
3 1634 3598 1559 
3 1824 1833 1825 
3 2060 2062 2061 
3 2325 9586 2220 
3 2331 2495 2401 
3 2427 8905 2622 
3 2428 9258 8905 
3 2492 7527 2490 
3 2634 2637 2632 
3 2953 3769 3768 
3 3315 3922 3316 
3 3678 3679 3672 
3 4142 4143 3962 
3 4731 4732 4139 
3 4144 4750 4145 
3 4611 6625 5253 
3 4652 9770 4654 
3 5447 5448 4974 
3 5012 5136 5135 
3 8368 8369 5043 
3 6003 6030 5126 
3 6392 7164 5539 
3 6072 6162 6074 
3 10755 10895 6119 
3 8079 8080 6336 
3 6415 7127 7126 
3 8375 9642 6452 
3 6501 9066 9065 
3 6504 6505 6502 
3 6867 6869 6868 
3 7268 7269 7266 
3 7404 9016 7403 
3 129 421 128 
3 146 545 145 
3 151 546 150 
3 153 402 152 
3 155 547 154 
3 157 461 156 
3 162 409 161 
3 164 548 163 
3 166 462 165 
3 168 513 167 
3 173 485 172 
3 175 549 174 
3 177 424 176 
3 180 489 179 
3 187 9525 186 
3 188 442 187 
3 190 550 189 
3 192 463 191 
3 201 566 200 
3 205 497 204 
3 212 447 211 
3 214 552 213 
3 217 439 216 
3 222 431 221 
3 225 490 224 
3 228 422 227 
3 245 554 244 
3 247 451 246 
3 250 555 249 
3 252 403 251 
3 254 556 253 
3 256 464 255 
3 261 410 260 
3 263 557 262 
3 265 465 264 
3 267 514 266 
3 272 486 271 
3 274 558 273 
3 276 425 275 
3 279 491 278 
3 287 443 286 
3 289 515 288 
3 291 466 290 
3 8253 8254 543 
3 903 1094 1093 
3 3438 9172 1096 
3 1110 1112 1111 
3 1114 1116 1115 
3 1351 3518 1391 
3 1813 1814 1812 
3 1817 1819 1818 
3 2204 3008 2202 
3 2510 2511 2509 
3 2774 2775 2532 
3 2816 2818 2817 
3 3329 3898 3331 
3 5562 8299 3377 
3 8355 8911 3541 
3 3621 4146 4144 
3 3786 3787 3785 
3 4156 5180 3833 
3 4303 4304 3880 
3 3886 4314 3888 
3 4328 4414 4339 
3 5078 6350 4341 
3 4376 4972 4810 
3 4676 4678 4677 
3 4682 4684 4683 
3 4972 6365 5221 
3 6132 6133 5163 
3 5368 11287 11217 
3 5423 9335 7267 
3 6337 6988 5433 
3 5927 7834 5791 
3 5852 5988 5987 
3 6028 7449 5995 
3 6050 6051 6049 
3 6081 6082 6080 
3 6308 6908 6309 
3 6373 7107 6375 
3 6524 9497 9110 
3 6525 9110 9109 
3 9245 9454 9246 
3 809 8507 807 
3 853 854 852 
3 1124 1127 1125 
3 1179 1183 1182 
3 1459 3932 1429 
3 1966 2078 1967 
3 1992 2144 1991 
3 2145 2358 2144 
3 2470 2472 2245 
3 9244 9246 2362 
3 2556 2558 2557 
3 2814 2816 2815 
3 2847 2976 2932 
3 3778 3779 2988 
3 8133 9796 3089 
3 3131 7588 3117 
3 3287 4183 3908 
3 3545 7152 5354 
3 4111 4112 3757 
3 3865 3899 3866 
3 3890 4319 3891 
3 3890 4320 4319 
3 4115 4117 4116 
3 4175 4176 4174 
3 4760 4770 4182 
3 4186 4763 4284 
3 4288 4817 4289 
3 4337 9182 4893 
3 4560 4561 4518 
3 4526 8595 4528 
3 4774 4807 4773 
3 4778 6258 6257 
3 6289 6290 4806 
3 4838 4840 4839 
3 5512 5513 5274 
3 5697 5698 5695 
3 5705 8091 7072 
3 5894 7007 5893 
3 5947 6039 5935 
3 6083 6086 6085 
3 559 7994 11 
3 8399 8400 448 
3 581 3100 583 
3 730 732 731 
3 1746 8983 730 
3 732 734 733 
3 734 736 735 
3 4487 8669 734 
3 736 738 737 
3 1394 9199 737 
3 741 9312 8984 
3 839 1563 841 
3 841 8992 843 
3 3455 9309 1129 
3 1141 1144 1140 
3 1147 1152 1146 
3 1161 1162 1158 
3 1193 3219 1214 
3 1231 8525 1196 
3 1456 4488 1394 
3 1406 8672 1447 
3 1420 8133 1407 
3 1555 1620 1510 
3 1641 8830 1555 
3 1574 4210 1635 
3 1620 8681 8674 
3 4470 10341 1635 
3 1883 9243 1993 
3 2037 2072 1900 
3 2110 10801 10148 
3 2242 9428 2373 
3 2734 9091 2463 
3 2675 2676 2494 
3 2677 8067 2494 
3 2590 2751 2589 
3 2982 3854 3378 
3 2985 2987 2986 
3 3079 9499 8342 
3 3297 3931 3296 
3 3359 3995 3994 
3 3383 9227 4050 
3 3479 3480 3478 
3 8546 8767 3504 
3 6468 9643 3565 
3 3695 4191 3879 
3 3796 3812 3795 
3 4331 4362 3926 
3 3970 4900 3969 
3 4565 4760 4182 
3 4186 4284 4283 
3 5097 5098 4242 
3 4585 7587 4256 
3 4763 4772 4284 
3 4314 5372 5277 
3 4318 6499 5222 
3 7410 9681 4515 
3 5931 6026 4620 
3 4807 5427 4773 
3 4782 5256 4781 
3 4918 5733 5523 
3 5625 5642 5336 
3 5380 5584 5382 
3 5392 7305 6397 
3 5575 8397 5573 
3 7061 9621 5734 
3 5781 5783 5782 
3 5985 7731 6058 
3 6248 6850 6849 
3 6797 6818 6796 
3 7287 7296 7288 
3 8682 8683 8681 
3 470 8183 96 
3 321 8496 430 
3 573 4295 575 
3 587 2534 589 
3 599 1878 601 
3 612 875 610 
3 1888 1998 884 
3 1467 3388 1489 
3 1548 2646 1569 
3 1698 7882 4482 
3 4015 9559 1725 
3 1804 1806 1803 
3 1853 1989 1852 
3 2067 8924 2356 
3 2170 2172 2171 
3 2293 2310 2295 
3 2296 2298 2294 
3 2297 3639 2300 
3 2315 10912 7122 
3 2546 2548 2355 
3 2422 2616 2421 
3 2507 3216 2505 
3 2518 9565 2516 
3 3544 9380 2547 
3 2550 2730 2641 
3 3774 8105 2562 
3 2592 2941 2591 
3 2997 9334 2680 
3 2720 2899 2898 
3 2730 3168 2731 
3 2849 2851 2850 
3 2886 8100 2889 
3 6389 7904 2911 
3 2942 3483 2941 
3 3048 4536 3046 
3 4031 8841 3204 
3 3253 3254 3252 
3 3513 3515 3514 
3 9303 9304 3558 
3 4963 5033 3598 
3 3938 3940 3939 
3 4099 6342 6341 
3 4287 5735 5230 
3 4392 9725 7927 
3 4417 4538 4416 
3 4745 6737 6736 
3 5160 5392 4985 
3 5066 5873 5065 
3 6030 6031 5126 
3 5173 6161 6000 
3 5285 6271 5286 
3 8696 8697 5498 
3 5955 6623 5537 
3 5616 5618 5617 
3 9233 9305 5617 
3 5684 5686 5685 
3 5880 10922 10898 
3 6032 6509 6031 
3 7213 10871 10023 
3 8019 9452 8994 
3 8799 10121 9304 
3 498 570 569 
3 577 578 576 
3 600 3770 598 
3 622 794 620 
3 879 1888 884 
3 899 4029 909 
3 1017 8209 4499 
3 1026 1074 1051 
3 1294 1361 1300 
3 1465 8050 1433 
3 1434 1467 1466 
3 1464 9678 4461 
3 3532 8861 1726 
3 7858 8610 1773 
3 1811 7971 1813 
3 1813 1822 1816 
3 1819 1820 1818 
3 1865 1866 1830 
3 2058 2060 2059 
3 5602 9298 2198 
3 8126 9863 2207 
3 2214 9585 9136 
3 2721 2774 2532 
3 2593 8319 4973 
3 2733 3174 3173 
3 2743 4848 3597 
3 3015 3226 3208 
3 3538 3540 3200 
3 3220 4521 4121 
3 8575 9842 3401 
3 3545 8325 7152 
3 10419 10682 3590 
3 3750 3865 3753 
3 3945 3946 3944 
3 4025 4480 4479 
3 4127 8594 8503 
3 4283 5229 4806 
3 4348 4350 4349 
3 4393 9285 8966 
3 4415 4417 4416 
3 4480 5564 5563 
3 6063 8939 4715 
3 4818 5289 4819 
3 5597 5598 4923 
3 5797 6654 4966 
3 5372 6811 6759 
3 5435 6362 5437 
3 5956 5965 5448 
3 5489 5498 5487 
3 5749 5750 5513 
3 5598 10730 9703 
3 5792 9917 9741 
3 5921 8663 6557 
3 6292 6865 6371 
3 6538 8776 8775 
3 8896 8936 8895 
3 20 8714 19 
3 3904 7405 579 
3 895 896 894 
3 1018 1019 907 
3 949 8856 951 
3 1010 8858 8856 
3 3386 8422 1172 
3 1180 1185 1184 
3 1185 1195 1192 
3 1233 1299 1276 
3 1345 1382 1283 
3 1363 9287 7776 
3 1792 1793 1791 
3 1794 1795 1793 
3 1796 1797 1795 
3 2079 2386 2178 
3 2181 2935 2179 
3 2418 2617 2417 
3 2493 2675 2494 
3 2566 8087 2568 
3 2579 3359 3358 
3 2697 2975 2699 
3 2752 8705 4381 
3 2814 2978 2816 
3 2859 2861 2860 
3 3103 3870 3105 
3 3288 4377 4296 
3 3486 4226 3484 
3 3490 3491 3488 
3 3709 4543 3707 
3 3772 4344 4095 
3 3831 4724 3823 
3 3870 4316 3871 
3 5076 8368 4046 
3 4057 5069 4514 
3 4181 7144 4758 
3 4183 5402 5214 
3 4860 6089 4214 
3 7504 9668 4222 
3 4285 5247 4815 
3 5468 8111 4364 
3 8878 9642 4403 
3 8025 8026 4471 
3 5565 9866 4479 
3 4500 8340 8339 
3 8656 8894 4510 
3 4571 4572 4570 
3 4623 4696 4622 
3 5241 6310 4842 
3 4855 5419 4856 
3 5152 5166 4868 
3 4970 6435 4969 
3 5434 5880 4975 
3 4990 5330 4988 
3 6522 8912 5016 
3 5601 9443 5020 
3 5979 6600 5330 
3 5486 5497 5488 
3 5490 5493 5492 
3 6399 6400 5491 
3 7517 10390 5501 
3 5511 6115 6114 
3 7165 9576 5539 
3 7599 8633 5565 
3 5657 8523 8522 
3 5766 6189 5852 
3 5783 9951 7834 
3 5809 6431 6428 
3 6429 6430 5810 
3 6655 11150 11040 
3 6767 6844 6843 
3 10737 11068 6976 
3 7533 10443 9874 
3 7644 7646 7645 
3 8189 8191 8190 
3 113 444 112 
3 8400 8642 448 
3 601 602 600 
3 613 614 612 
3 847 8581 849 
3 899 9296 4029 
3 1366 8584 1110 
3 1163 1167 1164 
3 1174 1179 1178 
3 3344 9251 1174 
3 1183 1186 1182 
3 1183 9251 7038 
3 1237 1238 1236 
3 1239 1240 1238 
3 1241 1242 1240 
3 1245 1246 1244 
3 1255 1256 1254 
3 8996 9476 1287 
3 1294 1300 1293 
3 1361 9287 1300 
3 1354 1396 1355 
3 1363 1403 1402 
3 1398 1423 1396 
3 1432 4408 1401 
3 1403 1434 1433 
3 1424 1457 1423 
3 1434 1466 1464 
3 1458 1502 1457 
3 1518 1522 1463 
3 1503 1572 1502 
3 1523 1524 1522 
3 1529 1530 1528 
3 1528 8015 7963 
3 1531 1532 1530 
3 1533 1534 1532 
3 1536 9254 5663 
3 3562 9254 1610 
3 1643 1875 1644 
3 1656 1873 1657 
3 1673 1953 1882 
3 1737 8256 1741 
3 1751 4484 1753 
3 1764 2232 1861 
3 9484 9485 1772 
3 1777 1779 1778 
3 3079 8342 1777 
3 1779 1781 1780 
3 1798 1800 1799 
3 1822 8319 1831 
3 1824 3361 1833 
3 1872 9299 2753 
3 1898 2027 1899 
3 2028 2029 1899 
3 2009 2010 1955 
3 2151 2229 1973 
3 1994 3472 2197 
3 2027 2322 2028 
3 2034 2035 2033 
3 2094 2097 2096 
3 2162 2425 2161 
3 2208 4404 2206 
3 2317 8350 2485 
3 2329 2341 2328 
3 2377 8229 2789 
3 2402 2419 2418 
3 8651 9751 2414 
3 2419 2496 2420 
3 2745 2746 2582 
3 2585 2728 2583 
3 2606 2607 2605 
3 2607 3788 3395 
3 3435 3436 2684 
3 2808 8926 2685 
3 2697 2698 2693 
3 2699 2761 2698 
3 2711 3305 2763 
3 2717 2907 2718 
3 2729 3016 2728 
3 2746 2782 2781 
3 3246 9277 2808 
3 2810 3022 3021 
3 2840 2841 2839 
3 2841 8021 4125 
3 2847 2931 2846 
3 2861 2862 2860 
3 2872 8641 8640 
3 2883 2885 2884 
3 2933 3322 2934 
3 2937 8692 3202 
3 2945 3416 3217 
3 3218 8706 2946 
3 3269 3270 2977 
3 2993 9502 3689 
3 3804 9038 3021 
3 10307 10568 3051 
3 3170 5399 3318 
3 3295 3296 3224 
3 3246 9038 8383 
3 3301 9501 5916 
3 7711 9644 3305 
3 3329 3330 3328 
3 3783 3784 3375 
3 3963 5562 3377 
3 3388 5505 4402 
3 3435 8926 8323 
3 3760 3761 3436 
3 3472 3474 3473 
3 3489 4005 4004 
3 3503 10870 10834 
3 3505 5551 3507 
3 3538 4912 3540 
3 3761 3763 3762 
3 3763 3765 3764 
3 3765 3767 3766 
3 4097 9614 3773 
3 4269 8367 3804 
3 4901 10144 3969 
3 4479 9866 4026 
3 5018 5019 4036 
3 4042 4497 4041 
3 4067 4712 4066 
3 4094 5120 4093 
3 4100 5144 5142 
3 5143 7573 4101 
3 5335 6127 4130 
3 4151 4152 4150 
3 4165 6173 4735 
3 4166 8653 4748 
3 5181 5670 4167 
3 4231 4233 4232 
3 4231 4980 4233 
3 4361 5370 4446 
3 4379 5296 4378 
3 4417 5593 5442 
3 4498 5032 4497 
3 4533 4703 4534 
3 4549 5890 5366 
3 4713 4715 4714 
3 4748 9157 9060 
3 4972 5221 4810 
3 5356 5639 4884 
3 4919 8378 5430 
3 5047 7936 6564 
3 5101 5102 5075 
3 5946 8072 5101 
3 6449 6627 5114 
3 5948 6012 5146 
3 5278 9844 6752 
3 5505 6424 6128 
3 5530 5531 5529 
3 5591 6011 5590 
3 5665 5666 5664 
3 5667 5668 5666 
3 5825 7799 5823 
3 5832 5904 5831 
3 6583 6584 5872 
3 5909 6480 5910 
3 5909 6633 6480 
3 5934 5936 5935 
3 6012 6519 6518 
3 6070 6071 6069 
3 6084 7355 6081 
3 6140 9518 9442 
3 6346 6860 6295 
3 6349 6395 6394 
3 6436 8612 8344 
3 6502 9283 6501 
3 6624 10880 9794 
3 8033 10290 6657 
3 6660 11023 10618 
3 6988 7024 6989 
3 10155 10851 7108 
3 7667 9424 7658 
3 7692 7693 7688 
3 7689 7753 7690 
3 9807 9906 8501 
3 9269 9907 8692 
3 9342 9874 9758 
3 8455 8456 603 
3 766 767 765 
3 765 9333 8556 
3 783 8541 782 
3 785 787 786 
3 789 791 790 
3 791 796 792 
3 928 929 926 
3 999 1000 996 
3 1065 5605 1066 
3 1173 4221 1168 
3 1344 1436 1386 
3 1383 1551 1382 
3 1754 8562 1752 
3 1756 1760 1754 
3 1826 8016 1795 
3 2180 3357 2182 
3 2633 3264 2635 
3 2820 2822 2821 
3 2824 8475 2821 
3 3313 3315 2992 
3 3045 3055 3047 
3 3357 7743 7742 
3 7846 8109 3359 
3 3523 3546 3476 
3 4035 4036 3563 
3 3678 3956 3679 
3 3680 3683 3682 
3 3715 9231 9230 
3 3733 3734 3732 
3 5865 9570 4004 
3 4039 9270 5055 
3 4110 5760 5140 
3 5039 9732 4206 
3 5533 5536 4429 
3 5024 5025 4491 
3 4840 9919 5297 
3 4889 5422 4890 
3 4890 8529 5040 
3 5011 5930 5009 
3 5580 5581 5021 
3 6110 7073 5141 
3 5344 10633 5342 
3 5428 5429 5425 
3 6679 6680 5613 
3 9618 9727 5716 
3 5905 6453 6452 
3 6479 9637 8315 
3 6683 6684 6682 
3 9457 10184 7559 
3 7660 7668 7662 
3 7998 8527 7997 
3 8432 8450 8434 
3 477 8794 330 
3 632 634 633 
3 3459 8977 633 
3 642 8978 757 
3 645 646 644 
3 647 648 646 
3 649 650 648 
3 716 717 715 
3 754 10191 749 
3 770 772 769 
3 796 800 797 
3 814 868 816 
3 834 8330 832 
3 833 1692 835 
3 837 8129 839 
3 925 3463 927 
3 1015 1020 1014 
3 1031 9550 1033 
3 1033 1036 1035 
3 1053 8332 3445 
3 1088 8586 1205 
3 3505 3506 1361 
3 1436 1441 1437 
3 1451 9857 8235 
3 1474 1504 1473 
3 1504 9162 6192 
3 1548 1568 1547 
3 1569 1594 1568 
3 4354 7700 1609 
3 1861 1973 1765 
3 1774 9484 1772 
3 2007 3317 2104 
3 2040 2327 2039 
3 2249 2250 2139 
3 2151 2362 2229 
3 2311 2312 2250 
3 2676 2677 2494 
3 2659 2660 2658 
3 2663 2786 2785 
3 2700 8575 2701 
3 2789 7046 2726 
3 2737 3164 3163 
3 2786 2788 2787 
3 2834 2836 2835 
3 3186 9502 2930 
3 3214 3215 3038 
3 3045 3046 3044 
3 3068 9204 3482 
3 3191 3192 3190 
3 3193 8168 3805 
3 3195 3196 3194 
3 3196 3335 3334 
3 3285 3874 3628 
3 4843 4844 3304 
3 8631 9831 3443 
3 3505 9314 5551 
3 3543 8988 8986 
3 8160 10388 3569 
3 3749 3750 3748 
3 3836 7159 3840 
3 3860 4290 4190 
3 3915 6605 4802 
3 4917 8486 3972 
3 4492 9229 3973 
3 4068 4069 4067 
3 4117 4219 4118 
3 4216 4875 4215 
3 4304 4306 4305 
3 5754 8068 4313 
3 5278 5279 4315 
3 4525 4858 4523 
3 4549 5365 4548 
3 4610 7787 4608 
3 4714 9215 4706 
3 4758 6181 4756 
3 4877 5680 4876 
3 4877 9399 5682 
3 4900 5374 4901 
3 5031 6351 4999 
3 5235 6415 6414 
3 5345 5347 5346 
3 5515 7988 7987 
3 5684 5685 5683 
3 5709 6336 6054 
3 5901 9765 9515 
3 6094 6095 6043 
3 6296 6856 6297 
3 7167 7168 6354 
3 6579 6986 6387 
3 9929 10048 6456 
3 6490 8615 8354 
3 6569 10657 10358 
3 7042 7261 7041 
3 8287 8288 7518 
3 8236 9692 8817 
3 10549 10747 82 
3 123 429 122 
3 136 8524 415 
3 1438 9159 615 
3 3362 8599 755 
3 891 2026 893 
3 924 4475 922 
3 3382 8125 1037 
3 1207 1212 1067 
3 1338 1340 1339 
3 1342 1347 1343 
3 1347 1389 1348 
3 1570 1571 1495 
3 1764 1765 1748 
3 1989 2142 2041 
3 2074 2444 2333 
3 2213 4405 2215 
3 2578 7846 2579 
3 2720 2897 2719 
3 2865 2867 2866 
3 2873 2875 2874 
3 3152 3153 2919 
3 3153 3222 3221 
3 3201 3539 3538 
3 3309 6338 5368 
3 3463 3465 3464 
3 3515 4828 3516 
3 3584 3585 3583 
3 4848 4849 3597 
3 4517 4518 3663 
3 3705 5784 3703 
3 3704 3706 3705 
3 3716 8567 3722 
3 4286 4363 3902 
3 4153 4567 4154 
3 4230 8033 4229 
3 4234 4236 4232 
3 4276 5463 5179 
3 4282 7400 4280 
3 4417 7841 5593 
3 8607 8608 4456 
3 4481 9603 8157 
3 5132 5133 4585 
3 4769 9790 4695 
3 6461 8143 4734 
3 5409 5860 4962 
3 5032 8152 8151 
3 5207 7506 7505 
3 6311 8309 5301 
3 5965 7931 5448 
3 6093 8120 5676 
3 5751 5752 5750 
3 6353 6354 5868 
3 6272 6275 6274 
3 6415 7128 7127 
3 10837 10993 6668 
3 7650 7652 7651 
3 8434 8436 8435 
3 307 472 306 
3 334 413 333 
3 514 8753 8752 
3 632 635 634 
3 757 8643 640 
3 3626 9171 645 
3 1092 8644 648 
3 880 8198 649 
3 3635 9234 652 
3 655 657 656 
3 5867 8327 715 
3 9260 9448 716 
3 832 8330 2393 
3 833 8986 1692 
3 838 8602 1393 
3 9154 9160 972 
3 1041 1050 1049 
3 1090 8957 1049 
3 1055 1073 1072 
3 3529 8845 1072 
3 1073 1220 1219 
3 1206 3418 1208 
3 1213 1269 1212 
3 1311 8665 1374 
3 1360 1381 1380 
3 1375 1413 1373 
3 1374 3406 1376 
3 1416 9405 1380 
3 1381 1405 1404 
3 1410 1448 1417 
3 1425 1426 1415 
3 1428 1443 1442 
3 1663 1664 1453 
3 1462 1517 1463 
3 2943 4448 1511 
3 1611 8684 1529 
3 1625 1677 1676 
3 1680 1681 1638 
3 1848 1849 1681 
3 1956 1957 1849 
3 4588 9488 1915 
3 1924 1925 1922 
3 1928 1929 1926 
3 4725 6056 1933 
3 2089 2389 2090 
3 2168 2338 2167 
3 2740 9355 2250 
3 2277 2305 2275 
3 2276 3536 2278 
3 2311 2474 2312 
3 2326 2487 2325 
3 8154 8298 2341 
3 2348 7591 2346 
3 2347 8226 2349 
3 9901 10024 2391 
3 2431 7563 2623 
3 2474 2679 2475 
3 2478 2479 2477 
3 4986 9190 2483 
3 2489 2491 2490 
3 2536 2706 2705 
3 2642 2999 2784 
3 3013 3051 2687 
3 2832 10131 9146 
3 2906 2989 2905 
3 2950 3732 3731 
3 3819 8165 2957 
3 2980 3852 3851 
3 3955 5364 2997 
3 4967 6169 3041 
3 3078 9042 9041 
3 3281 3693 3098 
3 3101 3298 3102 
3 3150 3906 3437 
3 4093 7847 3215 
3 3406 10470 10281 
3 3816 3817 3411 
3 3445 3446 3444 
3 3447 3809 3446 
3 3655 3677 3657 
3 3677 4048 3681 
3 3891 4140 3734 
3 3747 3748 3746 
3 3865 3866 3753 
3 6168 8364 3810 
3 4274 4275 3817 
3 3963 6459 6417 
3 4087 4616 4089 
3 5120 5543 4093 
3 4961 4962 4279 
3 4282 8231 7395 
3 4348 4349 4347 
3 5798 7361 4367 
3 5506 9768 4437 
3 4513 5407 4508 
3 4594 4847 4846 
3 4601 9604 8165 
3 4606 5958 4605 
3 4611 7231 6625 
3 4618 4790 4619 
3 4646 4648 4647 
3 6778 7629 4804 
3 6648 8405 4847 
3 4973 5447 4974 
3 7689 7690 5013 
3 5027 5943 5026 
3 5046 9237 7876 
3 5125 5126 5066 
3 6703 6704 5176 
3 6218 6244 5244 
3 6626 6862 5253 
3 5358 7001 6952 
3 5576 10901 7002 
3 5630 5631 5629 
3 5654 10285 8351 
3 5707 6638 6602 
3 5752 7582 7581 
3 5796 6359 6358 
3 6313 6925 6315 
3 7574 7575 6372 
3 6491 6494 6493 
3 9039 9040 6568 
3 7311 9498 8221 
3 7781 7782 7780 
3 8990 9004 8987 
3 11227 11237 9113 
3 9153 9414 9412 
3 9256 9257 9255 
3 37 414 36 
3 323 8384 322 
3 824 8328 826 
3 8581 9213 903 
3 918 8722 916 
3 921 1388 923 
3 1397 1499 1498 
3 1402 8050 5725 
3 1412 1451 1411 
3 1614 1698 1660 
3 1640 1853 1852 
3 3385 8543 1864 
3 1980 2147 2146 
3 2459 9202 2060 
3 2353 2354 2158 
3 2461 2644 2460 
3 2681 4986 2483 
3 2644 9347 2645 
3 2664 2936 2644 
3 2964 3013 2687 
3 2895 2958 2723 
3 2819 3108 3107 
3 2834 2835 2833 
3 2836 2949 2835 
3 2950 3731 2949 
3 8613 10242 2976 
3 3268 3269 2977 
3 3577 5586 3575 
3 3732 4266 3731 
3 3739 3741 3737 
3 3866 10030 5937 
3 4497 5644 4041 
3 5072 5076 4046 
3 4361 4446 4063 
3 4094 5122 5121 
3 4190 4762 4189 
3 4239 4896 4503 
3 5206 5683 4281 
3 4775 6223 4762 
3 5155 8113 8112 
3 5171 6146 5172 
3 5283 5285 5284 
3 5841 6041 5348 
3 6358 7037 6360 
3 6592 7888 6591 
3 8733 8734 456 
3 1189 9223 1182 
3 1196 3644 1189 
3 1295 1308 1296 
3 1348 1370 1343 
3 1402 5725 1358 
3 1368 8670 7636 
3 1371 1411 1370 
3 1483 8236 1485 
3 1486 5475 1484 
3 1699 1903 1902 
3 1780 9623 1778 
3 1784 1786 1785 
3 1786 1788 1787 
3 1788 1790 1789 
3 1954 1955 1845 
3 1870 3704 3703 
3 2108 7766 2109 
3 2109 2111 2110 
3 7766 7767 2112 
3 2248 2252 2251 
3 2258 2260 2259 
3 2262 2264 2263 
3 2342 9019 2266 
3 2268 2270 2269 
3 2369 2598 2596 
3 8018 8994 2396 
3 2512 2513 2511 
3 2602 2604 2603 
3 3198 8170 2602 
3 2683 3435 2684 
3 2807 2808 2685 
3 2690 2692 2691 
3 2764 2765 2716 
3 2731 8716 4224 
3 7600 10247 2776 
3 2809 3246 2808 
3 9163 9258 2923 
3 3212 3563 2940 
3 2942 3485 3484 
3 2966 3309 2965 
3 3023 7346 3772 
3 3027 9876 3370 
3 8248 9274 3078 
3 8835 9418 3084 
3 3108 3887 3886 
3 3318 3319 3171 
3 3176 10050 3178 
3 3391 3392 3208 
3 4979 9650 3380 
3 3435 3760 3436 
3 3604 3605 3593 
3 3619 3620 3618 
3 3784 8652 4170 
3 3796 3982 3813 
3 3936 10062 3935 
3 3961 5403 4142 
3 4047 5074 5073 
3 5142 5143 4101 
3 4141 4764 4140 
3 4567 4568 4154 
3 4771 7873 4189 
3 4231 8365 4980 
3 5124 5169 4269 
3 4440 8323 6512 
3 4637 4638 4635 
3 4639 5269 4638 
3 4655 5265 4653 
3 4694 5218 4699 
3 4784 6300 5220 
3 5074 5101 5075 
3 6627 6653 5114 
3 6249 6250 5252 
3 5280 5281 5279 
3 5375 6346 6295 
3 5405 6709 5404 
3 5752 7583 7582 
3 5904 10204 5831 
3 5909 5910 5908 
3 6099 6673 6672 
3 6261 6262 6252 
3 6275 6859 6276 
3 6432 9429 7883 
3 8546 9178 6475 
3 6564 9860 6563 
3 7385 7387 7386 
3 8683 9688 8678 
3 10798 10832 9186 
3 21 533 20 
3 39 534 38 
3 474 9337 108 
3 487 8699 125 
3 159 517 158 
3 184 8943 183 
3 336 500 335 
3 573 575 574 
3 763 765 764 
3 764 8556 1749 
3 781 782 780 
3 781 8557 911 
3 782 785 784 
3 8458 8459 784 
3 891 8086 2026 
3 914 2399 912 
3 913 9165 915 
3 915 2070 917 
3 1098 1422 1100 
3 1170 9622 1175 
3 1180 2462 1185 
3 1192 2314 1184 
3 1233 1364 1299 
3 1337 1369 1335 
3 1338 3020 1340 
3 1347 1494 1389 
3 1391 1429 1390 
3 1512 1561 1488 
3 1494 1570 1495 
3 1562 1623 1561 
3 1570 1648 1571 
3 1599 9361 1598 
3 1659 2194 1613 
3 1766 11054 7083 
3 1964 2012 1965 
3 10462 10554 2273 
3 2404 2405 2354 
3 8723 8724 2399 
3 2541 2716 2540 
3 2676 2678 2677 
3 2678 2984 2983 
3 2745 9291 3166 
3 3102 8155 2775 
3 2818 3405 2831 
3 2931 4103 2846 
3 2911 2913 2912 
3 2949 10404 4260 
3 3287 3908 3907 
3 8485 10117 3676 
3 3716 3717 3715 
3 4187 4188 3856 
3 4490 9276 4020 
3 4035 9276 5672 
3 4104 11049 10894 
3 4200 6308 5396 
3 4292 4814 4312 
3 8305 9167 4490 
3 4491 8568 5504 
3 4526 4528 4527 
3 4547 4549 4548 
3 4786 7714 4679 
3 4874 9431 5705 
3 6540 6596 5014 
3 5673 9786 5018 
3 6826 9771 5221 
3 5504 8307 8306 
3 5672 9167 5674 
3 5674 9573 8566 
3 5811 5814 5813 
3 6086 6123 6122 
3 6429 7310 6430 
3 7553 7554 6830 
3 7612 7613 7610 
3 7767 8596 7820 
3 7920 10738 7921 
3 8010 9992 8009 
3 8093 10035 9935 
3 8568 8569 8307 
3 8441 8443 8442 
3 8460 8526 8459 
3 9573 9731 8460 
3 9656 10133 10126 
3 27 479 26 
3 535 9151 72 
3 208 473 207 
3 235 412 234 
3 293 8252 563 
3 575 576 574 
3 768 769 767 
3 1095 8846 1093 
3 1328 1330 1329 
3 1506 3755 1550 
3 1648 1895 1649 
3 1650 1854 1651 
3 1856 3352 1854 
3 2169 9956 5866 
3 2236 3499 2234 
3 2235 2238 2237 
3 2238 2241 2239 
3 2497 5778 2420 
3 2489 2490 2488 
3 2757 9427 3179 
3 4131 8021 2843 
3 2901 2902 2900 
3 6097 9680 3634 
3 5065 5854 3640 
3 4805 4835 4308 
3 4495 4975 4496 
3 4554 5835 4556 
3 4559 6541 4590 
3 5218 5397 4699 
3 4763 6216 4772 
3 5324 5534 4766 
3 6695 6714 5190 
3 5324 7095 5534 
3 5466 7702 7701 
3 8543 9590 5718 
3 10874 11238 6698 
3 183 8943 434 
3 282 8701 435 
3 584 2315 582 
3 748 750 749 
3 756 759 758 
3 769 8956 771 
3 773 774 772 
3 775 776 774 
3 777 778 776 
3 851 8532 850 
3 865 9184 3043 
3 907 3408 902 
3 903 9213 1094 
3 1060 1062 1061 
3 1079 1080 1078 
3 1100 8797 1102 
3 1108 1366 1110 
3 1110 8584 1112 
3 1117 3439 1115 
3 1121 1126 1119 
3 1125 9814 1123 
3 1292 1496 1231 
3 1317 8670 1315 
3 1318 3348 1320 
3 1422 8798 8797 
3 1550 1615 1549 
3 1689 9134 8960 
3 1775 8610 3079 
3 1805 1808 1807 
3 1866 2198 1830 
3 1836 1901 1900 
3 1867 1976 1975 
3 2324 4519 2072 
3 7820 9693 2157 
3 2219 2221 2220 
3 2493 10092 2682 
3 2512 2514 2513 
3 2533 9693 5994 
3 2593 4973 4589 
3 8353 8354 2749 
3 2952 2998 2997 
3 3139 3292 3138 
3 3294 3295 3224 
3 3324 3981 3980 
3 3378 3963 3377 
3 3391 4025 3392 
3 3478 9229 8592 
3 7907 10142 3740 
3 4794 8502 3905 
3 4409 4550 3981 
3 4266 5094 4267 
3 4422 8156 6420 
3 4492 9732 9641 
3 4551 9126 4550 
3 5876 7378 4577 
3 4604 9958 9306 
3 4609 4610 4608 
3 4694 4699 4695 
3 4774 7809 4808 
3 5419 5420 4856 
3 4882 5340 5339 
3 4937 6304 5219 
3 5118 10510 10479 
3 5343 5349 5345 
3 5564 10596 10571 
3 5679 9245 9244 
3 5735 9810 9631 
3 6336 10130 6054 
3 6247 6861 6245 
3 6491 6493 6492 
3 6588 7822 6495 
3 6496 6589 6587 
3 6795 6796 6794 
3 568 8195 98 
3 720 8982 721 
3 721 727 723 
3 724 3567 722 
3 726 8826 724 
3 733 3407 731 
3 737 9199 735 
3 736 739 738 
3 742 744 743 
3 2398 9312 743 
3 744 746 745 
3 746 748 747 
3 750 753 752 
3 753 756 755 
3 845 846 844 
3 857 859 858 
3 859 861 860 
3 892 3091 890 
3 947 1010 949 
3 950 974 948 
3 961 963 962 
3 963 965 964 
3 965 967 966 
3 1455 9449 967 
3 969 971 970 
3 971 976 975 
3 976 978 977 
3 8758 9345 976 
3 978 983 979 
3 981 3404 984 
3 1029 1346 1019 
3 1132 1133 1130 
3 1131 1139 1134 
3 1147 1153 1152 
3 1164 1165 1160 
3 1193 1194 1188 
3 1214 1215 1194 
3 1275 1283 1215 
3 1272 9478 1271 
3 1271 3646 3356 
3 1333 3591 1331 
3 1363 7776 1403 
3 1364 1884 1365 
3 9385 10046 1417 
3 1456 8674 4488 
3 1555 8830 1620 
3 1558 1578 1559 
3 1565 8389 8388 
3 1587 9239 1650 
3 1642 1868 1641 
3 1679 1851 1850 
3 1884 2590 2589 
3 1890 1892 1891 
3 1892 1907 1906 
3 2115 9530 1906 
3 2355 9250 2066 
3 2157 2158 2156 
3 2184 2186 2185 
3 4958 4959 2241 
3 2280 2381 2282 
3 2286 3452 2289 
3 2292 3632 2290 
3 2433 2521 2520 
3 2580 2736 2578 
3 2590 2752 2751 
3 2757 3177 3176 
3 2848 4131 2843 
3 2899 2900 2898 
3 4381 8197 3002 
3 3035 3036 3034 
3 3158 4208 3159 
3 3262 4253 3808 
3 3388 4402 4130 
3 8933 8937 3424 
3 3483 4032 3565 
3 8335 9107 3512 
3 3646 3648 3647 
3 3652 9556 3650 
3 4009 9054 5707 
3 4050 9227 5730 
3 5522 8135 4242 
3 4304 10128 4307 
3 4306 4360 4305 
3 4495 5434 4975 
3 4546 4547 4545 
3 4624 4626 4625 
3 4640 4642 4641 
3 4642 4644 4643 
3 4729 7198 5329 
3 4929 5421 4871 
3 4893 6361 4894 
3 4951 4952 4950 
3 5099 5944 5097 
3 5926 6167 5156 
3 5236 6787 6778 
3 5251 6864 6249 
3 5282 5283 5281 
3 5309 5376 5308 
3 5319 6377 5545 
3 5381 6323 5379 
3 7301 7302 5421 
3 5488 5489 5487 
3 5554 5555 5553 
3 5697 8638 6955 
3 6386 7724 5954 
3 7522 9895 5960 
3 6072 8326 6162 
3 6081 6083 6082 
3 6347 7004 6603 
3 6366 6827 6826 
3 6792 6794 6793 
3 7583 7584 7582 
3 11054 11161 7890 
3 8443 8444 8442 
3 8762 9144 9143 
3 8986 8988 8987 
3 452 8385 345 
3 585 586 584 
3 867 8917 874 
3 925 927 926 
3 929 8918 926 
3 1163 1164 1160 
3 1167 1168 1164 
3 1179 1181 1178 
3 1607 2025 1605 
3 1773 1774 1772 
3 1779 1780 1778 
3 4482 4483 1879 
3 1904 2007 1905 
3 2375 3735 2155 
3 2207 2209 2208 
3 2213 2214 2212 
3 2215 2216 2214 
3 2218 2219 2216 
3 2403 2532 2341 
3 2733 3173 3172 
3 3031 3032 3030 
3 3033 3034 3032 
3 3223 5507 3294 
3 3884 4193 3292 
3 3505 3507 3506 
3 3696 4030 3694 
3 3739 3742 3741 
3 3749 3751 3750 
3 3860 4189 3858 
3 3881 7548 4776 
3 3966 4874 3968 
3 4026 9866 4225 
3 4865 4866 4209 
3 4218 7191 4886 
3 4750 6193 4751 
3 6331 6332 4811 
3 5107 5109 5108 
3 5329 7121 6131 
3 5341 5343 5342 
3 6149 11199 7114 
3 6251 10917 10687 
3 7445 8007 7444 
3 7841 9300 8474 
3 50 450 49 
3 309 509 308 
3 599 600 598 
3 615 616 614 
3 617 618 616 
3 883 885 878 
3 1026 1027 910 
3 954 3387 952 
3 1024 8315 1042 
3 1039 5527 2655 
3 1100 1102 1101 
3 1112 1114 1113 
3 1116 1118 1117 
3 3397 8122 1284 
3 1313 1316 1315 
3 1316 1318 1317 
3 1322 1324 1323 
3 1650 1856 1854 
3 1800 1802 1801 
3 1823 5780 1816 
3 1819 1829 1820 
3 1831 2593 1871 
3 1963 2076 1962 
3 2161 2609 2035 
3 2081 2387 2228 
3 2188 2190 2189 
3 2223 2451 2222 
3 2304 2307 2306 
3 2307 2319 2318 
3 2380 2542 2379 
3 2522 2523 2424 
3 2490 2624 2488 
3 3216 7550 2505 
3 2742 3200 2743 
3 2981 7535 2982 
3 3047 3048 3046 
3 3124 3125 3123 
3 3179 3180 3177 
3 3183 3976 3182 
3 3293 3884 3292 
3 4844 8968 3304 
3 8856 8857 3415 
3 3485 5836 3487 
3 3488 8909 3486 
3 3515 3516 3514 
3 3534 8846 8534 
3 3847 3882 3881 
3 4903 4904 3887 
3 4400 4855 3976 
3 4105 5105 5104 
3 4187 4768 4757 
3 4218 4886 4217 
3 4225 4969 4968 
3 5174 5175 4443 
3 4935 5034 4557 
3 4765 6745 4767 
3 4834 5299 5298 
3 4991 6511 5373 
3 5093 5712 5092 
3 5343 10182 5349 
3 7701 9411 5464 
3 5705 7071 5465 
3 5466 7703 7702 
3 5491 8696 5489 
3 5636 8043 5635 
3 7764 7765 5720 
3 5796 6358 5795 
3 6439 9737 8127 
3 10379 10551 7409 
3 8858 8859 8857 
3 43 541 42 
3 237 501 236 
3 625 8884 3566 
3 1589 9364 675 
3 3697 8822 679 
3 684 686 685 
3 708 8979 688 
3 694 696 695 
3 1949 8826 726 
3 750 752 749 
3 753 755 752 
3 845 8331 847 
3 859 8603 863 
3 893 895 894 
3 895 897 896 
3 897 901 898 
3 901 906 902 
3 906 1018 907 
3 3463 3464 927 
3 962 3429 960 
3 966 973 964 
3 1038 9470 2233 
3 1127 1129 1128 
3 1135 8333 1137 
3 1137 3512 1142 
3 1149 1564 1143 
3 1146 8737 1593 
3 1148 1685 1150 
3 1188 9384 1176 
3 1218 6200 5949 
3 1229 1273 1272 
3 5699 9366 1285 
3 1340 1341 1339 
3 1347 1348 1343 
3 1348 1371 1370 
3 1371 1412 1411 
3 1407 3089 1392 
3 1412 1452 1451 
3 1452 1482 1481 
3 1483 1484 1482 
3 1486 8092 5475 
3 1500 3393 1701 
3 1509 9000 1546 
3 1576 5467 1637 
3 1598 4742 2231 
3 1882 1883 1674 
3 1705 1944 1707 
3 1789 8650 1821 
3 1796 1798 1797 
3 1842 9826 1966 
3 1845 8044 2116 
3 1846 1904 1847 
3 1860 1970 1859 
3 1995 1997 1868 
3 1869 2469 1996 
3 1944 1946 1945 
3 1966 2080 2078 
3 2093 2094 1987 
3 2152 2153 1997 
3 2032 2033 2031 
3 2043 2120 2042 
3 2080 5446 3623 
3 2389 4006 2090 
3 2122 9018 2124 
3 2130 2131 2129 
3 2132 2134 2131 
3 2134 9340 8417 
3 2370 2371 2137 
3 2153 8879 5641 
3 2270 2272 2271 
3 2323 2434 2324 
3 2353 2404 2354 
3 2463 2465 2367 
3 2370 8473 2611 
3 2371 2416 2372 
3 2377 2726 2614 
3 2533 4535 2404 
3 2416 2666 2456 
3 2426 2688 2425 
3 2473 2500 2455 
3 2465 2467 2466 
3 2467 2673 2468 
3 2473 8351 3417 
3 2487 4074 4073 
3 2717 2718 2497 
3 2581 2582 2517 
3 2748 5687 2597 
3 2599 9909 3725 
3 2754 8837 2610 
3 2666 3010 2744 
3 2674 8766 3550 
3 2714 2892 2713 
3 2752 3001 2751 
3 3029 3030 2773 
3 2814 2815 2813 
3 2814 9030 2978 
3 4125 9566 2839 
3 2851 2852 2850 
3 2875 2876 2874 
3 2876 2878 2877 
3 2918 3288 3152 
3 2932 3349 2931 
3 3002 4212 3001 
3 3383 3384 3006 
3 3010 3530 3012 
3 4257 4258 3056 
3 3059 3061 3060 
3 4083 8279 3060 
3 4085 8685 3064 
3 3068 3069 3067 
3 3070 3071 3069 
3 3072 3073 3071 
3 3074 3075 3073 
3 3077 3211 3210 
3 3085 4996 3619 
3 3301 3302 3096 
3 3108 4903 3887 
3 3198 8172 8171 
3 3379 3380 3211 
3 3232 3233 3231 
3 3231 8418 4008 
3 3234 3235 3233 
3 3259 3262 3261 
3 3310 5336 3338 
3 4509 8762 3311 
3 3321 5185 3320 
3 3336 4270 3789 
3 3384 4078 3504 
3 4049 9044 3384 
3 3465 3466 3464 
3 3531 4018 3557 
3 3551 4501 3549 
3 3550 3553 3552 
3 3553 3614 3554 
3 3576 3578 3577 
3 3578 3581 3579 
3 3581 4033 3582 
3 6475 6476 3614 
3 3615 4059 3617 
3 3879 3880 3696 
3 3711 3713 3712 
3 3723 4081 4080 
3 4082 4242 3724 
3 3738 3739 3737 
3 3742 3744 3743 
3 5090 9052 3789 
3 3791 5912 4739 
3 4700 9896 3795 
3 3814 7790 3812 
3 3897 4617 4430 
3 4018 4992 4227 
3 5644 8706 4041 
3 4042 4498 4497 
3 4050 5730 4942 
3 4078 5117 4447 
3 4081 5087 5086 
3 4521 4709 4121 
3 4149 4150 4148 
3 5234 5438 4192 
3 5081 5082 4250 
3 4251 5084 5083 
3 4270 5158 4711 
3 4811 8632 4293 
3 4374 4375 4372 
3 4373 5982 4812 
3 4376 4810 4375 
3 4388 5530 5529 
3 4412 9057 5739 
3 5371 5942 4446 
3 4468 4469 4466 
3 4482 4734 4483 
3 8674 8675 4488 
3 4501 9323 9319 
3 4650 5191 4652 
3 4686 5216 4688 
3 4795 5251 4796 
3 5308 5310 4828 
3 4926 8493 4925 
3 5398 5968 4926 
3 4945 5460 4946 
3 4952 6065 4950 
3 4993 5560 4992 
3 6510 8837 5028 
3 5845 8770 5081 
3 5659 5957 5117 
3 5162 5163 5134 
3 6224 6225 5212 
3 5403 5405 5404 
3 6610 6611 5469 
3 5568 5569 5567 
3 5647 8712 5570 
3 9274 9776 5726 
3 9227 9346 5730 
3 6528 8769 5738 
3 5782 6008 5977 
3 6213 7406 5788 
3 5806 5807 5805 
3 5852 5987 5851 
3 5871 5872 5870 
3 5912 6159 6158 
3 5970 9148 9055 
3 5972 7618 5971 
3 10685 10716 6045 
3 6052 6069 6051 
3 6079 6080 6078 
3 6443 7003 6343 
3 6440 7068 6359 
3 7586 7929 6447 
3 6449 7219 6627 
3 6473 8842 6471 
3 9178 9179 6476 
3 6526 7511 6527 
3 8622 8624 6573 
3 7064 9999 9053 
3 7335 7336 7334 
3 7439 7440 7438 
3 7643 8381 7642 
3 7966 7968 7967 
3 8027 9845 8026 
3 8282 8283 8280 
3 8283 8373 8372 
3 8623 8625 8624 
3 8675 8677 8676 
3 8678 8679 8677 
3 19 436 18 
3 45 406 44 
3 131 8744 540 
3 331 477 330 
3 338 449 337 
3 394 471 393 
3 1581 9116 607 
3 869 889 888 
3 884 9296 883 
3 891 893 892 
3 3408 8514 902 
3 935 936 934 
3 937 938 936 
3 936 9152 972 
3 957 1004 959 
3 969 3500 971 
3 976 9345 978 
3 978 997 983 
3 981 982 980 
3 6422 7996 983 
3 988 989 987 
3 990 991 989 
3 989 9841 1565 
3 997 1002 998 
3 1018 1028 1019 
3 1346 8558 1019 
3 1028 1047 1029 
3 1169 1176 1170 
3 1327 8295 1325 
3 1338 1339 1337 
3 1337 8946 1369 
3 1341 9400 5702 
3 8515 8516 1387 
3 1495 3501 1389 
3 1406 1407 1392 
3 1419 1420 1407 
3 1507 1508 1469 
3 1485 1486 1484 
3 1487 8816 2943 
3 1494 4506 1570 
3 1571 8814 1495 
3 1565 8390 8389 
3 1570 9217 1648 
3 1631 3365 1584 
3 1907 2013 1906 
3 2404 10021 2405 
3 2408 3576 3575 
3 2616 5621 2421 
3 2544 3028 2768 
3 3052 8705 2590 
3 3014 3015 2669 
3 2907 2908 2718 
3 2913 2915 2914 
3 2916 2917 2915 
3 2943 4450 4449 
3 3135 3167 3133 
3 3139 7603 3293 
3 3216 8299 7941 
3 3431 4994 3432 
3 8962 9398 3472 
3 3501 9529 9216 
3 3744 3796 3795 
3 3815 3824 3823 
3 4293 4799 4177 
3 4409 9649 6458 
3 4699 4769 4695 
3 4767 5324 4766 
3 4768 6235 6234 
3 4904 4906 4905 
3 4983 8207 6053 
3 5535 6540 5014 
3 7245 7246 5266 
3 5426 7393 5424 
3 7884 7885 5520 
3 7750 8933 5548 
3 5554 5556 5555 
3 5556 5722 5557 
3 5607 6386 5954 
3 5840 6405 6404 
3 11332 11343 6177 
3 6420 7803 6421 
3 7053 10967 10840 
3 7097 7099 7098 
3 7099 7101 7100 
3 7099 7680 7101 
3 11045 11394 7105 
3 7952 7954 7953 
3 8588 10091 8001 
3 8301 8302 8057 
3 8390 8392 8391 
3 8724 8726 8725 
3 9803 10166 8814 
3 10 475 9 
3 95 526 94 
3 392 543 391 
3 498 569 568 
3 874 8917 8293 
3 917 919 918 
3 1501 8722 918 
3 919 921 920 
3 921 923 922 
3 1012 1016 1013 
3 1047 1056 1048 
3 1183 7038 1191 
3 1190 1196 1189 
3 1298 9200 1278 
3 1390 1475 1298 
3 1325 3602 1323 
3 1336 1337 1335 
3 1431 1432 1401 
3 1462 1463 1432 
3 1487 1488 1486 
3 3388 4130 1489 
3 1558 1628 1578 
3 1630 10035 3592 
3 1683 1846 1684 
3 1864 1978 1863 
3 1978 8898 1979 
3 1980 8543 2148 
3 2082 7741 2081 
3 2105 2107 2106 
3 2150 2410 2409 
3 2218 2222 2219 
3 2962 7713 3249 
3 2970 10695 10618 
3 3127 3150 3129 
3 10187 10351 3266 
3 4238 9353 3510 
3 3780 4119 3778 
3 3793 4240 4239 
3 3834 4158 4157 
3 4332 4834 4833 
3 5599 7510 4849 
3 5022 7517 5601 
3 8730 8731 5310 
3 5428 5525 5429 
3 6021 10698 5721 
3 6973 7057 7056 
3 7903 8430 7901 
3 10126 10133 8067 
3 8443 8445 8444 
3 230 8786 553 
3 340 502 339 
3 597 599 598 
3 613 615 614 
3 615 617 616 
3 617 619 618 
3 619 621 620 
3 899 909 900 
3 915 917 916 
3 927 928 926 
3 930 932 931 
3 932 8517 3513 
3 939 940 938 
3 943 944 942 
3 1015 8000 5756 
3 1056 1070 1057 
3 1085 1086 1084 
3 1089 1228 1088 
3 1619 9481 1268 
3 1273 3397 1284 
3 1309 8998 1296 
3 1319 8960 1317 
3 1322 1497 1324 
3 1334 1335 1333 
3 1368 3604 3593 
3 1474 9664 1513 
3 1511 1512 1488 
3 1504 6192 1540 
3 1513 1514 1505 
3 1512 1562 1561 
3 1580 1633 1632 
3 1598 2231 1596 
3 1632 7842 1675 
3 1648 1897 1895 
3 1896 2234 1649 
3 1873 1874 1657 
3 1666 10442 4744 
3 1801 3360 1799 
3 1822 1823 1816 
3 1820 3547 1818 
3 1831 1832 1823 
3 1823 8320 5780 
3 1835 5710 1827 
3 1871 1872 1832 
3 1872 2510 2509 
3 1873 1983 1981 
3 1981 1982 1874 
3 1897 1992 1991 
3 9217 9409 1897 
3 2047 2048 1982 
3 5519 7974 1991 
3 1992 2145 2144 
3 2145 2359 2358 
3 2148 5718 2193 
3 2209 2211 2208 
3 2388 4054 2228 
3 2235 2236 2234 
3 2235 8849 2238 
3 2236 4976 3499 
3 2239 2240 2237 
3 2242 2243 2240 
3 2352 5068 2392 
3 2359 2551 2550 
3 2405 2423 2422 
3 2510 2512 2511 
3 2552 2553 2551 
3 2554 2555 2553 
3 2556 2557 2555 
3 2558 2559 2557 
3 2655 2656 2654 
3 2662 8247 3818 
3 2894 2895 2723 
3 2742 3201 3200 
3 3028 3277 3276 
3 3142 3143 3141 
3 3143 3144 3141 
3 3154 9637 4333 
3 3259 3261 3260 
3 3336 3337 3335 
3 3337 4407 4406 
3 3383 4049 3384 
3 3398 10744 7309 
3 3517 9414 9153 
3 8500 9338 3564 
3 3610 7962 4061 
3 3629 3641 3640 
3 3688 6446 3687 
3 3998 4090 3690 
3 3742 3743 3741 
3 3750 3753 3748 
3 3824 3832 3831 
3 3832 3834 3833 
3 4285 4286 3902 
3 4008 10583 10096 
3 4021 8692 5024 
3 4595 4701 4090 
3 4158 4159 4157 
3 4161 4820 4163 
3 4163 4164 4162 
3 4178 4754 4294 
3 4307 4308 4306 
3 7633 9156 4391 
3 4407 5436 5435 
3 4415 9547 7841 
3 5549 6487 4448 
3 4896 5840 4503 
3 4510 8894 8893 
3 4795 4796 4610 
3 4713 6063 4715 
3 5978 6034 4749 
3 5317 5318 4821 
3 5481 5597 4923 
3 7547 10025 5200 
3 5389 7040 6994 
3 5652 5903 5436 
3 5577 9414 8828 
3 5633 5634 5631 
3 6036 6112 5633 
3 5691 9557 9415 
3 5794 5796 5795 
3 10708 10896 5929 
3 5953 7411 6465 
3 7595 7596 5998 
3 6157 6172 6156 
3 6352 6650 6172 
3 6244 6246 6245 
3 6278 6281 6280 
3 6467 8772 8654 
3 6468 9702 9643 
3 6484 9396 8022 
3 6979 11105 6650 
3 10565 11098 6669 
3 8168 9349 6688 
3 7348 7349 7347 
3 11232 11280 7356 
3 8517 9160 8376 
3 9355 9401 8426 
3 11146 11176 9577 
3 138 8721 560 
3 210 538 209 
3 316 8411 437 
3 5623 9117 664 
3 675 9364 673 
3 679 8822 677 
3 683 8824 681 
3 763 764 762 
3 764 1749 795 
3 773 1621 775 
3 782 784 780 
3 787 788 786 
3 826 827 825 
3 828 869 827 
3 847 848 846 
3 5711 9296 884 
3 911 913 912 
3 913 915 914 
3 945 946 944 
3 1018 3595 1028 
3 1068 4566 1063 
3 1070 1216 1071 
3 1137 1138 1136 
3 1142 1143 1138 
3 1148 1149 1143 
3 1156 9188 3457 
3 1169 1170 1162 
3 1183 1191 1186 
3 1225 8414 1222 
3 1244 10055 1242 
3 1247 1288 1249 
3 1250 3685 1248 
3 1274 1307 1272 
3 1296 5699 1285 
3 1333 9407 3591 
3 1396 1397 1355 
3 1356 1400 1357 
3 1431 1462 1432 
3 1468 1469 1446 
3 1467 1489 1472 
3 1554 1695 1694 
3 1637 1638 1577 
3 1614 1659 1613 
3 1626 1683 1627 
3 1695 2043 2042 
3 1760 8562 1754 
3 1869 1995 1868 
3 1886 2473 2455 
3 1930 1931 1929 
3 1930 10253 8002 
3 1932 1934 1931 
3 1946 4397 2045 
3 1995 2152 1997 
3 5641 9141 1997 
3 2094 2096 2095 
3 2174 2345 2118 
3 2126 9367 2125 
3 2130 2132 2131 
3 2136 2370 2137 
3 2152 2366 2153 
3 2238 4958 2241 
3 2373 2374 2243 
3 2267 3633 2265 
3 2271 2458 2269 
3 2439 2440 2334 
3 2346 2527 2345 
3 2370 2610 2371 
3 2377 2789 2726 
3 2412 2574 2413 
3 2445 5088 2525 
3 2453 9246 2577 
3 2744 3084 2456 
3 2467 3005 2673 
3 2674 3549 2468 
3 2473 2670 2500 
3 2560 9410 3774 
3 2611 2754 2610 
3 4465 4467 2651 
3 2666 3011 3010 
3 2674 8767 8766 
3 2708 2710 2709 
3 2721 3151 2774 
3 2735 3187 2734 
3 3012 8835 2744 
3 2752 3002 3001 
3 2755 3018 2754 
3 2758 9534 3453 
3 3242 3243 2759 
3 2762 3347 2838 
3 2825 2828 2826 
3 2913 2914 2912 
3 2984 3855 2983 
3 3018 4257 3056 
3 3058 4062 3019 
3 3059 4464 3061 
3 3062 4083 3060 
3 3064 8685 3062 
3 3065 3068 3067 
3 3070 3072 3071 
3 3072 3074 3073 
3 3076 8765 3073 
3 3077 3379 3211 
3 3095 9501 3301 
3 3302 3325 3096 
3 3205 4468 4466 
3 4041 8706 3218 
3 3228 3230 3229 
3 4077 9503 3228 
3 3230 3232 3231 
3 3293 3933 3885 
3 3863 3864 3297 
3 3301 5916 5915 
3 5444 8245 3320 
3 3321 6692 5185 
3 3326 3327 3325 
3 3372 9816 3374 
3 3379 4410 3380 
3 3384 9044 4078 
3 10114 10470 3406 
3 8451 10066 3430 
3 3516 5691 3514 
3 5889 9940 3540 
3 3550 3551 3549 
3 3550 8766 3553 
3 3554 8768 3552 
3 3553 6475 3614 
3 3615 3616 3554 
3 4227 9057 3557 
3 6467 6468 3565 
3 4243 5044 3608 
3 7844 7845 3632 
3 3691 6614 5159 
3 3713 3720 3714 
3 3723 3724 3719 
3 3723 9551 4081 
3 4080 4082 3724 
3 3834 4157 4156 
3 3835 10143 7350 
3 3897 4618 4617 
3 3912 3929 3911 
3 3995 4933 4932 
3 4013 5002 5001 
3 4018 4993 4992 
3 4021 4489 4020 
3 4035 5672 5018 
3 9055 9148 4059 
3 5140 5141 4109 
3 4110 5771 5760 
3 4123 6699 4122 
3 4159 4161 4160 
3 4820 4821 4163 
3 4212 4859 4214 
3 5037 5059 4227 
3 4229 4924 4238 
3 4251 5081 4250 
3 4251 9148 5084 
3 4258 9064 5029 
3 4270 7755 5158 
3 4772 4773 4284 
3 7008 7009 4298 
3 5255 7247 4299 
3 4365 6610 5469 
3 4412 5738 5737 
3 8676 9199 4488 
3 5025 8568 4491 
3 4575 6615 4572 
3 4612 4620 4613 
3 4648 4650 4649 
3 5191 9770 4652 
3 5226 6757 4790 
3 4927 5398 4926 
3 5083 5845 5081 
3 5637 9177 5083 
3 5669 6620 5089 
3 5218 6243 6230 
3 5371 6644 5942 
3 5388 5389 5387 
3 5434 5881 5880 
3 6482 9632 5461 
3 5490 9583 5493 
3 5492 6399 5491 
3 5504 8306 8304 
3 6417 7308 5562 
3 5568 5914 5569 
3 5572 5647 5570 
3 8828 9705 5577 
3 5649 5717 5624 
3 5644 9696 8706 
3 5647 8836 8712 
3 9069 9070 5648 
3 5665 5667 5666 
3 5672 5674 5673 
3 5715 5868 5714 
3 5970 5972 5971 
3 6109 6710 6145 
3 6153 6154 6152 
3 6435 7365 6437 
3 6475 9178 6476 
3 6485 9654 8639 
3 6510 8838 8837 
3 6582 10615 10464 
3 7662 7664 7661 
3 7664 7672 7671 
3 8165 9349 8166 
3 9160 9413 8265 
3 8432 8434 8433 
3 8439 8440 8438 
3 8458 8566 8460 
3 8465 8466 8463 
3 8467 8468 8466 
3 8623 8626 8625 
3 8627 9180 8629 
3 16 504 15 
3 34 478 33 
3 329 528 328 
3 871 8944 828 
3 923 924 922 
3 924 8918 4475 
3 943 8844 3522 
3 947 948 946 
3 949 950 948 
3 1051 1052 1027 
3 1422 8797 1100 
3 1216 9795 1217 
3 1217 1223 1222 
3 4204 9350 1267 
3 1332 1333 1331 
3 1587 1588 1562 
3 1640 8961 3007 
3 1646 1662 1645 
3 1655 8607 1653 
3 1845 2116 1686 
3 3360 9310 1799 
3 2027 2028 1899 
3 2079 2177 1967 
3 2030 3645 2032 
3 2330 8106 2039 
3 2079 9219 2386 
3 2097 2098 2096 
3 2160 8229 2377 
3 2213 2215 2214 
3 6460 7823 2241 
3 2641 9648 2358 
3 2373 9428 2613 
3 2612 9847 2374 
3 2493 2682 2675 
3 2531 2773 2772 
3 2544 2768 2545 
3 2560 2561 2559 
3 2559 8871 3402 
3 2562 2563 2561 
3 2564 2565 2563 
3 2592 2942 2941 
3 2593 4589 4249 
3 2613 9427 2757 
3 2731 4224 2641 
3 2678 2985 2984 
3 2730 9429 3168 
3 3176 3178 2756 
3 8229 10063 2789 
3 2847 2932 2931 
3 2942 3484 3483 
3 2982 3378 3377 
3 4086 10050 3176 
3 3277 3895 3894 
3 9850 9991 3323 
3 3483 8875 4032 
3 3513 8376 3515 
3 3578 3579 3577 
3 3581 3582 3579 
3 3581 9206 4034 
3 3582 3584 3583 
3 4033 9540 3582 
3 3747 3749 3748 
3 3815 3823 3814 
3 3934 3935 3885 
3 3924 10425 6972 
3 5550 6347 3932 
3 3965 4871 4870 
3 4921 5769 4033 
3 4034 5482 4922 
3 4161 4163 4162 
3 4176 4178 4177 
3 4187 4757 4188 
3 4288 7830 5246 
3 4385 4387 4386 
3 4552 4554 4553 
3 4558 4936 4935 
3 4694 4695 4693 
3 4768 6219 4757 
3 4829 5309 5308 
3 4863 9434 6171 
3 4870 9605 8091 
3 4928 4929 4871 
3 4882 5338 4881 
3 4929 7301 5421 
3 4948 4951 4950 
3 4951 4953 4952 
3 6058 7023 4955 
3 5880 10898 4975 
3 6608 10496 5034 
3 6163 6164 5165 
3 5309 5377 5376 
3 5378 5379 5377 
3 5380 5381 5379 
3 5384 5385 5383 
3 5386 5387 5385 
3 5388 9705 5746 
3 7303 9605 5421 
3 5445 5657 5656 
3 5482 5484 5483 
3 5484 5486 5485 
3 5486 5488 5487 
3 5488 5490 5489 
3 5497 9583 5488 
3 5490 5492 5491 
3 8267 8268 5497 
3 5657 8522 8521 
3 7510 10730 5759 
3 5833 5834 5769 
3 6048 6050 6049 
3 6105 9990 8874 
3 6107 6152 6106 
3 8143 9445 6127 
3 6280 6282 6279 
3 8048 8049 6322 
3 7368 7602 6334 
3 6399 9522 7115 
3 9554 10055 6578 
3 7428 7430 7429 
3 7480 7633 7481 
3 7658 7659 7657 
3 41 459 40 
3 759 760 758 
3 769 771 767 
3 774 9181 772 
3 776 2395 774 
3 780 8459 778 
3 820 821 819 
3 866 4426 864 
3 865 3043 867 
3 1077 3777 1079 
3 1082 1771 1080 
3 1081 1585 1083 
3 1102 1104 1103 
3 1104 1106 1105 
3 1108 1110 1109 
3 1118 1120 1119 
3 1122 1124 1123 
3 1181 1204 1178 
3 1302 8311 2648 
3 1440 4441 1312 
3 1689 8960 1319 
3 1349 10020 4413 
3 1464 1465 1433 
3 1511 9240 1512 
3 1775 3079 1777 
3 1805 1807 1804 
3 1867 1975 1865 
3 2408 3575 2146 
3 2148 8543 5718 
3 2218 2223 2222 
3 2326 2489 2488 
3 2329 2403 2341 
3 2489 5877 2491 
3 2572 2742 2573 
3 3966 3967 3169 
3 3262 3808 3807 
3 3317 3747 3746 
3 3324 9649 4409 
3 3468 3528 3466 
3 3576 3577 3575 
3 3966 9431 4874 
3 5056 5057 4264 
3 4422 5304 5295 
3 8009 9126 4551 
3 4579 9267 6335 
3 5131 5132 4585 
3 5208 5209 4908 
3 4991 10243 6511 
3 5356 9126 7151 
3 5584 9412 5382 
3 5389 8223 7040 
3 5682 6060 5681 
3 6070 6072 6071 
3 7650 8915 7652 
3 7959 10419 8907 
3 8270 10317 8267 
3 8449 10273 10185 
3 8798 8799 8797 
3 478 8743 33 
3 71 419 70 
3 73 535 72 
3 84 432 83 
3 319 510 318 
3 342 404 341 
3 358 511 357 
3 368 418 367 
3 370 536 369 
3 381 433 380 
3 578 3573 576 
3 752 8599 754 
3 756 758 755 
3 818 819 817 
3 826 870 828 
3 881 1696 886 
3 887 2457 882 
3 906 907 902 
3 917 918 916 
3 919 920 918 
3 921 922 920 
3 920 8887 1501 
3 951 952 950 
3 951 8856 3415 
3 955 956 954 
3 954 8888 3387 
3 958 8735 1091 
3 962 8736 3429 
3 1085 3521 1087 
3 1199 10260 7634 
3 1223 3449 1266 
3 1232 1292 1231 
3 1292 3545 1496 
3 1297 1351 1298 
3 1475 9200 1298 
3 1308 1312 1309 
3 1314 8998 1309 
3 1328 1329 1327 
3 1330 1331 1329 
3 1650 1651 1588 
3 1604 1606 1605 
3 2025 8890 1605 
3 1854 1855 1651 
3 1759 9435 1762 
3 1762 3385 1864 
3 1792 1794 1793 
3 1794 1796 1795 
3 1978 1979 1863 
3 1864 8543 1980 
3 2143 3368 2041 
3 2178 2179 2177 
3 2180 2181 2179 
3 2193 2461 2460 
3 5190 5655 2231 
3 2364 2580 2578 
3 8184 8185 2457 
3 2645 9903 2460 
3 2461 2664 2644 
3 2522 2722 2523 
3 2564 8105 3025 
3 2569 8545 3502 
3 2664 8278 2936 
3 2981 2982 2704 
3 2757 3179 3177 
3 3028 3276 2768 
3 3136 3873 3282 
3 3434 3542 3162 
3 3179 3181 3180 
3 5030 9438 3181 
3 3183 4400 3976 
3 3259 3260 3258 
3 3385 9590 8543 
3 3434 8908 4853 
3 4136 8934 3451 
3 3465 4198 3467 
3 3920 9265 3468 
3 3485 3486 3484 
3 3487 3488 3486 
3 3489 3490 3488 
3 5526 8909 3491 
3 7230 10017 3779 
3 3855 4187 3856 
3 3895 4322 4321 
3 3933 7285 3934 
3 3942 3943 3940 
3 3968 5470 3967 
3 3993 5604 4862 
3 8301 8942 4014 
3 4060 7952 7950 
3 4158 4422 4353 
3 4164 6731 6730 
3 4172 4175 4174 
3 4523 8664 4216 
3 4237 4925 4236 
3 4389 4390 4387 
3 4894 6433 4398 
3 4400 4857 4855 
3 4408 10196 7753 
3 4579 4580 4421 
3 4450 8816 5535 
3 5539 9576 4493 
3 4495 4496 4494 
3 4975 5445 4496 
3 4524 5732 4526 
3 4742 6696 6695 
3 5229 6289 4806 
3 8522 9592 4853 
3 5478 5479 4854 
3 5479 7746 4854 
3 4874 5705 5465 
3 4916 5327 4915 
3 4953 4955 4954 
3 5022 5601 5020 
3 8731 9268 5310 
3 5466 7701 5464 
3 5478 9592 7360 
3 5493 5494 5492 
3 5495 5496 5494 
3 5499 5501 5496 
3 5500 8538 8537 
3 5538 7801 6392 
3 7164 7165 5539 
3 8008 8423 5540 
3 7517 7831 5601 
3 8419 9441 5604 
3 7556 9456 5636 
3 5636 8145 8043 
3 5698 9673 5695 
3 5697 6955 6344 
3 5705 7072 7071 
3 5892 7894 6949 
3 6090 6092 6091 
3 6103 10602 9990 
3 6105 6106 6104 
3 6126 7490 6123 
3 6262 6263 6252 
3 7117 7118 6329 
3 6731 6733 6732 
3 7167 8085 7168 
3 7168 8085 7171 
3 7172 7177 7170 
3 7171 7174 7173 
3 7174 7979 7976 
3 7430 7431 7429 
3 7652 8915 7666 
3 7654 7655 7653 
3 7656 7657 7655 
3 7895 7896 7894 
3 8856 8858 8857 
3 593 2099 595 
3 720 721 719 
3 721 723 722 
3 727 8313 723 
3 725 728 726 
3 738 8984 740 
3 742 743 741 
3 744 745 743 
3 813 8291 8290 
3 816 817 815 
3 843 3630 845 
3 915 916 914 
3 966 8649 973 
3 1001 10267 996 
3 1129 1131 1130 
3 1131 1134 1132 
3 1150 1151 1149 
3 1153 1156 1152 
3 1157 1158 1156 
3 1174 1178 1173 
3 1175 1180 1177 
3 1194 3080 1188 
3 1271 3356 1228 
3 1300 1358 1293 
3 1294 3505 1361 
3 1364 1365 1299 
3 1326 1327 1325 
3 1351 1391 1390 
3 1884 2589 1365 
3 1395 3603 1509 
3 1479 10173 3353 
3 1546 1567 1566 
3 1601 1604 1602 
3 1614 1660 1659 
3 1757 1758 1756 
3 4516 8947 1807 
3 1811 1813 1812 
3 1858 1860 1859 
3 2013 2115 1906 
3 2010 3366 1955 
3 5718 9269 2193 
3 2221 2325 2220 
3 2272 2274 2273 
3 2381 5690 2282 
3 2291 2293 2292 
3 2326 2488 2487 
3 2335 6017 6016 
3 2357 6023 5325 
3 2478 2480 2479 
3 2496 2890 2717 
3 2568 8087 3799 
3 2570 2571 2569 
3 2743 3597 2573 
3 2896 7540 2722 
3 8475 8806 2793 
3 2863 2865 2864 
3 2989 3284 2905 
3 2937 9269 8692 
3 3202 3212 2940 
3 2996 9247 4031 
3 3202 8692 4021 
3 3226 3391 3208 
3 3924 6968 3342 
3 3646 3647 3356 
3 3490 3492 3491 
3 4241 10649 3494 
3 9022 9023 3639 
3 3648 3649 3647 
3 6007 8485 3648 
3 3649 3651 3650 
3 3651 3653 3652 
3 4471 9556 3652 
3 3653 3655 3654 
3 4736 6713 3920 
3 3934 3937 3936 
3 3948 3950 3949 
3 3957 7771 7770 
3 4856 9439 3976 
3 5115 9054 4009 
3 4280 5205 4281 
3 4318 4788 4316 
3 4484 8655 8498 
3 4607 4609 4608 
3 4643 5268 4641 
3 4646 5188 4648 
3 4664 4666 4665 
3 5222 6755 4788 
3 4933 5425 5424 
3 4987 8112 4986 
3 5154 5155 4987 
3 5019 5580 5021 
3 5033 6466 5541 
3 5052 7415 5053 
3 5053 5871 5870 
3 5098 6533 6531 
3 6109 6145 5690 
3 5871 6583 5872 
3 5896 6423 5897 
3 6066 7772 6110 
3 6074 6079 6078 
3 6092 6102 6091 
3 6242 6882 6881 
3 6353 7167 6354 
3 7260 9600 6353 
3 6735 7606 6732 
3 7287 7604 7297 
3 7652 7653 7651 
3 8331 8582 8581 
3 8436 8437 8435 
3 8513 10179 8473 
3 8723 8728 8724 
3 8988 8989 8987 
3 525 9081 90 
3 241 503 240 
3 505 9087 387 
3 8232 8233 503 
3 589 590 588 
3 590 1766 588 
3 591 592 590 
3 593 594 592 
3 595 596 594 
3 604 1201 602 
3 605 1581 607 
3 609 3853 611 
3 764 795 762 
3 766 768 767 
3 771 9333 767 
3 779 781 780 
3 782 8541 785 
3 911 912 783 
3 786 8458 784 
3 788 3461 786 
3 792 1693 790 
3 1749 1750 795 
3 801 4481 797 
3 807 8507 8506 
3 812 813 811 
3 811 8290 2665 
3 814 815 813 
3 822 824 823 
3 840 9492 8602 
3 869 8944 3448 
3 876 877 871 
3 881 882 877 
3 879 884 883 
3 1023 3350 905 
3 913 914 912 
3 914 8723 2399 
3 915 9165 2070 
3 959 960 958 
3 961 962 960 
3 961 8919 3389 
3 963 964 962 
3 965 966 964 
3 967 968 966 
3 969 970 968 
3 969 9449 3500 
3 971 975 970 
3 976 977 975 
3 978 979 977 
3 978 9345 997 
3 981 984 982 
3 998 6422 983 
3 984 986 985 
3 988 990 989 
3 990 992 991 
3 3627 9841 991 
3 992 995 993 
3 994 10344 10184 
3 995 999 996 
3 997 4473 1002 
3 1002 8297 1006 
3 1007 1947 1003 
3 1005 1009 1008 
3 1006 1948 1012 
3 1043 1059 1058 
3 1060 1061 1044 
3 1094 1095 1093 
3 1098 9172 1422 
3 1100 1101 1099 
3 1321 9127 1689 
3 1325 8295 3602 
3 3518 8560 1391 
3 1430 1460 1459 
3 1461 8560 5456 
3 8456 8457 1581 
3 1595 1597 1596 
3 1597 1599 1598 
3 1600 1601 1599 
3 1850 2175 1678 
3 1679 1889 1851 
3 1751 1752 1750 
3 1751 9326 4484 
3 1752 8562 3527 
3 1755 1756 1754 
3 1802 1803 1801 
3 1806 1828 1827 
3 1828 1836 1835 
3 1860 1971 1970 
3 4483 4985 1879 
3 1892 3699 1907 
3 1907 9956 2014 
3 5626 8923 1977 
3 1999 2245 1998 
3 2014 2169 2101 
3 2065 2067 2066 
3 2067 2356 2355 
3 3396 8924 2067 
3 2169 2170 2101 
3 2351 2437 2114 
3 2169 2378 2170 
3 2170 8925 2172 
3 4745 5196 2175 
3 2182 2183 2181 
3 2184 2185 2183 
3 2186 2187 2185 
3 2187 9601 2741 
3 2246 2470 2245 
3 2337 2430 2407 
3 2356 2547 2546 
3 2362 9246 2453 
3 2454 3454 2363 
3 5866 6355 2378 
3 2387 2544 2388 
3 8725 9351 2399 
3 2453 2577 2575 
3 2576 9155 2454 
3 2470 2668 2472 
3 2669 8564 2472 
3 2749 8354 2474 
3 2546 9380 2724 
3 2790 2791 2547 
3 2725 8834 2548 
3 2618 2619 2571 
3 2739 3206 2576 
3 2616 6582 5621 
3 2619 2630 2629 
3 2631 2632 2630 
3 2633 2634 2632 
3 2635 2636 2634 
3 2634 9356 2637 
3 2638 2639 2636 
3 3358 3390 2643 
3 2668 3014 2669 
3 2668 3629 3014 
3 3207 8564 2669 
3 2679 2951 2680 
3 2982 3377 2704 
3 2722 2894 2723 
3 2724 5692 2995 
3 2996 3203 2725 
3 2737 4043 3164 
3 2738 8565 2792 
3 2793 8806 2739 
3 2772 10507 3111 
3 2790 8924 8055 
3 2794 2795 2791 
3 2792 3413 2820 
3 2821 8475 2793 
3 2796 2797 2795 
3 2798 2799 2797 
3 2797 9381 2803 
3 2800 2801 2799 
3 2802 2925 2801 
3 2802 9791 3431 
3 2823 2824 2821 
3 2824 9666 8475 
3 2828 2829 2826 
3 2829 3209 2826 
3 2927 2928 2829 
3 2829 8476 3209 
3 4392 4393 2897 
3 2901 3266 2902 
3 2906 3272 2990 
3 2926 3303 2925 
3 3160 3162 2928 
3 3162 3430 2928 
3 2937 3202 2940 
3 2951 3240 2952 
3 2952 9034 2998 
3 2954 2991 2955 
3 2980 4939 3852 
3 2991 3313 2992 
3 3629 3640 3014 
3 3033 3035 3034 
3 3135 8222 3167 
3 3157 4822 3918 
3 3162 9275 3430 
3 3204 3420 3203 
3 3203 8929 8834 
3 4278 10187 3266 
3 3272 4182 3273 
3 3277 3894 3276 
3 3283 3867 3343 
3 4333 4843 3304 
3 3314 9214 3313 
3 3313 4037 3315 
3 3315 8807 3922 
3 3357 7744 7743 
3 9242 9374 3396 
3 3421 3422 3420 
3 3423 3424 3422 
3 3425 3450 3424 
3 3431 7774 4994 
3 4995 7178 3432 
3 9155 10466 3454 
3 3461 8566 8458 
3 3494 3496 3495 
3 3496 3498 3497 
3 3497 9463 4899 
3 3641 5065 3640 
3 3671 3673 3672 
3 3678 3957 3956 
3 3683 4109 3682 
3 4138 5611 3768 
3 3769 4731 4139 
3 4824 8576 3918 
3 3922 4335 4334 
3 4336 4421 3923 
3 4983 5865 4004 
3 4005 5052 4984 
3 8057 8302 4010 
3 8942 9791 4014 
3 4489 4490 4020 
3 4021 5024 4491 
3 4035 5018 4036 
3 4037 8808 8807 
3 4110 9595 5771 
3 5127 9284 4139 
3 4322 7835 5276 
3 4333 9637 5306 
3 8807 8809 4335 
3 4394 4395 4393 
3 5439 5533 4429 
3 5548 8933 4457 
3 5504 8304 4489 
3 8304 8305 4490 
3 4598 5898 5896 
3 4692 4693 4691 
3 5150 5151 4716 
3 4776 7548 6260 
3 4782 5257 5256 
3 4808 6218 5244 
3 4822 8528 4823 
3 5023 5314 4822 
3 4823 5312 5294 
3 5301 5615 4824 
3 5305 6333 4843 
3 4852 5478 4854 
3 5420 5770 4856 
3 4889 5423 5422 
3 4982 8635 5547 
3 4994 5583 5582 
3 5018 9786 5019 
3 5672 5673 5018 
3 5023 8949 6513 
3 5024 6548 5025 
3 5040 8529 5715 
3 5760 7726 5140 
3 7073 10112 5141 
3 5171 7114 6146 
3 5311 8940 5305 
3 5306 6479 5552 
3 5553 7074 5311 
3 5671 6953 5314 
3 8081 8082 5417 
3 5439 9457 7559 
3 7041 7225 5450 
3 5504 8568 8307 
3 5533 7684 5536 
3 7757 10254 5536 
3 5555 8771 5553 
3 5554 8296 5556 
3 5557 5558 5555 
3 5556 9343 5722 
3 5580 8157 5581 
3 5607 6416 6386 
3 5612 5613 5611 
3 5611 9686 9273 
3 5616 5617 5615 
3 5615 9305 8576 
3 5616 8309 6933 
3 5618 5619 5617 
3 5620 6076 5619 
3 8930 8975 5626 
3 5626 9250 8930 
3 5672 9276 9167 
3 5673 9815 9786 
3 5676 5727 5675 
3 5682 6061 6060 
3 5692 5694 5693 
3 5694 5696 5695 
3 5800 5801 5696 
3 5714 6542 5703 
3 5703 9869 5829 
3 5868 9986 5714 
3 5715 7260 6353 
3 5729 8953 8720 
3 5757 6025 6024 
3 6014 6015 5770 
3 5802 5803 5801 
3 5818 5819 5803 
3 5820 5821 5819 
3 5899 6645 5898 
3 5936 6612 5947 
3 6585 6586 6061 
3 6090 6091 6068 
3 6076 6538 6537 
3 6153 7082 6155 
3 6250 6261 6252 
3 6879 6880 6268 
3 7168 7169 6354 
3 6494 6496 6495 
3 6538 8775 8774 
3 6550 8655 8570 
3 6679 6681 6680 
3 6681 6683 6682 
3 6684 6947 6686 
3 7169 10529 10228 
3 8134 10823 7177 
3 7267 7268 7266 
3 10687 10917 7540 
3 7645 7676 7643 
3 7650 7651 7649 
3 7727 7728 7726 
3 7902 7903 7901 
3 7903 8431 8430 
3 8059 8301 8057 
3 8058 8504 8061 
3 8091 9605 8292 
3 8306 8563 8304 
3 8390 8394 8392 
3 8432 8433 8431 
3 8434 8435 8433 
3 8438 10233 8437 
3 8437 10313 10217 
3 8458 8460 8459 
3 8460 9731 8526 
3 8566 9573 8460 
3 8556 9333 8570 
3 8727 9528 8725 
3 9344 9345 8758 
3 8929 8931 8930 
3 9245 9641 9454 
3 7 496 6 
3 30 420 29 
3 47 520 46 
3 52 521 51 
3 54 401 53 
3 56 522 55 
3 58 453 57 
3 63 408 62 
3 65 523 64 
3 67 454 66 
3 69 506 68 
3 75 480 74 
3 78 427 77 
3 81 481 80 
3 87 524 86 
3 89 441 88 
3 91 525 90 
3 93 455 92 
3 100 498 99 
3 302 567 301 
3 304 499 303 
3 311 446 310 
3 313 527 312 
3 316 437 315 
3 321 430 320 
3 324 482 323 
3 327 423 326 
3 344 544 343 
3 346 452 345 
3 349 529 348 
3 351 400 350 
3 353 530 352 
3 355 456 354 
3 360 411 359 
3 362 531 361 
3 364 457 363 
3 366 507 365 
3 372 483 371 
3 375 426 374 
3 378 484 377 
3 384 532 383 
3 386 440 385 
3 388 505 387 
3 390 458 389 
3 397 493 396 
3 399 565 398 
3 8255 9332 543 
3 613 1438 615 
3 617 3599 619 
3 8599 8601 754 
3 758 3362 755 
3 11110 11132 766 
3 770 773 772 
3 773 775 774 
3 775 777 776 
3 8459 8526 778 
3 791 798 796 
3 796 10183 800 
3 800 3412 802 
3 803 8506 801 
3 806 807 803 
3 805 1075 872 
3 808 809 807 
3 810 811 809 
3 849 851 850 
3 863 865 864 
3 4426 8542 864 
3 865 867 866 
3 867 874 873 
3 874 879 878 
3 885 9294 878 
3 883 9296 899 
3 1009 1015 1014 
3 1015 1021 1020 
3 1016 8315 1024 
3 1021 1046 1045 
3 1024 1042 1030 
3 1031 1032 1025 
3 1026 8317 1074 
3 1052 4403 1027 
3 1033 1034 1032 
3 1035 1039 1034 
3 1039 2655 2654 
3 1042 3154 3088 
3 1046 1067 1065 
3 1059 9594 9593 
3 1064 1068 1063 
3 1077 1079 1078 
3 3777 8583 1079 
3 1081 1083 1082 
3 1083 1085 1084 
3 1585 8249 1083 
3 9607 9734 1084 
3 1085 1087 1086 
3 1205 9607 1086 
3 1094 9213 3438 
3 1104 1105 1103 
3 1106 1107 1105 
3 1110 1111 1109 
3 1112 8584 3600 
3 1114 1115 1113 
3 1116 1117 1115 
3 1120 1121 1119 
3 1235 1236 1210 
3 1232 1294 1293 
3 1282 8311 1302 
3 1302 2648 1350 
3 1303 1548 1547 
3 1308 8242 1440 
3 4441 8587 1312 
3 1313 1315 1314 
3 1318 1319 1317 
3 1318 9420 3348 
3 1322 1323 1321 
3 1322 8095 1497 
3 1324 1325 1323 
3 1345 8715 1383 
3 1422 8800 8798 
3 1440 6670 4442 
3 1461 1470 1460 
3 1464 4461 1465 
3 1470 1506 1492 
3 5457 5933 1490 
3 1506 1550 1549 
3 1521 1613 1520 
3 1548 1569 1568 
3 1550 1616 1615 
3 1639 10040 1551 
3 1552 1640 1639 
3 1569 1595 1594 
3 1647 9339 1615 
3 1699 10206 1903 
3 1717 2092 1715 
3 1719 8535 1717 
3 1721 5731 1719 
3 1723 8861 1721 
3 1725 1726 1723 
3 1724 4016 4015 
3 1727 1728 1726 
3 1727 9559 1740 
3 1729 1730 1728 
3 1728 9560 3532 
3 1731 1732 1730 
3 1733 1734 1732 
3 1739 8256 1737 
3 1738 5646 1742 
3 8061 8645 1740 
3 1740 10123 8061 
3 1742 9241 1744 
3 1745 1767 1743 
3 1744 2065 1977 
3 1764 1861 1765 
3 1768 1769 1767 
3 1768 8923 4228 
3 1770 1838 1769 
3 1798 1799 1797 
3 1800 1801 1799 
3 1805 3612 1808 
3 1810 4516 1807 
3 1814 1815 1812 
3 1817 1818 1815 
3 1829 1830 1820 
3 1822 1831 1823 
3 1831 1871 1832 
3 1839 1893 1838 
3 1839 8895 1972 
3 1964 1965 1841 
3 1861 1994 1973 
3 2232 8962 1861 
3 1866 2199 2198 
3 2593 4249 1871 
3 1889 2046 1890 
3 1894 1950 1893 
3 1951 1984 1950 
3 1951 8965 8897 
3 2012 2114 1965 
3 1971 2082 2081 
3 1985 2049 1984 
3 1985 8897 2051 
3 1994 2197 2151 
3 8544 9560 2000 
3 2142 2143 2041 
3 2050 8869 2049 
3 2049 4737 3589 
3 2052 2053 2050 
3 2054 2055 2053 
3 2056 2057 2055 
3 2058 2059 2057 
3 2364 2365 2143 
3 2151 9244 2362 
3 2190 2195 2189 
3 2196 2224 2195 
3 2195 9330 3692 
3 2199 2201 2200 
3 2201 2203 2202 
3 2203 2205 2204 
3 2205 2207 2206 
3 2209 2212 2211 
3 2219 2220 2216 
3 2217 6539 2504 
3 2223 9173 2452 
3 2364 8901 2580 
3 2572 2573 2411 
3 2437 3045 3044 
3 8574 9202 2459 
3 2511 3433 2509 
3 2515 3590 2513 
3 2514 2518 2516 
3 2516 9565 2581 
3 2581 9291 2745 
3 2746 2781 2582 
3 2617 4726 4581 
3 2655 2657 2656 
3 2659 2662 2660 
3 2662 2957 2663 
3 2701 8575 3401 
3 2733 3172 2732 
3 2745 3166 3165 
3 2782 2783 2781 
3 2933 2934 2783 
3 2787 4019 2785 
3 2850 8356 2848 
3 2899 2901 2900 
3 2921 3157 3156 
3 2934 8088 4017 
3 3818 3819 2957 
3 2976 3268 2977 
3 3307 3820 3004 
3 3031 3033 3032 
3 8576 8967 3156 
3 3166 4216 4215 
3 4247 4248 3172 
3 3174 3199 3175 
3 4001 4011 3189 
3 3191 3193 3192 
3 8167 8168 3191 
3 3193 3195 3194 
3 3195 8840 3196 
3 3805 5476 3195 
3 4002 4024 3199 
3 3201 4415 3539 
3 3226 3730 3391 
3 3267 4961 4279 
3 3282 7942 3283 
3 3324 4409 3981 
3 3474 3475 3473 
3 3473 8592 5679 
3 3476 3477 3475 
3 3477 3479 3478 
3 3973 9229 3480 
3 3493 5526 3491 
3 3534 8534 8533 
3 3610 4052 4051 
3 3624 9305 9233 
3 3667 3668 3666 
3 3669 8952 3668 
3 3668 3671 3670 
3 3757 8719 3675 
3 4112 4113 3757 
3 3818 8247 5579 
3 3820 4128 3821 
3 8972 9163 3821 
3 3847 4171 3882 
3 3852 4280 3851 
3 3939 10062 3936 
3 3972 8486 3974 
3 3975 4492 3973 
3 3974 4931 4205 
3 4206 9732 3975 
3 4001 8322 4420 
3 4016 9382 8193 
3 4061 4072 4052 
3 4115 4116 4113 
3 4115 8404 4723 
3 4117 4118 4116 
3 4219 4220 4118 
3 4127 8970 8774 
3 4128 4746 4129 
3 5627 8972 4129 
3 4776 5234 4192 
3 4205 9335 4889 
3 4522 4523 4216 
3 4216 8664 4875 
3 4219 7457 4220 
3 4943 4944 4248 
3 4589 5716 4249 
3 4279 5203 4278 
3 4325 4327 4324 
3 4348 5189 4350 
3 4352 4358 4357 
3 4352 5200 4358 
3 4383 5411 4382 
3 4793 4818 4395 
3 4407 5652 5436 
3 4409 4551 4550 
3 4417 5442 4538 
3 4869 4971 4460 
3 4492 9640 9229 
3 4517 6521 4560 
3 4524 4525 4523 
3 4524 9170 5732 
3 4528 4529 4527 
3 4528 8595 4532 
3 4530 4531 4529 
3 4533 4534 4531 
3 4533 8973 4707 
3 4550 9126 5356 
3 4876 4878 4561 
3 4571 4573 4572 
3 4704 4706 4705 
3 5433 9661 4705 
3 4713 4714 4706 
3 4715 4716 4714 
3 4727 4728 4726 
3 4746 9138 4747 
3 4755 5945 4746 
3 4747 9140 5628 
3 9138 9140 4747 
3 4755 8503 6208 
3 5546 9285 4819 
3 4877 5682 5681 
3 5639 5640 4884 
3 4893 9182 7163 
3 4968 5921 5920 
3 4973 6445 5447 
3 5042 10043 8720 
3 6020 6547 5061 
3 6546 8368 5076 
3 6664 6666 5151 
3 5205 6233 6217 
3 5356 7151 7150 
3 5414 7119 5412 
3 5432 7197 6337 
3 6362 7155 5437 
3 5593 6555 5442 
3 6379 8008 5540 
3 5547 7973 6438 
3 7749 7750 5548 
3 5605 9466 5607 
3 6678 6679 5613 
3 7120 7166 5640 
3 8863 9467 5646 
3 5679 9640 9245 
3 5704 6021 5721 
3 9278 9279 5704 
3 5713 5967 5966 
3 5728 5848 5727 
3 5796 6439 6359 
3 5826 6762 5828 
3 5835 10355 10295 
3 5842 10295 10105 
3 5934 5935 5933 
3 5933 10639 9371 
3 5945 9139 9138 
3 6032 10816 10794 
3 6095 6992 6043 
3 6208 8594 6210 
3 6937 6938 6209 
3 6380 7804 7049 
3 8128 9839 6391 
3 6439 8127 6440 
3 6513 9203 9202 
3 8970 9233 6537 
3 6546 9710 8544 
3 7157 7402 7158 
3 7458 7459 7457 
3 7459 7464 7457 
3 7458 7461 7460 
3 11115 11162 7461 
3 7648 7649 7647 
3 7649 9459 7675 
3 7952 7953 7950 
3 8122 11242 11235 
3 8954 10123 8194 
3 8269 8271 8270 
3 8958 8959 8311 
3 8443 8446 8445 
3 8759 9468 8846 
3 8799 9303 8797 
3 9420 9937 9419 
3 10930 11020 10463 
3 12 559 11 
3 619 620 618 
3 621 1362 623 
3 748 1435 750 
3 755 8599 752 
3 847 849 848 
3 855 4423 857 
3 859 863 861 
3 862 1268 860 
3 878 9294 873 
3 899 900 885 
3 5756 9469 1021 
3 1206 1207 1067 
3 1087 1089 1088 
3 1127 1128 1125 
3 1159 1160 1155 
3 1181 5709 1204 
3 2462 7492 1185 
3 1195 1233 1227 
3 3356 8586 1228 
3 1234 1773 1772 
3 1234 7858 1773 
3 3593 8998 1314 
3 1316 1317 1315 
3 1315 8670 1368 
3 1344 1386 1345 
3 1368 7636 3604 
3 1409 1421 1377 
3 1436 1437 1386 
3 1472 1520 1466 
3 1489 7881 1472 
3 1472 1521 1520 
3 5085 5503 1493 
3 1543 1544 1508 
3 1597 1600 1599 
3 1673 1674 1655 
3 2139 4502 1688 
3 1698 1879 1699 
3 1735 1736 1734 
3 1737 1741 1736 
3 1747 1764 1748 
3 1781 1782 1780 
3 1782 1824 1809 
3 1785 5509 1783 
3 1786 2501 1788 
3 1788 1789 1787 
3 1789 1821 1787 
3 1790 1791 1789 
3 1793 3702 1791 
3 1792 1837 1794 
3 1814 1817 1815 
3 1872 2509 1832 
3 1844 2005 1954 
3 1904 1905 1847 
3 1870 4456 3704 
3 1950 8321 1952 
3 1952 9447 8657 
3 2105 2106 2008 
3 2064 7733 2027 
3 2037 2323 2072 
3 4342 4399 2038 
3 2053 8870 8869 
3 2060 2061 2059 
3 2083 2084 2082 
3 2164 9203 2627 
3 2176 6641 6426 
3 3357 7742 2182 
3 2227 2247 2226 
3 2248 2251 2247 
3 2251 3426 2247 
3 2578 2579 2365 
3 2392 2540 2391 
3 2701 2811 2435 
3 2627 8949 2921 
3 2922 2923 2628 
3 3390 5805 2643 
3 2823 2825 2824 
3 2918 2919 2917 
3 3003 3004 2923 
3 3029 3031 3030 
3 3136 3282 3137 
3 3201 3538 3200 
3 3239 3354 3237 
3 3858 3859 3300 
3 3314 9797 9214 
3 3647 9108 3356 
3 3479 3971 3480 
3 3481 9322 3479 
3 3511 4230 4229 
3 3604 4244 3605 
3 3606 10322 7241 
3 3658 3660 3659 
3 3661 3662 3660 
3 3661 9533 7816 
3 3665 3666 3664 
3 3706 3710 3708 
3 3719 8135 4022 
3 3881 4192 3846 
3 3868 4301 3901 
3 3868 5907 4301 
3 4304 4305 3880 
3 3938 3941 3940 
3 3947 8031 3954 
3 4196 4197 3952 
3 3971 4917 3972 
3 4217 9558 3984 
3 4347 4888 3991 
3 4028 10082 9777 
3 4476 4477 4088 
3 4106 5156 4107 
3 4107 9988 4910 
3 6387 6388 4108 
3 4200 5396 5395 
3 4886 4887 4217 
3 4225 4970 4969 
3 4328 7524 4414 
3 4377 4782 4781 
3 4680 7473 4682 
3 4690 4691 4689 
3 4862 9434 4863 
3 4863 6171 6170 
3 4910 6580 6579 
3 4913 10658 7358 
3 4967 8833 8832 
3 5930 9627 5009 
3 5123 6042 5121 
3 5157 5926 5156 
3 5238 7036 6777 
3 5246 6823 6769 
3 6599 9793 5313 
3 5353 8228 5773 
3 5457 5934 5933 
3 5467 11184 10299 
3 6558 7566 5503 
3 5734 9621 5523 
3 5576 6990 6569 
3 5622 9311 9026 
3 8912 9447 5688 
3 5707 5708 5706 
3 8151 9764 5779 
3 5878 7817 7816 
3 5885 5886 5884 
3 5905 9928 6454 
3 6509 7625 6031 
3 6201 7863 7862 
3 7037 7363 6360 
3 7365 7366 6437 
3 9158 9283 6505 
3 6525 8894 8656 
3 9381 9724 6562 
3 6649 10908 10861 
3 7291 7299 7289 
3 7637 7639 7638 
3 7817 10175 7818 
3 7933 8813 7934 
3 9093 9094 8256 
3 8582 9213 8581 
3 9094 9109 9005 
3 9144 9494 9142 
3 170 416 169 
3 183 434 182 
3 185 537 184 
3 243 405 242 
3 269 417 268 
3 282 435 281 
3 284 539 283 
3 482 8384 323 
3 514 8754 8753 
3 571 572 569 
3 625 3566 627 
3 632 633 630 
3 638 3754 636 
3 642 757 640 
3 643 3626 645 
3 646 3520 644 
3 647 880 649 
3 650 1092 648 
3 652 9234 650 
3 654 3635 652 
3 660 661 658 
3 660 8819 663 
3 664 9117 662 
3 663 5600 665 
3 666 5623 664 
3 667 1500 669 
3 672 673 671 
3 673 9364 3443 
3 676 677 675 
3 676 8821 3568 
3 678 679 677 
3 677 8822 1589 
3 680 9118 1697 
3 682 683 681 
3 686 687 685 
3 685 8580 799 
3 688 689 687 
3 687 8825 8580 
3 690 691 689 
3 690 8979 3794 
3 692 693 691 
3 691 8980 3642 
3 694 9197 1622 
3 696 697 695 
3 695 8668 751 
3 698 699 697 
3 698 8981 3571 
3 700 701 699 
3 702 703 701 
3 702 8885 706 
3 704 705 703 
3 705 829 793 
3 706 6129 710 
3 713 2397 711 
3 712 2073 714 
3 714 9260 716 
3 717 5867 715 
3 716 9448 718 
3 718 1053 720 
3 721 722 719 
3 721 8982 727 
3 723 724 722 
3 725 726 724 
3 724 8826 3567 
3 728 729 726 
3 730 731 729 
3 729 9198 1949 
3 732 733 731 
3 733 9365 3407 
3 736 737 735 
3 736 8669 739 
3 741 8984 738 
3 739 8985 742 
3 743 9312 741 
3 745 2398 743 
3 804 4452 4451 
3 812 814 813 
3 829 831 830 
3 2393 8660 830 
3 831 833 832 
3 3543 8986 831 
3 833 835 834 
3 8329 8330 834 
3 835 837 836 
3 837 839 838 
3 839 841 840 
3 2230 9492 842 
3 843 845 844 
3 3630 8331 845 
3 860 8387 858 
3 862 8542 5654 
3 880 8200 8198 
3 1065 1066 1045 
3 1054 1090 1049 
3 1050 10305 1055 
3 1053 3445 3444 
3 1072 8845 1054 
3 1055 1230 1073 
3 1219 3529 1072 
3 1129 1130 1128 
3 1131 1132 1130 
3 1132 1135 1133 
3 1140 4445 1134 
3 1135 1137 1136 
3 1137 1142 1138 
3 1142 1148 1143 
3 1146 1593 1144 
3 1145 1658 1147 
3 1154 1159 1155 
3 9971 10339 1154 
3 1159 1163 1160 
3 1167 1171 1168 
3 1171 1174 1173 
3 1175 1177 1172 
3 1180 1184 1177 
3 1179 1182 1181 
3 1185 1192 1184 
3 1186 1190 1189 
3 1187 1193 1188 
3 1190 1197 1196 
3 1195 1227 1192 
3 1193 1214 1194 
3 1197 1232 1231 
3 1202 3684 3459 
3 8659 11403 1203 
3 1208 9416 1207 
3 1207 1213 1212 
3 1213 1270 1269 
3 1214 1275 1215 
3 1218 5949 5661 
3 1233 1276 1227 
3 1229 1272 1271 
3 1232 1293 1292 
3 1243 1244 1242 
3 1249 1250 1248 
3 1251 1252 1250 
3 1253 1254 1252 
3 1256 1259 1258 
3 1261 1286 1262 
3 1279 1306 1264 
3 5774 8665 1270 
3 1271 9478 3646 
3 1273 1274 1272 
3 1284 1285 1274 
3 1275 1344 1283 
3 1299 1353 1276 
3 1280 1379 1305 
3 1295 1296 1285 
3 1286 1354 1287 
3 1357 2653 1290 
3 1308 1309 1296 
3 1365 8083 1299 
3 1300 1363 1358 
3 1305 9225 1360 
3 1306 9404 9403 
3 1311 1373 1372 
3 1353 1385 1384 
3 1380 9405 1359 
3 1360 3394 1381 
3 1364 8221 1884 
3 1374 1375 1373 
3 1404 1416 1380 
3 1385 1406 1392 
3 9068 9542 1393 
3 4488 9199 1394 
3 1396 9807 1397 
3 1414 7932 1404 
3 1405 1425 1415 
3 1406 1419 1407 
3 1418 1444 1408 
3 1410 1449 1448 
3 1450 9385 1417 
3 1419 1445 1420 
3 1425 1477 1426 
3 1428 3637 1443 
3 1437 9161 5658 
3 1473 9297 1442 
3 1444 8013 4511 
3 1445 1468 1446 
3 1454 1663 1453 
3 1467 1472 1466 
3 5516 5517 1477 
3 1479 3353 1557 
3 1558 1559 1480 
3 1545 1576 1491 
3 1499 3564 1554 
3 1503 8471 2412 
3 1507 1543 1508 
3 3603 9000 1509 
3 1541 3839 1515 
3 1525 1526 1524 
3 1527 1528 1526 
3 1526 7963 2191 
3 1532 7870 2141 
3 1537 1538 1536 
3 1539 1608 1538 
3 1542 5103 1580 
3 1543 1574 1544 
3 1694 3414 1553 
3 1578 1634 1559 
3 1572 1643 1586 
3 1576 1637 1577 
3 2413 7706 1583 
3 1624 3643 1591 
3 8737 8738 1593 
3 1608 1656 1610 
3 1886 1887 1619 
3 1620 8830 8682 
3 1633 1667 1666 
3 1634 4963 3598 
3 4210 4470 1635 
3 1636 1654 1653 
3 1637 1680 1638 
3 5467 10298 1637 
3 1642 1869 1868 
3 1661 8186 1646 
3 1646 1682 1662 
3 1870 3703 1652 
3 1654 1673 1655 
3 1663 1747 1664 
3 4744 6184 1665 
3 1667 1669 1668 
3 1669 1877 1670 
3 1670 9316 1672 
3 1680 1848 1681 
3 1682 1844 1686 
3 8987 9004 1692 
3 10861 10908 1697 
3 4504 9747 1700 
3 1701 1703 1702 
3 1703 1705 1704 
3 1705 1707 1706 
3 1944 1945 1707 
3 1711 3526 1709 
3 1710 1862 1712 
3 1712 8275 1714 
3 1714 3997 1716 
3 1741 2071 2004 
3 1773 1775 1774 
3 1775 1777 1776 
3 1781 1783 1782 
3 1784 1785 1783 
3 1786 1787 1785 
3 1844 1954 1845 
3 1848 1956 1849 
3 1997 9141 1868 
3 1869 1996 1995 
3 1870 8607 4456 
3 1873 1981 1874 
3 1875 2001 1876 
3 2694 2695 1877 
3 1909 2006 1880 
3 1882 1942 1883 
3 1884 3052 2590 
3 2455 2649 1887 
3 1898 2064 2027 
3 1911 1913 1912 
3 8251 10075 1911 
3 1913 1915 1914 
3 1917 9922 1914 
3 2672 4588 1915 
3 2063 4507 1917 
3 1919 1921 1920 
3 10506 10574 1920 
3 1921 1923 1922 
3 2154 6096 1923 
3 1924 1927 1926 
3 1930 8002 1932 
3 1934 1936 1931 
3 1932 1939 1935 
3 3800 4725 1933 
3 1937 7840 1934 
3 1938 8054 1941 
3 1941 2017 2016 
3 1942 1986 1943 
3 1946 2044 1945 
3 1954 2009 1955 
3 1957 1961 1959 
3 1960 5477 1958 
3 1963 2077 2076 
3 1968 7478 2089 
3 1981 2047 1982 
3 1986 2093 1987 
3 1995 9143 2152 
3 2469 3311 1996 
3 2153 5641 1997 
3 2001 9011 2002 
3 2003 2159 2001 
3 2009 2074 2010 
3 2017 2019 2018 
3 2019 2320 2020 
3 2020 8531 2022 
3 2023 7454 2021 
3 2024 2165 2103 
3 2030 2031 2029 
3 2120 2135 2042 
3 2045 2368 2044 
3 2047 2360 2048 
3 2062 2163 2061 
3 2061 9027 3427 
3 2063 10574 4513 
3 2069 4540 4539 
3 2071 2317 2316 
3 2077 2380 2379 
3 2085 2086 2084 
3 2117 2118 2088 
3 2340 2400 2091 
3 2335 4938 2093 
3 2096 2357 2095 
3 2357 4563 2095 
3 2097 2331 2098 
3 2122 2124 2123 
3 2124 2126 2125 
3 2125 9367 2128 
3 2129 9751 2127 
3 2131 2414 2129 
3 3054 4012 2135 
3 2136 8473 2370 
3 2371 2372 2137 
3 2138 4045 2249 
3 2250 9355 2139 
3 2156 2375 2155 
3 2160 2376 2159 
3 2164 2427 2163 
3 2165 2429 2166 
3 2174 2346 2345 
3 2225 2226 2224 
3 2248 8815 2384 
3 2252 2253 2251 
3 2254 8349 3363 
3 2256 2257 2255 
3 2255 8904 2938 
3 2258 2259 2257 
3 2258 8805 2383 
3 2262 2263 2261 
3 2264 2265 2263 
3 2263 8276 2594 
3 2268 2269 2267 
3 2268 9019 3698 
3 2270 2271 2269 
3 2274 2275 2273 
3 2276 2277 2275 
3 2278 2279 2277 
3 2280 2281 2279 
3 5690 9561 2282 
3 2286 2287 2285 
3 2286 9561 3452 
3 2289 2290 2287 
3 2291 2292 2290 
3 2293 2294 2292 
3 2292 7844 3632 
3 2297 2299 2296 
3 2297 9021 3639 
3 2300 2301 2299 
3 2299 9755 7760 
3 2302 2303 2301 
3 2302 9828 2309 
3 2304 2306 2303 
3 2307 2318 2306 
3 2311 2749 2474 
3 2317 2485 2484 
3 2319 2476 2318 
3 2331 2401 2332 
3 2417 10067 2332 
3 2335 9813 6017 
3 2445 2525 2338 
3 2339 2447 2446 
3 5352 9983 2345 
3 2348 10056 7591 
3 2498 2499 2350 
3 2465 2466 2367 
3 2369 2595 2368 
3 2369 8182 2598 
3 2370 2611 2610 
3 2416 2456 2372 
3 2377 2614 2376 
3 2380 2543 2542 
3 3090 7737 2380 
3 2381 6199 6109 
3 2524 2715 2400 
3 2495 4384 2401 
3 2428 8905 2427 
3 2427 2622 2621 
3 2628 9258 2428 
3 6526 6527 2429 
3 2439 2442 2441 
3 2442 2538 2443 
3 2447 2620 2448 
3 2464 2735 2734 
3 9142 9494 2464 
3 2465 9091 9090 
3 2466 9319 8879 
3 2467 9090 3005 
3 2673 2674 2468 
3 2469 9002 4583 
3 2473 3417 2670 
3 2680 9334 2475 
3 2476 2686 2482 
3 2478 8590 2480 
3 2481 2483 2479 
3 2519 2681 2483 
3 2684 9025 2484 
3 2485 2685 2683 
3 2496 2717 2497 
3 2499 2529 2528 
3 2529 2771 2770 
3 2705 2920 2535 
3 2536 2707 2706 
3 2538 2625 2539 
3 2543 2767 2766 
3 2574 3009 2930 
3 2584 8948 2587 
3 2778 4520 2586 
3 2751 2780 2589 
3 5687 9012 2597 
3 2600 3198 2602 
3 2604 2605 2603 
3 2605 9236 2603 
3 2607 3395 2605 
3 2606 3170 2608 
3 2611 2755 2754 
3 2614 2758 2615 
3 9495 9752 2615 
3 4432 4433 2620 
3 2622 2973 2972 
3 2625 2910 2626 
3 2909 7203 2625 
3 2993 3440 2640 
3 3205 4465 2651 
3 2946 3428 2671 
3 2674 3550 3549 
3 2679 8615 2951 
3 2952 2997 2680 
3 2683 8926 3435 
3 2686 2964 2687 
3 2689 3023 2688 
3 2690 8377 2692 
3 2692 2693 2691 
3 2708 2711 2710 
3 2711 2763 2712 
3 2715 3082 3081 
3 2735 3188 3187 
3 2747 2804 2748 
3 2752 4381 3002 
3 3056 8837 2754 
3 2755 3019 3018 
3 2758 3242 2759 
3 2767 3110 3109 
3 3000 9926 2784 
3 2804 3227 2805 
3 2816 2817 2815 
3 2831 2846 2830 
3 2842 2843 2841 
3 2844 2848 2843 
3 2848 8356 4131 
3 2852 9031 4133 
3 2869 2870 2868 
3 2871 2872 2870 
3 2893 3142 3141 
3 2910 6389 2911 
3 3158 3159 2914 
3 2916 2918 2917 
3 2918 3152 2919 
3 3701 3861 2920 
3 2960 3097 2961 
3 2964 3248 3013 
3 3309 3634 2965 
3 3826 9026 2972 
3 2973 3827 3825 
3 5041 9066 2973 
3 2998 3955 2997 
3 3345 3988 3000 
3 3384 3504 3006 
3 3009 3533 3186 
3 3011 9073 8836 
3 3530 3531 3012 
3 3018 8764 4257 
3 3022 3797 3021 
3 3027 3370 3369 
3 3045 3047 3046 
3 3047 3049 3048 
3 3049 3114 3050 
3 4258 5028 3056 
3 3059 3060 3058 
3 3061 3062 3060 
3 3063 3064 3062 
3 3062 8685 4083 
3 3065 3066 3064 
3 3068 3482 3070 
3 3071 5645 3069 
3 3073 8765 3071 
3 3072 4028 3074 
3 3075 3076 3073 
3 3077 3210 3076 
3 3077 9041 3379 
3 5015 7567 3081 
3 3082 3095 3083 
3 3092 3094 3093 
3 3094 3104 3103 
3 3095 3301 3096 
3 3097 3280 3098 
3 3868 3901 3099 
3 3901 3902 3099 
3 4612 4613 3104 
3 3871 4515 3105 
3 3758 3759 3110 
3 3897 4430 3112 
3 3869 3903 3114 
3 3115 3131 3117 
3 3118 9668 3116 
3 3120 4222 3118 
3 3121 3124 3123 
3 3124 3127 3125 
3 3127 3129 3128 
3 3150 3437 3129 
3 3130 3134 3133 
3 3134 3136 3135 
3 3288 3905 3152 
3 3153 3223 3222 
3 3170 3318 3171 
3 3320 8245 3171 
3 3185 3983 3184 
3 3188 9175 4057 
3 3198 8171 8170 
3 3211 4079 3210 
3 3214 4361 4063 
3 4040 4041 3218 
3 3771 5859 3221 
3 3223 3294 3224 
3 3230 4065 3232 
3 3233 8418 3231 
3 3232 9321 3234 
3 3238 3998 3690 
3 3893 9131 3279 
3 3280 9823 3281 
3 3873 5472 3282 
3 3301 5915 3302 
3 3310 9494 5625 
3 3312 4345 3311 
3 3319 9762 3321 
3 3321 6693 6692 
3 3326 3329 3328 
3 3990 4914 3327 
3 3329 3331 3330 
3 3331 3909 3332 
3 3336 3789 3337 
3 5336 5508 3338 
3 7467 9849 3346 
3 3354 9859 8403 
3 3359 3994 3358 
3 3370 3372 3371 
3 3372 3374 3373 
3 4978 4979 3380 
3 3788 4124 3395 
3 3414 9046 8237 
3 3607 3608 3419 
3 3435 8323 3760 
3 3761 3762 3436 
3 3906 4299 3437 
3 8364 8982 3444 
3 3445 3447 3446 
3 3810 8364 3446 
3 3781 3782 3447 
3 3447 9228 3809 
3 3546 8971 3476 
3 3511 4231 4230 
3 9109 9110 3535 
3 3541 8911 4718 
3 4501 9319 3549 
3 3550 3552 3551 
3 3553 3554 3552 
3 3552 8768 3570 
3 3553 8766 6475 
3 3614 3615 3554 
3 5737 8835 3556 
3 4018 4227 3557 
3 3604 4246 4244 
3 3607 7241 4075 
3 4056 4243 3608 
3 3615 3617 3616 
3 4059 9148 3617 
3 3617 4251 4250 
3 3621 9341 4147 
3 4366 4367 3622 
3 5368 6097 3634 
3 3649 3650 3647 
3 3651 3652 3650 
3 3653 3654 3652 
3 3655 3656 3654 
3 3657 3658 3656 
3 7934 8024 3659 
3 3662 3664 3663 
3 4518 7933 3663 
3 9895 9950 3676 
3 3676 10117 9895 
3 3677 4587 4048 
3 3701 9580 5815 
3 3704 3705 3703 
3 3708 3709 3707 
3 3711 3712 3709 
3 3716 3718 3717 
3 4022 9231 3717 
3 3718 3723 3719 
3 3721 4544 3970 
3 3723 4080 3724 
3 3728 10097 7220 
3 4262 4263 3759 
3 3760 4440 4102 
3 3763 3764 3762 
3 3765 3766 3764 
3 3765 9422 4092 
3 3767 4046 3766 
3 3767 4047 4046 
3 3781 8332 5031 
3 3783 8652 3784 
3 4165 4167 3783 
3 3784 4170 3786 
3 4270 4711 3789 
3 3797 4268 3804 
3 3809 4272 4271 
3 4957 6168 3810 
3 3816 4274 3817 
3 4599 4600 3819 
3 4261 5622 3826 
3 9066 9283 3827 
3 3836 3840 3838 
3 3849 9644 4891 
3 3863 3877 3864 
3 3870 4318 4316 
3 4317 7408 3871 
3 4194 4777 3876 
3 3892 4310 4309 
3 4311 4359 3893 
3 3901 4285 3902 
3 4302 4783 3903 
3 4296 4794 3905 
3 3929 5320 3911 
3 3941 10329 3942 
3 3942 3945 3944 
3 3947 3954 3948 
3 3951 3953 3949 
3 3950 4195 3952 
3 4784 5220 3953 
3 3955 6345 5364 
3 3984 4897 3983 
3 3983 7549 5471 
3 3985 4956 4218 
3 3986 4988 3987 
3 5594 9028 3987 
3 3989 4930 3988 
3 3995 4932 3994 
3 3998 4595 4090 
3 4002 4923 4024 
3 4012 9646 5779 
3 4018 9047 4993 
3 8839 10082 4028 
3 4039 5055 5054 
3 4047 5072 4046 
3 4047 5073 5072 
3 4057 5070 5069 
3 4252 7687 4058 
3 4068 4070 4069 
3 4075 6616 6565 
3 4078 9044 5659 
3 4081 5086 4080 
3 4081 9551 5781 
3 4082 5099 5097 
3 4083 8281 8280 
3 9056 9282 4092 
3 4092 9423 9056 
3 4105 5104 4097 
3 4100 5142 4101 
3 5146 9421 4102 
3 4147 4149 4148 
3 4166 4748 4740 
3 4735 5181 4167 
3 4194 8090 5375 
3 4196 4330 4199 
3 4200 5395 4197 
3 4992 5037 4227 
3 4234 7935 4237 
3 4237 4927 4926 
3 5098 5522 4242 
3 4243 5045 5044 
3 4244 8519 5007 
3 5082 9149 4250 
3 4251 5083 5081 
3 4257 5669 5089 
3 4263 5056 4264 
3 4268 5124 4269 
3 4274 9789 4275 
3 4276 5178 4274 
3 4275 6369 6368 
3 4287 9810 5735 
3 4291 4832 4830 
3 4294 6330 4811 
3 4297 4809 4298 
3 7009 7712 4298 
3 4797 5255 4299 
3 4304 4307 4306 
3 4360 5740 4305 
3 4318 5222 4788 
3 4322 5276 4321 
3 6350 7495 4341 
3 4346 4364 4345 
3 4355 4356 4354 
3 4366 8017 6409 
3 4368 4369 4367 
3 4370 4371 4369 
3 4370 7926 4374 
3 4373 4812 4603 
3 4376 6339 4972 
3 4377 7502 4782 
3 4385 4386 4384 
3 4385 7586 4389 
3 4387 4388 4386 
3 4388 5529 5528 
3 4412 5739 5738 
3 9881 10382 4428 
3 4617 5614 4430 
3 4437 4438 4435 
3 4439 5197 4438 
3 4440 5147 5145 
3 4440 6512 5147 
3 4445 9394 9120 
3 4453 4455 4452 
3 4465 5588 4467 
3 4469 4512 4466 
3 4468 5677 4472 
3 5678 6517 4472 
3 4477 5064 5063 
3 8675 8676 4488 
3 4501 9624 9390 
3 4513 6593 5408 
3 5748 9545 4514 
3 4541 8622 4540 
3 4540 4615 4582 
3 4544 4546 4545 
3 4547 8264 4549 
3 4726 6671 4581 
3 4587 4606 4605 
3 4594 6648 4847 
3 4595 8549 4701 
3 5458 5459 4595 
3 4600 4730 4601 
3 4606 5959 5958 
3 4620 4621 4613 
3 4615 6572 5900 
3 4626 4627 4625 
3 4628 4629 4627 
3 4628 9855 5161 
3 4630 4631 4629 
3 4636 4637 4635 
3 4637 4639 4638 
3 4640 4641 4639 
3 4639 10480 5269 
3 4642 4643 4641 
3 4644 4645 4643 
3 4646 4647 4645 
3 4646 8034 5188 
3 4648 4649 4647 
3 4654 4655 4653 
3 4654 9770 5202 
3 4656 4657 4655 
3 4658 4659 4657 
3 4660 4661 4659 
3 4659 7965 4787 
3 4662 4663 4661 
3 4664 4665 4663 
3 4666 4667 4665 
3 4668 4669 4667 
3 4670 4671 4669 
3 4673 7795 5262 
3 4676 7806 5215 
3 4678 4679 4677 
3 4680 4681 4679 
3 4682 4683 4681 
3 4684 4685 4683 
3 4688 4689 4687 
3 4711 5091 5090 
3 4722 7622 7621 
3 4725 6057 6056 
3 4733 6147 4730 
3 4740 8520 6135 
3 4748 9060 8520 
3 8653 9157 4748 
3 4892 6183 4752 
3 4753 8138 8137 
3 4777 5817 5816 
3 4780 5254 4826 
3 4783 5993 5992 
3 4798 5689 5249 
3 5236 6778 4804 
3 4812 5227 4813 
3 6313 6314 4831 
3 4838 4841 4840 
3 5297 6327 4839 
3 4841 5240 4842 
3 4864 7723 5894 
3 4867 5152 4868 
3 4879 7574 6372 
3 4891 6364 6363 
3 4918 5353 4917 
3 5968 8493 4926 
3 4927 5723 5398 
3 4930 5355 5071 
3 4933 5424 4932 
3 6016 6018 4938 
3 5153 5154 4987 
3 4993 5649 5624 
3 4998 8379 7867 
3 6351 6674 4999 
3 5001 6463 5000 
3 5002 5561 5004 
3 5005 5515 5003 
3 5007 6028 5995 
3 5010 5011 5009 
3 5012 5135 5011 
3 5029 5566 5028 
3 5029 9064 5568 
3 5031 6967 6966 
3 5037 6484 5059 
3 8906 9065 5041 
3 8938 9509 5043 
3 5046 6567 5045 
3 5047 6564 6563 
3 6553 6554 5049 
3 5055 5831 5745 
3 5057 5363 5361 
3 5080 10597 10486 
3 5084 5637 5083 
3 5083 9177 5845 
3 5084 9148 5970 
3 5086 9683 9354 
3 6508 7589 5092 
3 5093 6642 5712 
3 5098 8371 6533 
3 5099 5975 5944 
3 5106 6044 5941 
3 5144 6035 5142 
3 5145 8382 5948 
3 6512 9518 5147 
3 5147 9519 8382 
3 5152 8487 5166 
3 5153 8739 6613 
3 5155 8114 8113 
3 5164 6186 6163 
3 5169 8634 6117 
3 6705 9062 5176 
3 5181 6191 5670 
3 8036 10613 5188 
3 5197 6182 5199 
3 5207 7507 7506 
3 6366 6826 5221 
3 6499 6500 5222 
3 5226 6814 6757 
3 6775 6776 5237 
3 5240 6770 5241 
3 5254 6286 5323 
3 5257 6267 6266 
3 5259 8039 8038 
3 5269 6806 6753 
3 5302 6779 6764 
3 5642 8141 5336 
3 5355 6441 5895 
3 5932 8117 5355 
3 5362 7572 5360 
3 6535 6536 5394 
3 5396 6771 5395 
3 6166 8345 5400 
3 7382 9859 5416 
3 5425 5426 5424 
3 5430 7380 6370 
3 5444 8246 8245 
3 5455 5878 5454 
3 5462 9067 7768 
3 5469 7282 5468 
3 5473 5474 5472 
3 5473 8488 6410 
3 6256 6851 5474 
3 5507 9761 8502 
3 5508 5574 5573 
3 5515 7987 7986 
3 5517 5630 5629 
3 6531 6532 5522 
3 6478 8348 5560 
3 5566 9073 6510 
3 5569 5570 5567 
3 5568 5986 5914 
3 5571 5572 5570 
3 5572 5648 5647 
3 8397 9175 5573 
3 5574 5576 5575 
3 9769 9776 5588 
3 5614 6575 5701 
3 6501 9065 5627 
3 5628 6503 6502 
3 8205 9050 5629 
3 5637 10216 9177 
3 8879 9323 5641 
3 5799 9069 5648 
3 5648 9070 6489 
3 5659 9061 6006 
3 6348 6349 5668 
3 5678 7571 6534 
3 5689 11033 7315 
3 5697 6344 5698 
3 5706 9506 8971 
3 5707 9054 6638 
3 5717 9070 9069 
3 5723 7576 7005 
3 6024 7061 5734 
3 5737 9418 8835 
3 5739 7981 6528 
3 9057 9176 5739 
3 5744 7504 7189 
3 5974 8510 5776 
3 5781 9951 5783 
3 5809 5810 5808 
3 5809 6428 5810 
3 6027 6144 5855 
3 6481 6803 5910 
3 5916 5917 5915 
3 5960 5961 5959 
3 5962 5964 5961 
3 5970 9055 5972 
3 7618 7619 5971 
3 6018 7853 6447 
3 9056 9521 6029 
3 6040 6088 6087 
3 7924 10623 6055 
3 6086 6122 6085 
3 6099 9849 6673 
3 6141 9518 6140 
3 6140 9442 8383 
3 6141 9519 9518 
3 6248 6849 6247 
3 6261 8098 6262 
3 6322 7685 6266 
3 6267 6367 6321 
3 6286 6318 6317 
3 6287 6876 6288 
3 6307 6848 6690 
3 6315 6316 6314 
3 6345 9324 8111 
3 7143 10163 6349 
3 6357 8312 7930 
3 6364 7254 7253 
3 6373 7705 7107 
3 6375 6434 6374 
3 6431 7468 6428 
3 6434 9707 9706 
3 6441 7075 6442 
3 9008 9922 6462 
3 6470 6472 6471 
3 8602 9492 6478 
3 7769 8359 6483 
3 6493 6497 6492 
3 6494 9320 6496 
3 6505 9283 6502 
3 6503 6711 6504 
3 6716 9157 6507 
3 6510 9037 8838 
3 6524 6525 6523 
3 6532 9552 8708 
3 6536 7391 7390 
3 6567 9039 6568 
3 6878 6885 6607 
3 6611 10311 9674 
3 6773 6821 6774 
3 6805 7025 6783 
3 6792 6795 6794 
3 6809 6810 6808 
3 8332 9448 6967 
3 7026 7027 7025 
3 7028 7029 7027 
3 7030 7031 7029 
3 7032 7033 7031 
3 7078 7080 7079 
3 7168 7171 7170 
3 7288 7290 7289 
3 7290 7292 7291 
3 7387 7388 7386 
3 7869 9987 9894 
3 7913 7925 7911 
3 7925 10665 10124 
3 7970 8639 8386 
3 8831 8832 8054 
3 8129 9119 8131 
3 10510 10573 8130 
3 8148 9338 8500 
3 8161 8163 8162 
3 8598 8660 8163 
3 8172 8173 8171 
3 8176 8177 8174 
3 8201 8202 8200 
3 8237 8997 8996 
3 8283 8372 8280 
3 8281 8284 8282 
3 8685 9072 8281 
3 8348 9654 9063 
3 9110 9497 8350 
3 8355 9497 8911 
3 8373 9510 8372 
3 9340 9861 8417 
3 8426 9674 8425 
3 9579 10497 8590 
3 8623 8624 8622 
3 8623 9238 8626 
3 8627 8628 8625 
3 8639 9654 9317 
3 10085 10249 8661 
3 8677 9504 8676 
3 8676 9365 9199 
3 8679 8680 8677 
3 8680 9655 9504 
3 8770 10205 10110 
3 8906 9258 9163 
3 9751 9943 9017 
3 9021 9024 9022 
3 9090 9346 9227 
3 9143 9144 9142 
3 9748 10297 9416 
3 14 445 13 
3 95 8183 526 
3 392 8253 543 
3 601 603 602 
3 2665 8507 809 
3 1998 5711 884 
3 1005 1011 1009 
3 1078 3588 1076 
3 1171 3344 1174 
3 1197 10238 9314 
3 1223 1224 1222 
3 1251 1253 1252 
3 1255 1257 1256 
3 1262 2396 1260 
3 1277 1278 1267 
3 1286 9871 1354 
3 8671 9209 1342 
3 1354 1398 1396 
3 1397 1498 1355 
3 1499 1553 1498 
3 1644 9315 1586 
3 1659 4614 2194 
3 2668 2669 2472 
3 2522 2896 2722 
3 2617 4727 4726 
3 2702 7364 2980 
3 2782 2933 2783 
3 3190 4001 3189 
3 3275 3286 3274 
3 3894 7815 3276 
3 3480 9229 3478 
3 4051 9463 3498 
3 3586 3977 3585 
3 3667 3674 3669 
3 3756 4111 3757 
3 3978 4493 3977 
3 8841 9639 3999 
3 4003 8934 6150 
3 4116 5042 4113 
3 4889 4890 4206 
3 4875 5540 4215 
3 5205 5206 4281 
3 4385 4389 4387 
3 5048 5049 4498 
3 4522 4524 4523 
3 4858 8664 4523 
3 4530 4533 4531 
3 6384 6385 4887 
3 4909 5210 5208 
3 6146 6178 5172 
3 6041 6663 5348 
3 6378 6379 5540 
3 5693 9673 9247 
3 5720 10309 7125 
3 5951 9953 7564 
3 6235 6237 6236 
3 6246 6247 6245 
3 8447 9718 8454 
3 228 9336 422 
3 570 6270 571 
3 824 826 825 
3 1383 1552 1551 
3 1994 2151 1973 
3 1976 2150 2149 
3 2065 2066 1977 
3 1994 8962 3472 
3 2067 2355 2066 
3 2170 2171 2101 
3 2197 9244 2151 
3 2172 2336 2171 
3 2356 2546 2355 
3 2403 2721 2532 
3 2491 2493 2492 
3 2546 2724 2548 
3 2791 3544 2547 
3 8834 9250 2548 
3 2581 2745 2582 
3 2724 2995 2725 
3 3203 8834 2725 
3 2745 3165 2746 
3 2746 8380 2782 
3 7625 10457 2753 
3 2782 9649 2933 
3 2934 4017 2783 
3 2790 8055 2794 
3 2794 4010 2796 
3 2797 2803 2795 
3 2799 9381 2797 
3 2798 4014 2800 
3 2801 9724 2799 
3 2802 3431 2926 
3 2933 3324 3322 
3 3273 3274 2990 
3 3299 3860 3858 
3 3477 3478 3475 
3 8873 9535 3544 
3 3641 5066 5065 
3 3814 9124 7790 
3 4822 4823 3918 
3 4528 4532 4530 
3 4534 9661 4531 
3 4533 4707 4703 
3 4550 5356 4884 
3 4579 6335 6334 
3 4997 5051 4602 
3 4706 5432 4705 
3 4823 5294 4824 
3 5023 6513 5671 
3 5301 8309 5616 
3 6953 6954 5314 
3 5733 5734 5523 
3 5616 6933 5618 
3 5619 9233 5617 
3 6076 6537 5619 
3 5671 8574 6962 
3 5692 9380 8941 
3 5801 8638 5696 
3 6636 6637 6095 
3 6101 6977 6100 
3 6337 7200 6988 
3 6538 8774 6537 
3 6603 10771 10767 
3 6956 6957 6877 
3 10269 10342 7223 
3 8924 9374 8055 
3 8929 8930 8834 
3 24 428 23 
3 129 9292 421 
3 146 8777 545 
3 155 8778 547 
3 157 8578 461 
3 162 8745 409 
3 164 8779 548 
3 166 8747 462 
3 173 8780 485 
3 185 8781 537 
3 188 8748 442 
3 212 8749 447 
3 243 8539 405 
3 250 8787 555 
3 254 8788 556 
3 256 8579 464 
3 261 8751 410 
3 263 8790 557 
3 265 8752 465 
3 272 8792 486 
3 274 8648 558 
3 287 8755 443 
3 498 9873 570 
3 599 601 600 
3 637 638 636 
3 647 9171 880 
3 650 9234 1092 
3 1439 8291 815 
3 818 820 819 
3 820 822 821 
3 886 887 882 
3 1026 1051 1027 
3 1055 1072 1054 
3 1139 9309 5650 
3 1155 8336 3726 
3 1186 1189 1182 
3 1194 9376 3080 
3 1280 9235 1379 
3 1374 1376 1375 
3 1437 5658 1386 
3 1426 1427 1415 
3 1428 1442 1427 
3 1436 5662 1441 
3 1441 1454 1453 
3 1441 9578 1454 
3 1443 1473 1442 
3 1454 1688 1663 
3 1535 1537 1536 
3 1635 1636 1575 
3 1636 1653 1652 
3 1747 1748 1664 
3 1748 3460 1664 
3 1877 9316 1670 
3 1883 1993 1674 
3 1982 2140 1874 
3 1942 1943 1883 
3 1888 1999 1998 
3 1924 1926 1925 
3 1927 1928 1926 
3 1928 1930 1929 
3 1939 8831 1935 
3 1938 1941 1940 
3 1941 2016 2015 
3 1942 9813 1986 
3 1959 1960 1958 
3 1999 2246 2245 
3 2360 2361 2048 
3 2063 4513 4508 
3 2080 6118 5446 
3 2331 2332 2098 
3 2168 2339 2338 
3 2246 2471 2470 
3 2289 2291 2290 
3 2474 2475 2312 
3 2340 5062 2524 
3 8763 9340 2372 
3 2679 2680 2475 
3 7086 7592 2525 
3 2629 8545 2571 
3 2893 3140 2892 
3 5364 9334 2997 
3 2998 4883 3955 
3 3042 3409 3040 
3 3147 3148 3145 
3 3149 3289 3148 
3 4087 4089 3240 
3 3272 4565 4182 
3 3507 3509 3508 
3 3509 3510 3508 
3 3523 3587 3546 
3 5320 10008 3911 
3 4143 4915 3962 
3 4009 5707 5706 
3 4025 4479 4026 
3 4616 4702 4089 
3 4099 6341 4710 
3 4231 4232 4230 
3 4262 5129 4263 
3 4366 4368 4367 
3 6490 6491 4478 
3 4494 5538 4493 
3 4790 5223 4619 
3 4651 5266 4649 
3 5263 9325 4667 
3 4670 4672 4671 
3 4830 6312 4831 
3 6372 6373 4880 
3 6568 7969 5045 
3 5066 8308 5873 
3 6718 6719 5187 
3 9652 10742 5511 
3 5547 6438 5548 
3 5631 8205 5629 
3 5666 9507 5664 
3 5667 7085 6348 
3 6349 6394 5668 
3 5707 6602 5708 
3 5757 6024 5734 
3 5775 5776 5768 
3 6773 6774 5917 
3 5974 8511 8510 
3 6464 10338 10022 
3 6494 6495 6493 
3 6513 9202 8574 
3 6978 8069 6514 
3 6638 7777 6602 
3 6614 10786 10785 
3 6782 6805 6783 
3 9328 9390 8682 
3 10363 10366 9237 
3 9484 9486 9485 
3 629 631 630 
3 631 9691 632 
3 1218 5661 631 
3 1202 3459 633 
3 635 637 636 
3 637 639 638 
3 3469 8659 637 
3 645 647 646 
3 647 649 648 
3 649 651 650 
3 657 659 658 
3 697 8668 695 
3 701 8161 699 
3 700 8885 702 
3 705 793 703 
3 706 710 707 
3 712 714 713 
3 714 716 715 
3 2073 9260 714 
3 716 718 717 
3 829 830 793 
3 831 832 830 
3 833 834 832 
3 837 9119 8129 
3 843 8992 3630 
3 855 857 856 
3 904 905 887 
3 1053 9448 8332 
3 1426 1428 1427 
3 1477 9050 1426 
3 1443 1474 1473 
3 1454 2138 1688 
3 5517 5629 1477 
3 1601 1602 1599 
3 1626 1627 1607 
3 1875 1876 1644 
3 1698 4482 1879 
3 1725 9559 1727 
3 1730 9560 1728 
3 1733 8863 1735 
3 1738 1742 1739 
3 1767 9093 1743 
3 1744 1977 1745 
3 1768 4228 1770 
3 1838 4510 1769 
3 1893 8866 1838 
3 1839 1972 1894 
3 1950 1952 1893 
3 1951 8897 1985 
3 2049 3589 1984 
3 1985 2051 2050 
3 2053 8869 2050 
3 2052 2119 2054 
3 2055 8870 2053 
3 2058 2459 2060 
3 2069 9117 4541 
3 2249 2311 2250 
3 2402 2417 2332 
3 2585 9015 2729 
3 4201 9719 2629 
3 3417 8357 2670 
3 2678 2983 2677 
3 2714 2893 2892 
3 2921 3156 2922 
3 2922 8967 3003 
3 3820 3821 3004 
3 3028 5874 3277 
3 3147 3149 3148 
3 3173 4247 3172 
3 3255 3257 3256 
3 5706 8971 3546 
3 3587 5115 4009 
3 8967 9305 3624 
3 3624 9233 8970 
3 3781 5031 4999 
3 3844 4743 4132 
3 4128 8503 4755 
3 4746 4747 4129 
3 4228 8896 8895 
3 4247 4943 4248 
3 5303 9267 4336 
3 4476 6490 4478 
3 5032 7626 4497 
3 4502 9355 8426 
3 5945 9138 4746 
3 4747 5628 5627 
3 4755 6208 6207 
3 4847 5358 5357 
3 5545 7447 4860 
3 6066 6110 5141 
3 5453 6254 6253 
3 5515 9898 7988 
3 8606 9466 5605 
3 5667 6348 5668 
3 5733 5757 5734 
3 8594 8775 6210 
3 6224 6228 6225 
3 6348 7143 6349 
3 6456 6566 6457 
3 6497 6498 6492 
3 6606 6878 6607 
3 6647 10642 10489 
3 7434 7593 7432 
3 9861 9862 8417 
3 8436 8439 8438 
3 8696 10591 8697 
3 442 9525 187 
3 422 8785 227 
3 816 818 817 
3 897 908 901 
3 1058 1060 1044 
3 1209 1210 1052 
3 1249 10193 1251 
3 4461 4964 1465 
3 1494 9209 4506 
3 1602 9361 1599 
3 1903 2040 2039 
3 8321 9447 1952 
3 2061 3427 2059 
3 2062 9203 2164 
3 2100 10053 8903 
3 2209 2213 2212 
3 2226 2750 2224 
3 2454 9155 3454 
3 2619 2631 2630 
3 2627 2921 2628 
3 2631 2633 2632 
3 2635 2638 2636 
3 2702 2980 2979 
3 2899 8004 2901 
3 3004 9163 2923 
3 2954 9273 2991 
3 2991 3314 3313 
3 3315 3316 2992 
3 3034 3113 3032 
3 9027 9311 3427 
3 3673 3678 3672 
3 3739 7539 3742 
3 3769 4138 3768 
3 3769 9437 4731 
3 4138 5612 5611 
3 4334 5303 4336 
3 4484 9326 8655 
3 9167 9276 4490 
3 4500 8341 8340 
3 4731 6662 6661 
3 6158 6160 4739 
3 5313 9793 5315 
3 5345 5346 5344 
3 5580 8158 8157 
3 5796 9850 6439 
3 6030 6032 6031 
3 6275 6894 6859 
3 9642 10314 6452 
3 6523 8657 6522 
3 6525 8656 6523 
3 6542 9986 8565 
3 6686 9995 6685 
3 8025 8027 8026 
3 8443 8453 8446 
3 1133 10125 1130 
3 1470 1492 1460 
3 1628 1629 1578 
3 1653 1870 1652 
3 1653 8607 1870 
3 3526 9201 1709 
3 1741 2004 1736 
3 2071 2316 2004 
3 2031 3340 2029 
3 2071 9005 3535 
3 2152 9143 9142 
3 2427 2621 2163 
3 2164 2627 2428 
3 2203 2210 2205 
3 2255 2938 2253 
3 2258 2383 2260 
3 2317 2484 2316 
3 2485 2683 2484 
3 2495 4385 4384 
3 2504 2505 2503 
3 2606 2608 2607 
3 2622 2972 2621 
3 2622 8905 5041 
3 2685 8926 2683 
3 3187 9544 2734 
3 2807 8355 2810 
3 2810 3541 3022 
3 2915 3158 2914 
3 2973 3825 2972 
3 2987 3778 2988 
3 3797 3804 3021 
3 3031 4391 3033 
3 3246 9442 9277 
3 3332 10008 3330 
3 3910 3911 3332 
3 3541 4718 4717 
3 3570 9624 3551 
3 3706 3708 3707 
3 3740 3793 3792 
3 3760 4102 3761 
3 3764 9509 3762 
3 3766 5043 3764 
3 3765 4092 3767 
3 3767 9282 4047 
3 4596 7423 3801 
3 4268 4269 3804 
3 3827 8653 3825 
3 5622 9026 3826 
3 4826 4827 4071 
3 4402 5335 4130 
3 4165 4735 4167 
3 4166 4740 4261 
3 5369 8617 4180 
3 4233 4234 4232 
3 4246 8519 4244 
3 4312 4792 4313 
3 4365 5469 5468 
3 4415 7841 4417 
3 4934 5653 4567 
3 4577 5211 4576 
3 4626 4628 4627 
3 4628 4630 4629 
3 4637 4640 4639 
3 4644 4646 4645 
3 4672 5213 4674 
3 4686 4688 4687 
3 4748 8520 4740 
3 4740 6135 5322 
3 6745 6746 4767 
3 6385 9558 4887 
3 4893 7163 6361 
3 4948 4950 4949 
3 9065 9066 5041 
3 5753 8914 5073 
3 5595 5946 5101 
3 5125 6003 5126 
3 6120 6187 5127 
3 5145 5948 5146 
3 5147 8382 5145 
3 5400 8634 5169 
3 5628 6502 6501 
3 5737 9773 9418 
3 5811 5813 5812 
3 5916 5918 5917 
3 6140 8383 6138 
3 6269 6879 6268 
3 6503 6504 6502 
3 6506 6715 6507 
3 6522 9447 8912 
3 9060 9157 6716 
3 6723 7035 6722 
3 6882 6892 6891 
3 6908 6911 6909 
3 7021 7226 7020 
3 7383 7385 7384 
3 8383 9038 8367 
3 8425 9674 8964 
3 295 468 294 
3 808 810 809 
3 810 812 811 
3 1344 1345 1283 
3 1302 1349 1301 
3 1345 1383 1382 
3 1378 1409 1377 
3 1698 1699 1660 
3 5679 9244 2197 
3 2537 10218 2336 
3 2364 2578 2365 
3 2737 3163 2736 
3 2967 2994 2966 
3 3581 4034 4033 
3 4183 4184 3908 
3 3938 3939 3936 
3 4111 5130 4112 
3 4460 4604 4459 
3 4560 4562 4561 
3 5773 8486 4917 
3 5639 7120 5640 
3 7150 10051 5639 
3 10030 10474 5937 
3 6060 6981 6980 
3 6092 6103 6102 
3 6103 6105 6104 
3 6232 6748 6216 
3 7173 7175 7172 
3 7174 7976 7173 
3 7641 7642 7639 
3 10817 10970 7663 
3 9306 10043 9804 
3 437 9783 9782 
3 1099 2415 1097 
3 1353 1384 1276 
3 1385 1392 1384 
3 1682 1686 1662 
3 1806 1827 1803 
3 1828 1835 1827 
3 1901 2038 2037 
3 4060 7949 2150 
3 9756 9757 2321 
3 2356 2790 2547 
3 2375 3736 3735 
3 2434 2702 2700 
3 2439 2441 2440 
3 2442 2443 2441 
3 2910 2911 2626 
3 2686 7466 2964 
3 2767 3109 2766 
3 2803 8873 2795 
3 2904 2906 2905 
3 2906 2990 2989 
3 2961 3225 2959 
3 3015 3208 3207 
3 3334 9740 7732 
3 3658 3661 3660 
3 3664 4517 3663 
3 4121 5067 4120 
3 4343 5036 5035 
3 4621 4624 4623 
3 4808 5243 4807 
3 4910 6579 6387 
3 4918 5523 5353 
3 4977 8937 8935 
3 5278 6752 5280 
3 5351 6749 5350 
3 7152 7195 5354 
3 5451 5453 5452 
3 5878 7816 5454 
3 6067 6090 6068 
3 10981 11104 6837 
3 7335 7337 7336 
3 7817 7818 7816 
3 10891 10902 7887 
3 8176 8179 8178 
3 311 9082 446 
3 575 577 576 
3 596 1399 594 
3 605 8456 1581 
3 1093 3534 851 
3 865 866 864 
3 874 878 873 
3 1109 3572 1107 
3 1113 1198 1111 
3 1122 2068 1124 
3 1815 9426 1812 
3 1813 1816 1814 
3 1817 4564 1819 
3 10110 10205 1949 
3 2077 3090 2380 
3 2201 2202 2200 
3 2207 2208 2206 
3 2221 2326 2325 
3 2232 8964 8963 
3 2280 2282 2281 
3 2282 9561 2283 
3 2288 7886 2285 
3 2293 2295 2294 
3 2309 8225 2304 
3 2437 7487 3045 
3 2481 10500 2519 
3 2686 2687 2482 
3 2768 2769 2545 
3 2562 2564 2563 
3 2876 2879 2878 
3 2950 3733 3732 
3 2988 3857 2986 
3 3983 5471 3184 
3 3484 8875 3483 
3 3534 8533 8532 
3 3662 3665 3664 
3 4314 4315 3888 
3 4153 4934 4567 
3 8717 8718 4224 
3 4502 8426 8425 
3 5133 7587 4585 
3 4587 7522 4606 
3 4590 4592 4591 
3 4727 4729 4728 
3 4864 5893 4865 
3 4935 6325 5034 
3 4940 5846 4941 
3 5036 5849 5035 
3 6212 7800 5214 
3 5331 5333 5332 
3 5365 6390 5480 
3 5386 9705 5388 
3 5432 6337 5433 
3 8196 10009 5524 
3 5538 6392 5539 
3 5728 6675 6067 
3 9705 10345 5746 
3 6496 6587 6495 
3 6892 6901 6891 
3 849 850 848 
3 850 853 852 
3 863 864 861 
3 1128 3462 1125 
3 1215 9376 1194 
3 1278 4204 1267 
3 1521 1614 1613 
3 1628 1840 1629 
3 1717 8535 2092 
3 8893 9093 1767 
3 1770 1839 1838 
3 2327 2330 2039 
3 9202 9203 2062 
3 2098 10067 7608 
3 2722 2723 2523 
3 2564 3025 2566 
3 2834 3106 2836 
3 3108 3886 3107 
3 3802 4099 4098 
3 3834 4156 3833 
3 4050 4940 4049 
3 4314 5277 4315 
3 4350 4352 4351 
3 4579 6334 4580 
3 4758 6226 6181 
3 4964 5797 4966 
3 5192 6727 6726 
3 6206 6224 5212 
3 5478 7360 7359 
3 7279 7280 5597 
3 5863 7631 5700 
3 6040 6087 6039 
3 6048 6174 6050 
3 6126 7491 7490 
3 6194 6728 6193 
3 6791 6792 6302 
3 6468 10566 9702 
3 10080 10161 6605 
3 7319 7320 7318 
3 7320 7321 7318 
3 7425 7426 7424 
3 9920 10547 7619 
3 10002 10138 7787 
3 334 8099 413 
3 722 9272 719 
3 723 8313 725 
3 729 1949 726 
3 728 1746 730 
3 731 9198 729 
3 732 4487 734 
3 740 1394 737 
3 841 842 840 
3 853 855 854 
3 1129 9309 1131 
3 1139 1141 1140 
3 1141 1145 1144 
3 1145 1147 1146 
3 1153 1157 1156 
3 1157 1161 1158 
3 1159 1166 1163 
3 1161 1169 1162 
3 1187 1188 1176 
3 1384 10159 9352 
3 1395 1456 1394 
3 1445 3601 1468 
3 1509 1510 1456 
3 1459 5550 3932 
3 1546 1555 1510 
3 1574 1575 1544 
3 1546 9000 1567 
3 1566 1641 1555 
3 1636 1652 1575 
3 1594 9218 3611 
3 1620 8682 8681 
3 2108 2109 2107 
3 2215 2218 2216 
3 2217 9136 6539 
3 2335 6016 4938 
3 2496 2497 2420 
3 2908 2966 2965 
3 3153 3221 2919 
3 3119 3121 3120 
3 3310 5625 5336 
3 9365 9504 3407 
3 4447 8546 3504 
3 3616 9149 8768 
3 3708 9870 3711 
3 3960 4720 3959 
3 4544 4545 3970 
3 4082 5097 4242 
3 4237 4926 4925 
3 4336 4579 4421 
3 4580 5609 4421 
3 4510 8866 8656 
3 5289 5290 4819 
3 5318 6009 4821 
3 4933 5428 5425 
3 5111 5113 5112 
3 5418 7352 7351 
3 9727 9728 5716 
3 6559 6560 6142 
3 7115 7116 6400 
3 6533 8478 6531 
3 8129 8131 8130 
3 8830 9328 8682 
3 8957 11343 11332 
3 8410 8411 317 
3 597 598 596 
3 621 622 620 
3 621 8955 1362 
3 816 8314 818 
3 3534 8532 851 
3 1022 1043 1023 
3 1506 1549 1492 
3 1672 1679 1678 
3 1829 1865 1830 
3 3746 9820 2104 
3 2199 4431 2201 
3 2205 8126 2207 
3 4742 5190 2231 
3 2232 8963 8962 
3 2703 2981 2704 
3 8350 9497 2806 
3 2949 4260 2835 
3 3199 3220 3175 
3 3331 3332 3330 
3 3956 3958 3679 
3 3784 3786 3785 
3 4026 4225 4027 
3 4161 4162 4160 
3 4414 5326 4339 
3 5794 5795 4538 
3 4674 7806 4676 
3 4718 8911 5017 
3 4732 6120 5127 
3 4744 7484 6185 
3 4891 9644 6364 
3 5846 5847 4941 
3 6365 6366 5221 
3 5223 6108 5996 
3 6690 6691 5228 
3 5232 6292 5233 
3 5298 8429 6320 
3 5318 6923 6393 
3 5346 5348 5344 
3 5439 7559 7558 
3 5919 6269 6268 
3 6084 7356 7355 
3 6358 8153 7037 
3 8323 9277 6512 
3 9889 10107 6528 
3 9327 9869 6542 
3 7115 7789 7116 
3 7153 10967 10757 
3 7316 9458 7254 
3 7728 11074 10943 
3 7905 10704 10016 
3 7914 7915 7913 
3 7920 7921 7919 
3 8175 8176 8174 
3 8390 9841 8394 
3 8808 8809 8807 
3 850 852 848 
3 1403 8337 1434 
3 1616 1661 1646 
3 1836 1900 1835 
3 2014 2100 2013 
3 2036 2161 2035 
3 9758 10443 2321 
3 2544 2545 2388 
3 2423 2424 2422 
3 2908 2965 2718 
3 2812 2813 2811 
3 2838 2839 2837 
3 2863 2864 2862 
3 2878 2881 2880 
3 3886 3888 3107 
3 3136 3137 3135 
3 3287 3907 3286 
3 3878 4066 3864 
3 3978 8075 4495 
3 4940 4941 4049 
3 4153 4154 4152 
3 4757 4765 4188 
3 4765 4766 4188 
3 4254 4256 4255 
3 4608 6595 4535 
3 5132 5134 5133 
3 6466 6544 5541 
3 5755 5824 5823 
3 5790 5875 5789 
3 6010 6592 6591 
3 8482 8525 6062 
3 6301 6302 6264 
3 7333 7334 7332 
3 7339 7340 7337 
3 7430 10992 10968 
3 314 9114 313 
3 603 605 604 
3 609 611 610 
3 665 666 664 
3 667 668 666 
3 669 670 668 
3 670 672 671 
3 672 674 673 
3 674 676 675 
3 680 682 681 
3 3642 8825 689 
3 692 694 693 
3 3794 9197 692 
3 751 8980 693 
3 1622 8981 696 
3 728 730 729 
3 844 2230 842 
3 855 856 854 
3 2244 8406 1238 
3 1241 1243 1242 
3 1243 1245 1244 
3 1247 1249 1248 
3 4537 8462 1253 
3 1494 1495 1389 
3 1445 1446 1420 
3 1517 1518 1463 
3 1485 1487 1486 
3 1503 1583 1572 
3 1594 3611 1568 
3 1616 1645 1615 
3 1618 1886 1619 
3 1674 8609 1655 
3 1670 1672 1671 
3 1702 4504 1700 
3 1903 2039 1902 
3 1986 2335 2093 
3 2094 2095 1987 
3 1999 2588 2246 
3 2121 8346 2120 
3 2125 2127 2123 
3 2328 2436 2327 
3 2610 8838 2371 
3 2670 2671 2500 
3 7981 9939 2502 
3 2681 5153 4987 
3 2762 2838 2837 
3 2812 2814 2813 
3 2859 2970 2861 
3 2943 8816 4450 
3 2946 8706 3428 
3 3078 9041 3075 
3 3222 3771 3221 
3 3916 5884 3298 
3 4885 6514 3459 
3 3533 4252 4058 
3 3708 3711 3709 
3 4266 4267 3731 
3 3791 4739 3811 
3 3852 4282 4280 
3 4905 7560 3887 
3 4115 4723 4117 
3 4594 4846 4202 
3 5589 5772 4485 
3 4867 5928 5152 
3 9150 9646 5000 
3 5002 5003 5001 
3 5328 10925 10746 
3 5418 7351 5744 
3 7566 7948 5503 
3 9630 9631 5507 
3 5700 6033 5653 
3 5669 9510 6621 
3 9633 9887 5814 
3 5844 6786 6768 
3 5859 11305 11144 
3 6079 6084 6081 
3 6470 6474 6472 
3 6564 9862 9861 
3 6967 9448 9260 
3 7157 7158 7156 
3 7173 7176 7175 
3 9120 9394 8333 
3 8676 9504 9365 
3 9141 9328 8830 
3 9357 10598 10558 
3 9616 10894 10795 
3 88 9524 87 
3 385 9331 384 
3 8702 8703 500 
3 611 613 612 
3 874 8293 879 
3 1903 7259 2040 
3 2514 2516 2515 
3 2803 9679 8873 
3 2902 2903 2900 
3 3042 4155 3410 
3 7564 9575 3213 
3 3859 4881 3300 
3 5534 9656 4766 
3 4903 5857 5856 
3 4909 5208 4908 
3 5238 6777 6775 
3 5297 6939 6327 
3 5618 5620 5619 
3 5686 5786 5785 
3 5728 6067 5848 
3 6645 8872 5898 
3 5951 5952 5950 
3 5983 10941 10404 
3 7080 7081 7079 
3 11143 11156 8671 
3 494 7879 198 
3 8532 9446 853 
3 873 9294 9293 
3 1070 3398 1216 
3 1217 1221 1071 
3 1236 8878 1210 
3 1218 9472 6200 
3 1234 1772 1235 
3 1277 1352 1297 
3 3686 7947 1304 
3 1442 9297 3830 
3 1474 1505 1504 
3 1528 7963 1526 
3 1531 1533 1532 
3 1610 9254 1538 
3 1542 1579 1541 
3 1560 1630 1584 
3 1590 1592 1591 
3 1699 1902 1660 
3 1831 8319 2593 
3 1881 1910 1909 
3 1896 2235 2234 
3 1913 1914 1912 
3 1916 1918 1917 
3 1919 1920 1918 
3 2015 8530 2340 
3 2019 2020 2018 
3 2320 8531 2020 
3 2024 2102 2023 
3 2165 2166 2103 
3 2349 2642 2498 
3 2431 2432 2407 
3 2448 2450 2449 
3 2450 2535 2449 
3 2529 3339 2771 
3 2531 3029 2773 
3 4520 7852 2586 
3 2771 3278 2770 
3 3278 3279 2770 
3 2962 2963 2779 
3 2844 3798 2849 
3 2856 4135 2854 
3 2881 2882 2880 
3 2980 3851 2979 
3 2999 3341 3000 
3 3253 3255 3254 
3 3836 3837 3290 
3 3465 3467 3466 
3 3507 3508 3506 
3 3584 4023 3586 
3 3977 3979 3585 
3 3612 10014 8951 
3 3701 5815 3883 
3 3823 9124 3814 
3 3867 3928 3927 
3 3869 7875 4302 
3 4321 4326 3894 
3 4107 4910 4108 
3 4275 6368 4586 
3 4368 4370 4369 
3 4434 4437 4435 
3 4480 5563 4479 
3 5316 6462 4507 
3 4616 9471 5955 
3 4776 6259 5234 
3 4879 6372 4880 
3 4921 5833 5769 
3 5055 9270 5832 
3 5070 5924 5069 
3 5297 6940 6939 
3 5576 6569 5575 
3 5785 9779 5685 
3 9505 9801 5757 
3 5973 7827 5974 
3 6046 6048 6047 
3 6157 6352 6172 
3 6352 6979 6650 
3 6369 7579 6368 
3 6780 6838 6760 
3 96 8183 95 
3 393 8253 392 
3 817 1439 815 
3 876 881 877 
3 881 886 882 
3 886 904 887 
3 1171 1173 1168 
3 1400 1431 1401 
3 1406 1447 1419 
3 1643 1644 1586 
3 1708 1710 1709 
3 1762 1864 1863 
3 1775 1776 1774 
3 1777 1778 1776 
3 1790 7829 1792 
3 2044 4444 1945 
3 2047 9016 9014 
3 2113 2156 2155 
3 4012 5779 2135 
3 2376 9752 2159 
3 2162 7533 2426 
3 2371 8838 2416 
3 2433 2520 2432 
3 2700 2701 2435 
3 2443 2549 2441 
3 2469 4583 3312 
3 2747 2748 2597 
3 2598 2600 2599 
3 2758 2759 2615 
3 2911 2912 2626 
3 2670 2945 2671 
3 3023 3024 2688 
3 2694 3026 2695 
3 3016 9028 2728 
3 2735 9494 3310 
3 2841 4125 2839 
3 2857 2859 2858 
3 2921 8949 3157 
3 3156 8967 2922 
3 3009 3186 2930 
3 2976 2977 2932 
3 2945 3217 2946 
3 3821 9163 3004 
3 3208 9982 3207 
3 3217 4039 3218 
3 3271 3802 3801 
3 4345 4509 3311 
3 3319 3321 3320 
3 4872 9762 3319 
3 3370 4273 3372 
3 3407 9655 9198 
3 3531 9047 4018 
3 3551 9624 4501 
3 3569 10388 8053 
3 3712 9230 3709 
3 5000 9646 4012 
3 4128 4755 4746 
3 4141 6740 4764 
3 5403 5404 4142 
3 5370 5371 4446 
3 4468 4472 4469 
3 5677 5678 4472 
3 4501 9390 9323 
3 4589 8881 5716 
3 4707 6038 4703 
3 4744 6185 6184 
3 4818 6816 5289 
3 4838 4839 4836 
3 4945 6444 5460 
3 6463 9150 5000 
3 5055 5745 5054 
3 5080 10486 8471 
3 5084 5970 5969 
3 5781 5782 5087 
3 5089 9517 9064 
3 6220 7773 5210 
3 5890 6343 5366 
3 5723 7005 5398 
3 5570 8712 5567 
3 5678 6534 6517 
3 5717 9542 9068 
3 5831 6578 5745 
3 5881 7106 5880 
3 5905 6454 6453 
3 6480 6481 5910 
3 7372 7373 6196 
3 6349 10163 6395 
3 7571 9906 6534 
3 7652 7666 7654 
3 8171 8181 8170 
3 8441 8442 8440 
3 8576 9305 8967 
3 9423 9521 9056 
3 9149 9856 9602 
3 820 2647 822 
3 889 890 888 
3 893 894 892 
3 936 972 934 
3 1029 8662 1346 
3 1339 8946 1337 
3 1488 8092 1486 
3 8237 8996 1498 
3 4506 9217 1570 
3 1828 3213 1836 
3 2401 2402 2332 
3 2954 2955 2639 
3 2991 2992 2955 
3 2960 2961 2959 
3 2991 9273 3314 
3 4037 8807 3315 
3 9596 9597 3679 
3 3694 7183 3693 
3 3769 4139 4138 
3 3791 10073 5912 
3 3922 4334 3923 
3 4870 9431 3964 
3 5563 6425 5565 
3 6425 7599 5565 
3 5829 9869 9454 
3 6239 6706 6240 
3 6681 6682 6680 
3 7394 7416 7400 
3 7648 7665 7650 
3 9026 9311 9027 
3 186 8781 185 
3 934 8517 932 
3 935 4505 937 
3 1365 8084 8083 
3 2621 9027 2163 
3 2516 2517 2515 
3 2690 2691 2689 
3 2774 3101 2775 
3 2967 9936 3868 
3 3023 8477 7346 
3 3268 4180 3269 
3 3271 3801 3270 
3 3324 3980 3322 
3 3523 9398 9271 
3 3877 3878 3864 
3 4105 5106 5105 
3 4654 5202 4656 
3 4678 4680 4679 
3 5432 5433 4705 
3 5891 9434 4862 
3 4930 9766 5932 
3 5007 5995 5008 
3 5007 8519 6028 
3 5223 6836 6108 
3 5682 6585 6061 
3 10860 10977 6054 
3 6125 6136 6124 
3 7428 7429 7427 
3 7437 7439 7438 
3 7914 7916 7915 
3 7950 7951 7949 
3 8653 9158 9157 
3 9290 10759 8739 
3 9623 10824 10134 
3 536 8883 369 
3 811 2665 809 
3 930 931 929 
3 932 3513 931 
3 937 8693 939 
3 940 3517 938 
3 939 1200 941 
3 941 8844 943 
3 944 1691 942 
3 1047 1069 1056 
3 1059 9593 1058 
3 1062 4424 1064 
3 1263 9735 1068 
3 1302 1350 1349 
3 1335 9407 1333 
3 1363 1402 1358 
3 1421 10020 1377 
3 1655 8609 8607 
3 1992 9409 3745 
3 2109 2110 2107 
3 2113 2155 2111 
3 8190 8472 2115 
3 2359 2550 2358 
3 2682 2947 2675 
3 2987 2988 2986 
3 3119 3120 3118 
3 3121 3122 3120 
3 3129 3130 3128 
3 3166 4215 3165 
3 3286 3872 3274 
3 3474 3523 3476 
3 3641 5125 5066 
3 3667 3669 3668 
3 3668 8952 3671 
3 3674 3675 3669 
3 3993 8419 5604 
3 4002 5481 4923 
3 4074 4570 4073 
3 4112 4115 4113 
3 5042 8719 4113 
3 4862 4863 4136 
3 4971 8709 4460 
3 4558 4935 4557 
3 4863 6170 5184 
3 5333 6570 5334 
3 5427 7868 7819 
3 5493 5495 5494 
3 9412 9414 5577 
3 8592 9640 5679 
3 6060 6980 5681 
3 5892 7895 7894 
3 7087 8298 6401 
3 6417 10423 7308 
3 6595 10137 10021 
3 7040 8360 6994 
3 7057 7058 7056 
3 7289 7300 7286 
3 7895 7897 7896 
3 577 3904 579 
3 857 858 856 
3 859 860 858 
3 1154 1155 1151 
3 3791 3811 1609 
3 2138 2139 1688 
3 1986 1987 1943 
3 2014 2101 2100 
3 2223 2452 2451 
3 2579 2643 2365 
3 2452 2732 2451 
3 2504 2506 2505 
3 2521 2720 2719 
3 2682 2948 2947 
3 2697 2699 2698 
3 2699 2762 2761 
3 2995 2996 2725 
3 2871 2968 2873 
3 2884 2924 2882 
3 2917 10211 9564 
3 3271 4179 3802 
3 3999 8419 3423 
3 3425 3451 3450 
3 3451 8934 4003 
3 3477 8971 3481 
3 3971 3972 3480 
3 3728 9800 9709 
3 5086 9354 4080 
3 4910 6387 4108 
3 4234 4237 4236 
3 4760 6198 4770 
3 5206 5684 5683 
3 6408 8228 5353 
3 5384 5577 5386 
3 5447 5643 5448 
3 5695 9673 5693 
3 7083 11054 6010 
3 6158 6652 6160 
3 7097 7098 7096 
3 7168 7170 7169 
3 7320 7343 7321 
3 8284 10326 10245 
3 8989 8991 8990 
3 601 8455 603 
3 607 9116 609 
3 945 8829 947 
3 1057 3367 1048 
3 1155 3726 1151 
3 1266 1267 1224 
3 1378 1410 1409 
3 1461 1490 1470 
3 1552 1639 1551 
3 1640 1852 1639 
3 1855 1885 1858 
3 1901 3555 2038 
3 2066 5626 1977 
3 2065 3396 2067 
3 2112 2113 2111 
3 2203 2204 2202 
3 2205 2206 2204 
3 2209 9863 2213 
3 2217 2504 2503 
3 2374 2591 2243 
3 2272 2382 2274 
3 2287 2288 2285 
3 2300 2302 2301 
3 10715 10724 2305 
3 2481 2519 2483 
3 2724 2725 2548 
3 2724 9380 5692 
3 2790 2794 2791 
3 2794 2796 2795 
3 2796 2798 2797 
3 2798 2800 2799 
3 2800 2802 2801 
3 2802 2926 2925 
3 2926 8928 3303 
3 3431 3432 2926 
3 5693 9247 2995 
3 2996 3204 3203 
3 3046 9973 3044 
3 3168 3964 3169 
3 3241 4087 3240 
3 3421 3423 3422 
3 3423 3425 3424 
3 4994 4995 3432 
3 3481 9506 9505 
3 3582 3583 3579 
3 9021 9022 3639 
3 3780 4602 4119 
3 4312 4313 3875 
3 4823 4824 3918 
3 4720 4721 3959 
3 3964 9431 3966 
3 4003 6150 4982 
3 4968 5920 4027 
3 4071 10399 4069 
3 4088 9471 4087 
3 4287 5230 4785 
3 4388 5528 4386 
3 5547 5548 4457 
3 4461 6543 4965 
3 4549 5366 5365 
3 4569 5455 5454 
3 5896 5897 4597 
3 4650 4652 4651 
3 8042 10198 4683 
3 4772 4774 4773 
3 4829 5308 4828 
3 4829 8376 8265 
3 4928 6432 5410 
3 4995 7235 7178 
3 5023 5671 5314 
3 5057 5361 5360 
3 5064 5981 5063 
3 5125 6037 6003 
3 5162 6689 6132 
3 5242 7699 7697 
3 7796 7797 5262 
3 5301 5616 5615 
3 5343 5344 5342 
3 5484 5485 5483 
3 5553 8771 7074 
3 5557 5559 5558 
3 6537 9233 5619 
3 6513 8574 5671 
3 5671 6962 6953 
3 5694 5800 5696 
3 8881 9618 5716 
3 5749 10900 5751 
3 5800 5802 5801 
3 6059 8638 5801 
3 5802 5818 5803 
3 5818 5820 5819 
3 5837 5882 5838 
3 6738 6739 5883 
3 5921 6557 5920 
3 6151 8637 8636 
3 6451 10460 10459 
3 8056 9374 8060 
3 8058 8059 8057 
3 897 898 896 
3 901 902 898 
3 910 2944 900 
3 1086 9607 1084 
3 1209 7858 1234 
3 5354 6062 1496 
3 7881 7882 1521 
3 1718 1719 1717 
3 1720 1721 1719 
3 1722 1723 1721 
3 1721 8861 5731 
3 1724 8427 4016 
3 1725 1727 1726 
3 1727 1729 1728 
3 1729 1731 1730 
3 1740 8645 1729 
3 2000 9560 1730 
3 1731 1733 1732 
3 1733 1735 1734 
3 8339 8862 1734 
3 1738 1739 1737 
3 1742 1743 1739 
3 4510 8893 1769 
3 1796 3700 1798 
3 1817 9609 4564 
3 1839 1894 1893 
3 1846 2011 1904 
3 1872 2753 2510 
3 1894 1951 1950 
3 1972 8965 1894 
3 1951 1985 1984 
3 3589 8321 1984 
3 1985 2050 2049 
3 2049 8869 4737 
3 2051 2052 2050 
3 2052 2054 2053 
3 2054 2056 2055 
3 2119 8902 2054 
3 3427 8646 2059 
3 2409 2411 2149 
3 2190 2196 2195 
3 2518 9723 9565 
3 2742 2743 2573 
3 2932 8614 3349 
3 3154 4333 3304 
3 3967 8716 3169 
3 3267 4278 3266 
3 4026 4027 3392 
3 4912 5391 3540 
3 3820 8503 4128 
3 5067 5999 4120 
3 4747 5627 4129 
3 4176 4177 4174 
3 4358 5027 5026 
3 4573 4575 4572 
3 4973 4974 4589 
3 4974 8881 4589 
3 4690 5217 4692 
3 4848 5599 4849 
3 4909 5331 5210 
3 5860 5861 4962 
3 6545 6546 5076 
3 5203 6738 5883 
3 5205 6217 5206 
3 5853 6932 5317 
3 5377 6961 5376 
3 5391 7077 5889 
3 5643 5956 5448 
3 5481 7279 5597 
3 5547 8635 7973 
3 6438 7749 5548 
3 5564 7991 5563 
3 5626 8975 8923 
3 5676 5728 5727 
3 5704 9279 6021 
3 10221 10409 5780 
3 6208 6209 6207 
3 10697 11287 6338 
3 7042 10882 7261 
3 7957 7959 7958 
3 8340 9388 8862 
3 8865 10502 10186 
3 8894 9094 8893 
3 870 876 871 
3 920 1501 918 
3 951 3415 953 
3 956 8888 954 
3 955 10710 957 
3 1204 9808 1178 
3 1187 8605 8604 
3 1222 8414 1221 
3 9485 9487 1237 
3 1329 1367 1327 
3 1683 1684 1627 
3 1844 1845 1686 
3 1714 1715 1713 
3 1735 1737 1736 
3 2004 8339 1736 
3 1783 7944 1782 
3 4542 9623 1809 
3 1866 8001 2199 
3 1976 4060 2150 
3 2316 4500 2004 
3 2074 2075 2010 
3 2148 2192 2147 
3 2200 5602 2198 
3 2217 2503 2211 
3 2419 2420 2418 
3 2480 2526 2481 
3 3092 3093 2526 
3 3025 8087 2566 
3 2921 2922 2628 
3 2765 7601 7600 
3 2840 2974 2842 
3 8165 8166 2957 
3 3003 3307 3004 
3 3015 9829 3226 
3 3181 3182 3180 
3 3295 3297 3296 
3 4025 4026 3392 
3 3467 3919 3468 
3 3487 10139 3489 
3 3493 8065 5526 
3 9005 9109 3535 
3 4854 5060 3542 
3 4738 5688 3589 
3 7731 10734 3613 
3 4090 4091 3690 
3 5470 5635 3967 
3 4225 4968 4027 
3 4780 4826 4071 
3 4325 4328 4327 
3 4544 6581 4546 
3 4874 5465 5464 
3 4903 5856 4904 
3 6435 6437 4969 
3 5022 7518 7517 
3 5109 5111 5110 
3 5120 6077 5543 
3 5984 8487 5152 
3 5282 6832 5287 
3 5361 5362 5360 
3 5709 8079 6336 
3 6077 7878 7877 
3 6881 6883 6255 
3 8656 8657 6523 
3 6525 9109 8894 
3 7660 7662 7661 
3 7983 10641 10320 
3 533 8714 20 
3 258 518 257 
3 283 8701 282 
3 336 8702 500 
3 623 624 622 
3 1700 9747 669 
3 1160 8336 1155 
3 1208 9748 9416 
3 1217 9795 1223 
3 1247 1248 1246 
3 1259 1261 1260 
3 1326 3790 1328 
3 3506 9288 1361 
3 7776 8337 1403 
3 1462 1519 1517 
3 1535 1536 1534 
3 1701 9722 1703 
3 1703 10282 1705 
3 1714 8275 3997 
3 1741 9005 2071 
3 1755 1759 1757 
3 1776 3087 1774 
3 1782 1809 1780 
3 1809 9623 1780 
3 1781 1784 1783 
3 1824 1825 1809 
3 1825 4542 1809 
3 1899 8078 1834 
3 2095 9878 1987 
3 2036 2162 2161 
3 2062 2164 2163 
3 2071 3535 2317 
3 2093 9372 2094 
3 2164 2428 2427 
3 7964 9882 2191 
3 2256 2258 2257 
3 2260 2262 2261 
3 2352 2391 2351 
3 2360 2583 2361 
3 2369 2596 2595 
3 2615 9752 2376 
3 3084 8763 2456 
3 2464 9494 2735 
3 2683 2684 2484 
3 2485 2806 2685 
3 2495 7929 7586 
3 2587 2962 2779 
3 2600 2601 2599 
3 2602 2603 2601 
3 2611 10179 2755 
3 2972 9026 2621 
3 2712 2713 2710 
3 2805 9029 2748 
3 2806 8355 2807 
3 2818 2830 2817 
3 2823 2827 2825 
3 2853 2854 2852 
3 2867 2868 2866 
3 2908 2967 2966 
3 2962 3249 2963 
3 2967 3099 2994 
3 3825 3826 2972 
3 2973 9066 3827 
3 3017 3986 3016 
3 3083 9532 5015 
3 4064 4093 3215 
3 3326 3328 3327 
3 3370 3371 3369 
3 8357 9929 3416 
3 3442 4486 4485 
3 3492 3493 3491 
3 3494 3495 3493 
3 3508 3525 3506 
3 3533 4058 3996 
3 3619 3621 3620 
3 8079 9223 3644 
3 3758 4262 3759 
3 4166 4261 3826 
3 3849 4752 4168 
3 3933 3934 3885 
3 3989 9766 4930 
3 3998 5458 4595 
3 4095 4719 4096 
3 4181 4758 4756 
3 4233 4235 4234 
3 4462 5096 4265 
3 5683 9033 4281 
3 4285 4815 4286 
3 4328 4339 4329 
3 4469 4945 4512 
3 5563 5565 4479 
3 4486 5590 5589 
3 4628 5161 4630 
3 4631 4697 4629 
3 4691 5259 4689 
3 4718 4741 4717 
3 4930 5932 5355 
3 4934 5863 5700 
3 4978 6469 4979 
3 5017 6524 6523 
3 5032 8151 7626 
3 8905 8906 5041 
3 5044 10297 9748 
3 5048 9886 6552 
3 5107 5108 5105 
3 5111 5112 5110 
3 5144 6529 6035 
3 6178 7160 5172 
3 5227 6831 6307 
3 8212 8214 5247 
3 6135 7162 5322 
3 7020 7050 5352 
3 7202 7469 5406 
3 5482 8006 5484 
3 8912 8913 5592 
3 5628 9140 6503 
3 7849 7850 5742 
3 5756 9865 9469 
3 5762 5763 5761 
3 5830 9886 9767 
3 7910 7911 5858 
3 5890 6443 6343 
3 5988 6045 5987 
3 6114 10955 6116 
3 6123 6124 6122 
3 6407 9571 7263 
3 7768 7769 6483 
3 6715 6716 6507 
3 8657 9447 6522 
3 6553 9207 8019 
3 7331 7332 7330 
3 7383 7384 7382 
3 7622 7623 7621 
3 7918 7919 7917 
3 8341 8938 8340 
3 560 8524 137 
3 317 8411 316 
3 607 609 608 
3 761 763 762 
3 3461 8458 786 
3 787 789 788 
3 1693 8461 790 
3 959 8919 961 
3 967 9449 969 
3 970 3376 968 
3 1002 1006 1003 
3 1006 1012 1007 
3 1239 1241 1240 
3 1291 9967 1241 
3 1253 1255 1254 
3 1289 1290 1257 
3 1398 1424 1423 
3 1451 8235 1411 
3 1890 1891 1851 
3 4998 8229 2160 
3 2162 2426 2425 
3 2187 2741 2185 
3 2362 2453 2363 
3 2574 2640 2413 
3 2453 2575 2454 
3 2568 3799 2570 
3 2575 2738 2576 
3 3206 9155 2576 
3 2738 2792 2739 
3 2792 2820 2793 
3 3037 3038 3017 
3 3160 3434 3162 
3 3166 4522 4216 
3 3867 3926 3343 
3 8919 8920 3389 
3 3683 4110 4109 
3 3874 4800 4292 
3 3924 6970 6968 
3 3957 4597 3956 
3 4254 4584 4256 
3 4323 4902 4325 
3 4332 4833 4331 
3 4409 6458 4551 
3 4835 7850 7849 
3 5327 5976 4915 
3 5703 5829 5039 
3 7074 8940 5311 
3 5423 7265 5422 
3 7549 8494 5471 
3 5605 5607 5606 
3 6278 6280 6279 
3 8315 8316 6479 
3 6940 6987 6939 
3 7015 7190 7016 
3 8431 8451 8430 
3 9728 10270 9299 
3 772 9181 8956 
3 800 802 801 
3 802 805 803 
3 805 872 806 
3 867 873 866 
3 1075 1076 872 
3 887 8184 2457 
3 898 1387 896 
3 1016 1024 1017 
3 1021 1045 1020 
3 1024 1030 1025 
3 1039 2654 1034 
3 1046 1065 1045 
3 1077 1078 1076 
3 1105 1478 1103 
3 1104 3558 1106 
3 1308 1440 1312 
3 1348 9216 1371 
3 1371 5596 1412 
3 3545 5354 1496 
3 1539 1609 1608 
3 1600 1603 1601 
3 1808 1811 1810 
3 1829 1867 1865 
3 2657 2658 2656 
3 8166 8167 2786 
3 2788 3190 3189 
3 2828 2927 2829 
3 2895 2959 2958 
3 2987 3780 3778 
3 3154 3155 3088 
3 3155 6019 5061 
3 3174 3175 3173 
3 3220 4120 3175 
3 3381 9466 8606 
3 3744 3795 3743 
3 3972 3974 3973 
3 3974 4205 3975 
3 4001 4420 4419 
3 4205 4889 4206 
3 4931 9335 4205 
3 5411 5416 4382 
3 4394 4793 4395 
3 4416 10064 4895 
3 4531 9672 4529 
3 4745 6736 5196 
3 4853 9592 4852 
3 5704 5721 5415 
3 6391 7381 5416 
3 5591 7063 6011 
3 6094 6636 6095 
3 6164 6619 6618 
3 7441 7443 7442 
3 7652 7654 7653 
3 7791 7794 7792 
3 8600 8601 8599 
3 100 9873 498 
3 500 8099 335 
3 935 937 936 
3 1036 1038 1037 
3 1051 1209 1052 
3 3020 8671 1340 
3 1483 1485 1484 
3 1518 1523 1522 
3 1523 3727 1525 
3 1538 9254 1536 
3 1648 1649 1571 
3 4484 8497 1753 
3 2085 3631 2087 
3 2311 9620 2749 
3 2587 2779 2778 
3 2864 4134 2862 
3 2989 5923 3284 
3 3101 3916 3298 
3 3905 9761 3152 
3 3241 4476 4088 
3 3343 3924 3342 
3 3401 9842 9779 
3 3441 3930 3442 
3 3689 8362 3441 
3 3573 10974 7252 
3 3818 5579 4599 
3 3848 4749 4277 
3 3848 5978 4749 
3 3873 8488 5473 
3 3961 4142 3962 
3 4058 4919 3996 
3 4034 4922 4921 
3 6700 9876 4122 
3 4799 8420 4177 
3 4486 5591 5590 
3 4660 4753 4662 
3 4859 5319 4860 
3 5353 5773 4917 
3 4990 5979 5330 
3 5277 9844 5278 
3 5516 5518 5517 
3 5517 10519 5630 
3 5632 6055 6036 
3 6052 6070 6069 
3 7569 8375 6453 
3 6482 10065 9513 
3 8651 9862 7936 
3 8387 9481 8023 
3 8464 8465 8463 
3 10561 10625 8738 
3 9506 9801 9505 
3 30 9329 420 
3 548 8746 8745 
3 625 627 626 
3 627 629 628 
3 687 8580 685 
3 688 8979 690 
3 694 1622 696 
3 696 8981 698 
3 698 3571 700 
3 703 8598 701 
3 702 706 704 
3 710 712 711 
3 718 720 719 
3 1053 3444 720 
3 793 8660 8598 
3 835 836 834 
3 837 838 836 
3 3086 7970 854 
3 937 939 938 
3 4505 8693 937 
3 3517 9152 938 
3 939 941 940 
3 1038 1041 1040 
3 1050 1055 1054 
3 1064 1226 1068 
3 1220 1265 1264 
3 1226 1281 1263 
3 1246 1690 1244 
3 1306 9403 1264 
3 1265 1280 1279 
3 1280 1305 1304 
3 1289 1356 1290 
3 1311 1372 1310 
3 1350 1377 1349 
3 1372 4861 1493 
3 1444 4511 1408 
3 1424 5080 1458 
3 1471 1590 1545 
3 1487 1511 1488 
3 1576 1577 1491 
3 1572 1586 1502 
3 8822 8823 1589 
3 1596 9218 1594 
3 1604 1605 1602 
3 1895 1896 1649 
3 1670 1671 1668 
3 9004 9119 1692 
3 8556 9326 1749 
3 2001 2002 1876 
3 1876 9006 2939 
3 1897 9409 1992 
3 1918 10574 2063 
3 1935 1937 1934 
3 1938 1940 1937 
3 1941 2015 1940 
3 1957 1959 1958 
3 1992 3745 2145 
3 2003 4998 2160 
3 2063 4508 4507 
3 2117 2176 2173 
3 2358 9648 2144 
3 2176 6426 5079 
3 3499 9803 2234 
3 2239 2242 2240 
3 4045 9620 2249 
3 2283 2284 2281 
3 2283 9561 2286 
3 2403 3333 2721 
3 7316 9379 2450 
3 2524 2777 2715 
3 2574 2930 2640 
3 2698 7734 2693 
3 5028 8837 3056 
3 3111 3896 3112 
3 3164 4337 3163 
3 3214 4063 3215 
3 3416 9270 3217 
3 4007 8418 3233 
3 3236 3238 3237 
3 3238 3690 3239 
3 3299 3858 3300 
3 3353 5902 5093 
3 3782 9228 3447 
3 3684 4885 3459 
3 3555 9953 4343 
3 3724 8135 3719 
3 3866 5937 3753 
3 3809 4271 3810 
3 4600 4601 3819 
3 3849 4891 4752 
3 4830 4831 3914 
3 3929 6982 5320 
3 4988 4989 3987 
3 4081 5781 5087 
3 4187 10095 4768 
3 4257 5089 4258 
3 4272 5176 4271 
3 4271 9062 4957 
3 4352 4357 4351 
3 4452 4454 4451 
3 7263 7264 4455 
3 5588 5767 4467 
3 4540 4582 4539 
3 4615 5900 4582 
3 4622 9195 4613 
3 4688 4690 4689 
3 4729 5329 4728 
3 6183 8032 4752 
3 5031 6966 6351 
3 6177 6197 5178 
3 5211 6206 5212 
3 5249 5291 5248 
3 6625 6626 5253 
3 5254 6825 6286 
3 5280 5282 5281 
3 6680 9686 5613 
3 9323 9328 5641 
3 5949 6205 5661 
3 5708 9506 5706 
3 5806 5808 5807 
3 6316 10485 9700 
3 7900 7902 7901 
3 10066 10122 8476 
3 8564 10101 9289 
3 8384 8496 322 
3 873 9293 866 
3 923 925 924 
3 3513 3514 931 
3 943 945 944 
3 1084 9734 1082 
3 3572 9185 1107 
3 1332 1334 1333 
3 1901 2037 1900 
3 2078 2079 1967 
3 3575 8898 2146 
3 2193 2460 2192 
3 2558 9410 2560 
3 3405 8613 2831 
3 8103 9913 3257 
3 3513 8517 8376 
3 4032 6467 3565 
3 3924 6972 6970 
3 5651 6577 4470 
3 4496 9979 4494 
3 5308 8730 5310 
3 5337 7084 7083 
3 5393 7220 6535 
3 6432 7824 5410 
3 6465 10356 6464 
3 9239 9240 6487 
3 8376 9160 8265 
3 32 516 31 
3 1479 1480 1450 
3 1833 1834 1825 
3 1898 1899 1834 
3 2227 2248 2247 
3 2591 8850 2243 
3 2373 2612 2374 
3 2409 2572 2411 
3 2538 2909 2625 
3 2613 9428 9427 
3 3168 3169 2731 
3 3021 9038 2809 
3 3374 4165 3783 
3 3854 4907 3378 
3 3762 9280 3436 
3 3563 9443 8278 
3 3763 9422 3765 
3 4253 4254 3808 
3 3850 3991 3829 
3 4289 4708 3900 
3 3963 10648 6459 
3 4034 4921 4033 
3 4034 9206 5482 
3 9422 9423 4092 
3 4440 5145 4102 
3 5167 5168 4124 
3 5192 5193 4169 
3 5069 5748 4514 
3 4695 5258 4693 
3 4970 9866 8633 
3 6002 6676 5168 
3 5169 6117 5170 
3 6138 8367 5170 
3 5386 5388 5387 
3 7302 7303 5421 
3 5766 5851 5765 
3 5788 5789 5787 
3 5946 10495 8072 
3 5948 6649 6012 
3 6074 6078 6073 
3 6136 6701 6124 
3 6242 6881 6255 
3 6856 6857 6297 
3 9590 9840 6548 
3 6548 9907 9590 
3 6754 7617 7616 
3 8722 8728 8723 
3 97 470 96 
3 8785 9208 226 
3 912 9351 783 
3 5456 5457 1490 
3 1597 1598 1596 
3 1611 11348 8684 
3 1868 9141 1641 
3 2352 2392 2391 
3 3549 9319 2468 
3 8907 10419 2517 
3 2735 3310 3188 
3 2985 2986 2984 
3 4057 4514 3187 
3 3202 4021 4020 
3 3273 3275 3274 
3 3281 3694 3693 
3 3468 9265 3528 
3 3616 8768 3554 
3 4250 9149 3616 
3 3713 3721 3720 
3 3719 4022 3717 
3 4095 4096 3773 
3 4783 5992 3903 
3 4195 4196 3952 
3 5104 9614 4097 
3 4172 4174 4173 
3 4213 8741 4212 
3 4346 4365 4364 
3 4450 4458 4449 
3 4658 4660 4659 
3 4660 4662 4661 
3 4680 4682 4681 
3 4779 6303 5250 
3 5338 6401 4881 
3 5106 5941 5107 
3 5174 8047 5175 
3 5531 5532 5529 
3 5760 7727 7726 
3 5989 6119 5990 
3 9132 9133 6063 
3 6211 6742 6222 
3 6792 6793 6302 
3 7394 7395 6418 
3 6784 7521 7520 
3 9843 10418 7009 
3 7100 7450 7098 
3 7292 7293 7291 
3 7715 7718 7714 
3 951 953 952 
3 955 957 956 
3 1091 8888 956 
3 3429 8735 960 
3 1096 9172 1098 
3 1330 1332 1331 
3 2081 2228 1970 
3 1980 2146 1978 
3 2720 2898 2897 
3 3158 4578 4208 
3 3179 5030 3181 
3 3182 4084 3180 
3 3223 3224 3222 
3 3919 3920 3468 
3 3485 3487 3486 
3 3487 3489 3488 
3 3491 8909 3488 
3 3733 10332 10116 
3 4292 4312 3875 
3 3966 3968 3967 
3 3985 4218 4217 
3 4289 6574 4708 
3 4449 8654 5549 
3 5236 6788 6787 
3 5304 6934 5295 
3 5376 8730 5308 
3 5351 7090 6750 
3 5465 5466 5464 
3 8043 8717 5635 
3 9322 9505 5733 
3 5735 6767 6766 
3 6260 6830 6829 
3 7460 7463 7462 
3 7513 10915 8219 
3 609 610 608 
3 866 9293 4426 
3 879 883 878 
3 883 899 885 
3 909 1026 910 
3 957 959 958 
3 1081 1082 1080 
3 1083 1084 1082 
3 1229 1271 1228 
3 1313 1314 1309 
3 1321 1689 1319 
3 1383 8715 4463 
3 1440 4442 4441 
3 1472 7881 1521 
3 8095 10376 1497 
3 2068 8804 8803 
3 2871 2873 2872 
3 2883 2886 2885 
3 2899 9714 8004 
3 3282 3283 3137 
3 9703 11002 4024 
3 5019 5020 4036 
3 4154 5201 4152 
3 4164 6729 4162 
3 4208 4864 4209 
3 4442 5174 4443 
3 5240 5241 4842 
3 5849 5864 5035 
3 5036 5951 5950 
3 5069 10431 5748 
3 5257 6266 6265 
3 6989 9661 5433 
3 7941 8299 5562 
3 5638 9391 5927 
3 8999 10471 5699 
3 5720 7125 5719 
3 5953 6464 5952 
3 7013 7014 6221 
3 6589 9363 6587 
3 6653 10946 7455 
3 7565 9168 7411 
3 8446 8452 8445 
3 9291 9565 9170 
3 39 8854 534 
3 73 9098 535 
3 423 9115 326 
3 370 9106 536 
3 735 9365 733 
3 739 742 741 
3 8669 8985 739 
3 781 911 783 
3 785 786 784 
3 2399 9351 912 
3 997 998 983 
3 987 8388 985 
3 988 994 990 
3 991 9841 989 
3 993 3627 991 
3 997 9345 4473 
3 1012 1013 1007 
3 1094 1096 1095 
3 1135 1136 1133 
3 1135 9120 8333 
3 1559 9852 1480 
3 1600 4559 1603 
3 1641 9141 8830 
3 1751 1753 1752 
3 1962 1964 1841 
3 2472 9289 2245 
3 2381 6109 5690 
3 8724 8725 2399 
3 2538 2539 2443 
3 2468 9319 2466 
3 4224 9648 2641 
3 2734 9544 9091 
3 9090 9227 3005 
3 5508 5573 3338 
3 8932 9236 3395 
3 3552 3570 3551 
3 5991 6007 3648 
3 3654 4471 3652 
3 3718 3719 3717 
3 3950 3951 3949 
3 4005 4983 4004 
3 4186 10261 4763 
3 5277 5278 4315 
3 4558 4937 4936 
3 4632 4634 4633 
3 4652 4654 4653 
3 4750 6194 6193 
3 4776 6260 6259 
3 5132 5162 5134 
3 5306 5311 5305 
3 5363 6754 5361 
3 5439 7558 5533 
3 5559 6998 6951 
3 5607 5954 5606 
3 9167 9573 5674 
3 6423 7153 5897 
3 7015 7016 6014 
3 8207 8208 6053 
3 6099 6672 6098 
3 6633 7278 6480 
3 6562 9653 9381 
3 7329 7331 7330 
3 8639 9317 8386 
3 8390 8391 8389 
3 8682 9390 8683 
3 518 8579 257 
3 418 9105 367 
3 761 762 760 
3 768 3537 770 
3 1832 8320 1823 
3 2186 2188 2187 
3 2839 9566 2837 
3 3736 3740 3738 
3 11108 11112 3779 
3 3811 4355 4354 
3 4104 4105 4097 
3 4953 5985 4955 
3 5941 8159 5107 
3 6250 6251 5252 
3 5393 6535 5394 
3 6250 6252 6251 
3 8950 8951 6445 
3 6805 7026 7025 
3 7662 7669 7664 
3 37 8698 414 
3 1009 8000 1015 
3 1216 1217 1071 
3 1088 1205 1086 
3 1106 1108 1107 
3 1120 1122 1121 
3 3348 8095 1320 
3 1422 9172 8800 
3 1808 1810 1807 
3 1811 1812 1810 
3 2111 10099 2110 
3 2600 9864 3198 
3 2656 5660 2654 
3 2787 8927 4019 
3 3155 5061 3088 
3 3786 3828 3787 
3 4184 4185 3908 
3 4019 10277 7975 
3 5193 5194 4169 
3 4226 9892 8875 
3 5416 9859 4382 
3 6019 6020 5061 
3 5232 10664 6855 
3 5402 6229 6212 
3 7817 10289 10252 
3 8145 9456 8146 
3 480 9098 74 
3 294 8252 293 
3 587 589 588 
3 589 591 590 
3 627 628 626 
3 629 9472 1218 
3 5661 9691 631 
3 634 8555 1202 
3 639 640 638 
3 643 644 642 
3 659 660 658 
3 660 662 661 
3 663 664 662 
3 676 678 677 
3 678 680 679 
3 686 688 687 
3 690 692 691 
3 3571 8885 700 
3 706 707 704 
3 706 8885 6129 
3 712 713 711 
3 713 8327 2397 
3 718 9448 1053 
3 3444 8982 720 
3 3567 9272 722 
3 723 725 724 
3 9199 9365 735 
3 742 8985 2652 
3 746 747 745 
3 830 8660 793 
3 804 4453 4452 
3 835 9119 837 
3 838 1393 836 
3 862 1618 1268 
3 1089 9308 1229 
3 1593 9574 1144 
3 1197 9314 1232 
3 1202 5544 3684 
3 1267 9350 1224 
3 1270 8665 1311 
3 1284 1295 1285 
3 1368 3593 1314 
3 5629 9050 1477 
3 1545 9480 1576 
3 9000 9001 1567 
3 8823 9180 1589 
3 1627 10094 1607 
3 1876 2939 1644 
3 8986 8987 1692 
3 2002 9006 1876 
3 1930 1932 1931 
3 5521 5998 2046 
3 2083 2085 2084 
3 2345 9983 2118 
3 2124 2650 2126 
3 2128 9367 9122 
3 2142 8901 2364 
3 2266 2268 2267 
3 2274 2276 2275 
3 2650 3205 2651 
3 2692 3085 2696 
3 2696 2697 2693 
3 2698 7735 7734 
3 2701 2812 2811 
3 2729 3017 3016 
3 2762 2837 2761 
3 3109 3728 2766 
3 2840 2842 2841 
3 2889 3251 2888 
3 3270 8614 2977 
3 3987 9028 3016 
3 3166 9291 4522 
3 4063 4064 3215 
3 4039 4040 3218 
3 3230 3231 3229 
3 3268 4181 4180 
3 3337 4406 3335 
3 3445 3781 3447 
3 3809 3810 3446 
3 9147 9925 3618 
3 3824 3831 3823 
3 4989 5594 3987 
3 4888 9660 3991 
3 5195 7738 4148 
3 4149 4151 4150 
3 4194 5231 4777 
3 5159 6356 4207 
3 4243 5046 5045 
3 5176 9062 4271 
3 4309 4789 4311 
3 4360 5741 5740 
3 4407 5435 4406 
3 4454 9058 4451 
3 4540 8622 4615 
3 5900 5901 4582 
3 4596 7425 7424 
3 4615 6573 6572 
3 4712 6027 5855 
3 4778 6257 5235 
3 5770 9439 4856 
3 5603 9358 4883 
3 5031 8332 6967 
3 5895 6601 5071 
3 5356 7150 5639 
3 5572 5799 5648 
3 5576 7002 6990 
3 5625 9494 9144 
3 5814 7683 5813 
3 6631 6632 5901 
3 7078 7079 6382 
3 6455 9746 7569 
3 6553 8018 6554 
3 7070 11194 7069 
3 7338 7339 7337 
3 7431 7432 7429 
3 8161 8598 8163 
3 9017 9943 8346 
3 9390 9624 8683 
3 986 987 985 
3 9261 9262 1690 
3 1802 1805 1804 
3 8296 8499 1948 
3 2360 2585 2583 
3 2585 2729 2728 
3 2779 3925 2778 
3 4135 9031 2854 
3 5692 5693 2995 
3 3685 9451 9207 
3 3831 9430 4724 
3 6603 8694 3932 
3 4486 9999 5591 
3 4668 4670 4669 
3 5538 9979 7801 
3 8296 9343 5556 
3 5800 9535 5802 
3 5803 6059 5801 
3 5842 5844 5843 
3 45 9074 406 
3 467 8721 139 
3 364 9085 457 
3 651 653 652 
3 870 871 828 
3 1452 1483 1482 
3 1522 8241 1463 
3 1526 2191 1524 
3 1759 1761 1757 
3 1762 1863 1761 
3 2199 2200 2198 
3 8225 9579 2307 
3 2811 9210 2435 
3 2749 9620 9320 
3 3251 3596 2888 
3 2889 3253 3252 
3 3249 3250 2963 
3 2975 9925 9788 
3 3037 3214 3038 
3 3250 4594 4202 
3 3841 3843 3842 
3 4159 4160 4157 
3 4486 5589 4485 
3 5442 5794 4538 
3 4609 4611 4610 
3 4616 5537 4702 
3 5431 5665 5664 
3 5762 6190 5764 
3 6917 6918 6916 
3 7654 7656 7655 
3 1056 1057 1048 
3 1461 5456 1490 
3 1853 1990 1989 
3 2195 3692 2189 
3 3540 9940 3200 
3 3267 4279 4278 
3 3736 3738 3737 
3 4327 4791 4324 
3 4358 5026 4357 
3 4573 10353 4575 
3 6646 6647 5128 
3 6749 6751 5350 
3 8268 9583 5497 
3 5727 9419 5675 
3 5925 7451 5924 
3 6105 6107 6106 
3 8772 8773 6488 
3 9741 9914 6545 
3 7646 7648 7647 
3 7957 7958 7956 
3 508 8732 59 
3 510 8410 318 
3 3566 9472 627 
3 671 8820 668 
3 674 8821 676 
3 789 790 788 
3 788 8461 3461 
3 792 9211 1693 
3 1075 8921 1077 
3 1261 1262 1260 
3 1350 1378 1377 
3 1430 1461 1460 
3 1710 1712 1711 
3 1862 8275 1712 
3 2259 3456 2257 
3 2542 4223 2379 
3 2390 2530 2389 
3 2633 2635 2634 
3 3264 9635 2635 
3 8226 10410 2642 
3 2715 9985 3082 
3 2748 9029 5687 
3 3306 9963 2763 
3 2820 2821 2793 
3 2815 4038 2813 
3 3049 3050 3048 
3 3094 4612 3104 
3 3130 3133 3132 
3 3134 3135 3133 
3 3164 4338 4337 
3 4065 9321 3232 
3 4100 4101 3243 
3 3373 4960 3371 
3 5033 5541 3598 
3 3680 5729 3683 
3 3738 9455 3739 
3 3985 4217 3984 
3 4389 6319 4390 
3 4410 5510 4978 
3 5736 9513 4410 
3 4574 4576 4573 
3 6549 6550 5025 
3 5113 6450 6449 
3 6164 6618 5165 
3 7807 9954 5215 
3 6307 6690 5228 
3 7242 7245 5266 
3 10105 10295 5546 
3 5624 9068 6478 
3 8148 8500 5677 
3 5686 5785 5685 
3 5961 9867 5959 
3 6040 6993 6088 
3 6222 6419 6418 
3 6280 6283 6282 
3 6364 7253 6363 
3 8361 9696 6463 
3 8359 10065 6483 
3 10239 10747 6640 
3 6925 6927 6926 
3 131 540 130 
3 449 8702 337 
3 570 9873 6863 
3 909 910 900 
3 1224 9350 1225 
3 2556 3245 2558 
3 2559 3402 2557 
3 5327 7995 7123 
3 6289 6867 6290 
3 8067 10133 7527 
3 415 8689 135 
3 1479 1557 1480 
3 2032 2034 2033 
3 2150 2409 2149 
3 2318 10513 2306 
3 2543 2766 2542 
3 3165 8380 2746 
3 3130 3132 3128 
3 3474 3476 3475 
3 3477 3481 3479 
3 4104 9616 4105 
3 4750 4751 4145 
3 4604 9306 4459 
3 4492 9641 9640 
3 4696 9194 4622 
3 9717 10004 4937 
3 5160 6143 5392 
3 5299 5300 5298 
3 5363 6809 6808 
3 5518 10738 10519 
3 6342 7611 7610 
3 6380 8123 7804 
3 6981 11022 7255 
3 2313 9460 821 
3 826 828 827 
3 1224 1225 1222 
3 8516 10044 1387 
3 3473 5679 2197 
3 2337 2407 2406 
3 2550 2641 2358 
3 2516 2581 2517 
3 2560 3774 2562 
3 2730 2731 2641 
3 3272 3273 2990 
3 3774 8874 8105 
3 4283 4806 4185 
3 4529 4851 4527 
3 4704 4705 4534 
3 5294 6311 5301 
3 6983 8408 5383 
3 5577 9705 5386 
3 5388 5401 5389 
3 5746 5747 5401 
3 5523 9621 6408 
3 5617 9305 5615 
3 5620 6924 6515 
3 6380 7049 6378 
3 10151 10256 6543 
3 10654 10868 8208 
3 8798 8801 8799 
3 91 9099 525 
3 561 8700 141 
3 353 9102 530 
3 366 9105 507 
3 840 8602 838 
3 5709 6054 1204 
3 1353 8083 4428 
3 1410 1417 1409 
3 2079 2178 2177 
3 2220 9586 9585 
3 2286 2289 2287 
3 2836 10332 2950 
3 2855 3806 2857 
3 2989 9998 5923 
3 3255 3256 3254 
3 9504 9655 3407 
3 3434 4852 3542 
3 3587 4009 3546 
3 7945 10482 3888 
3 3944 7848 5837 
3 3950 3952 3951 
3 3971 4918 4917 
3 4377 8238 7502 
3 4476 4478 4477 
3 4554 4555 4553 
3 4587 9671 7522 
3 4768 6234 6219 
3 5207 10135 7507 
3 9568 10181 5855 
3 5936 6946 6612 
3 6176 7306 7305 
3 6779 6839 6764 
3 10884 10921 6995 
3 553 9336 229 
3 329 8794 528 
3 335 8099 334 
3 605 606 604 
3 2944 9295 900 
3 3213 9575 1836 
3 2007 2008 1905 
3 8899 8900 1990 
3 2138 2249 2139 
3 7733 9611 2322 
3 2568 2570 2569 
3 2572 9547 2742 
3 2955 10013 2639 
3 2886 2889 2888 
3 2903 9725 2900 
3 2908 9936 2967 
3 2948 3688 3687 
3 3492 4241 3494 
3 5391 5889 3540 
3 10475 10652 3699 
3 4128 4129 3821 
3 4477 5063 4088 
3 5842 5843 4556 
3 5340 5341 5339 
3 5405 7076 6709 
3 5451 7453 5453 
3 5951 5953 5952 
3 10782 10933 6641 
3 11048 11060 6665 
3 8439 8447 8441 
3 90 9081 89 
3 514 8752 266 
3 404 8412 341 
3 355 8733 456 
3 387 9087 386 
3 814 816 815 
3 1043 1044 1023 
3 8317 8318 1074 
3 1102 1103 1101 
3 1105 9185 1478 
3 1108 1109 1107 
3 1116 10260 1199 
3 1118 1119 1117 
3 1117 8802 3439 
3 1122 1123 1121 
3 1127 8803 3455 
3 1234 1235 1210 
3 1226 1282 1281 
3 1282 1302 1301 
3 1852 8760 1639 
3 1753 1755 1754 
3 1801 8864 3360 
3 1998 9289 5711 
3 5520 5521 2046 
3 2060 9202 2062 
3 2094 9372 2097 
3 2453 2454 2363 
3 2575 2576 2454 
3 2719 2891 2520 
3 2570 2618 2571 
3 2738 2739 2576 
3 2638 2953 2639 
3 2792 2793 2739 
3 2739 8806 3206 
3 2933 9649 3324 
3 3322 3323 2934 
3 3922 3923 3316 
3 3433 10221 8320 
3 3438 9941 9851 
3 3497 4898 3495 
3 3523 9271 3587 
3 4060 7950 7949 
3 4570 5038 4073 
3 5540 8423 4215 
3 4349 10279 4347 
3 4357 5367 4351 
3 4395 9285 4393 
3 4419 5439 4429 
3 4522 9291 9170 
3 4525 9464 4858 
3 4529 9672 4851 
3 4703 4704 4534 
3 4713 9132 6063 
3 4890 5040 5039 
3 4894 9677 6433 
3 5053 5869 4984 
3 5943 6396 5026 
3 6133 6134 5163 
3 5189 7546 7544 
3 5196 6195 5443 
3 7265 7802 5422 
3 5423 7267 7266 
3 10022 10338 5602 
3 6358 6360 5795 
3 5862 6214 5861 
3 5954 10778 10061 
3 9437 9635 6662 
3 8846 9468 8534 
3 459 8854 40 
3 1139 5650 1141 
3 2030 2032 2031 
3 8118 9367 2126 
3 2254 3363 2256 
3 2353 9693 2533 
3 8276 8277 2594 
3 3110 3889 3109 
3 9357 10558 3561 
3 4168 8032 5192 
3 4616 5955 5537 
3 4654 4656 4655 
3 4722 7621 7620 
3 6018 6447 4938 
3 5113 6449 5114 
3 5135 10828 10721 
3 5269 6753 5270 
3 6420 6421 5304 
3 5658 10448 8452 
3 5763 9788 5761 
3 7353 9784 6377 
3 8107 8108 6457 
3 6501 9283 9066 
3 6504 6506 6505 
3 7474 7477 7475 
3 10102 10117 8485 
3 9544 9545 9346 
3 521 8877 51 
3 78 9112 427 
3 89 9081 441 
3 531 9084 361 
3 457 9104 363 
3 386 9087 440 
3 628 8597 626 
3 632 9691 635 
3 636 8555 634 
3 635 3469 637 
3 639 1203 641 
3 4451 8819 659 
3 3443 8820 671 
3 709 8821 674 
3 799 8824 683 
3 701 8598 8161 
3 719 9272 717 
3 802 803 801 
3 805 806 803 
3 806 808 807 
3 1692 9119 835 
3 1393 8329 836 
3 841 843 842 
3 1563 8992 841 
3 1014 3308 1008 
3 1046 1206 1067 
3 1143 8993 1138 
3 1144 9574 1140 
3 1564 8993 1143 
3 1685 9971 1150 
3 1169 1187 1176 
3 1177 9189 3386 
3 1239 9487 1291 
3 1282 1301 1281 
3 3503 9871 1286 
3 2589 8084 1365 
3 1398 9871 8666 
3 1412 9692 1452 
3 1441 1453 1437 
3 1443 9664 1474 
3 1448 1479 1450 
3 1474 1513 1505 
3 1514 1556 1516 
3 1556 9129 9128 
3 1632 1675 1579 
3 1617 10535 10208 
3 2502 9481 1619 
3 3460 9161 1664 
3 1673 1882 1674 
3 2042 9749 1694 
3 1695 9482 2043 
3 3393 9722 1701 
3 1704 9483 1702 
3 1706 9201 1704 
3 9201 9483 1704 
3 1708 1709 1706 
3 1709 9201 1706 
3 1707 9135 1708 
3 1790 1792 1791 
3 1790 9387 7829 
3 1887 9889 2502 
3 2043 2122 2121 
3 2073 9491 9260 
3 2123 9017 2121 
3 2127 9017 2123 
3 2650 2651 2126 
3 2152 9142 2366 
3 2367 8879 2153 
3 2159 9752 9011 
3 2249 9620 2311 
3 2333 2438 2334 
3 2366 2464 2463 
3 2366 9142 2464 
3 2455 9759 2649 
3 2478 9579 8590 
3 2671 7989 2500 
3 2514 2515 2513 
3 2595 2747 2597 
3 2726 9534 2614 
3 2657 2661 2659 
3 2945 2946 2671 
3 3436 9280 2684 
3 2819 3107 2764 
3 2788 8167 3191 
3 3229 9029 2805 
3 2807 2809 2808 
3 2810 3021 2809 
3 2977 8614 2932 
3 3217 3218 2946 
3 2998 9034 5603 
3 3005 9227 3383 
3 3556 8835 3012 
3 3054 4013 4012 
3 3067 3519 3066 
3 3086 9396 7970 
3 3149 3835 3290 
3 4514 9544 3187 
3 3193 3805 3195 
3 3196 3334 3194 
3 3256 4000 3254 
3 3848 4277 3265 
3 3295 3863 3297 
3 3318 4872 3319 
3 4273 9816 3372 
3 3374 3783 3375 
3 3417 10048 8357 
3 6514 8977 3459 
3 3972 3973 3480 
3 10074 10362 3526 
3 3557 9057 4412 
3 5544 6651 3684 
3 3711 9870 9508 
3 3714 3716 3715 
3 3722 9551 3718 
3 3718 9551 3723 
3 3729 10093 7924 
3 3762 9509 9280 
3 3787 10373 3785 
3 4254 4255 3808 
3 3841 3844 3843 
3 3844 4132 3845 
3 3906 4798 4797 
3 4883 9994 3955 
3 3974 3975 3973 
3 4205 4206 3975 
3 3977 9576 3979 
3 8135 8708 4022 
3 4047 9282 5074 
3 4050 4942 4940 
3 4105 9616 5106 
3 4114 9368 4111 
3 5148 5167 4124 
3 4147 4148 4146 
3 4859 4860 4214 
3 4236 10290 4232 
3 4257 8764 5669 
3 5170 8367 4269 
3 4307 4804 4308 
3 4338 9182 4337 
3 4845 4873 4356 
3 4361 5441 5370 
3 4390 8239 4387 
3 5505 6128 4402 
3 4850 5651 4470 
3 6517 9514 4472 
3 4502 8425 8424 
3 4514 9545 9544 
3 4537 8464 8463 
3 9515 9516 4539 
3 4543 9230 7781 
3 4546 8571 4547 
3 4562 4877 4876 
3 5329 6131 4728 
3 5230 6305 4785 
3 6606 6607 4802 
3 4805 4837 4836 
3 4837 4838 4836 
3 5357 5359 4846 
3 4865 4867 4866 
3 4899 9463 5713 
3 4900 8063 7788 
3 5374 5638 4901 
3 4932 8081 5417 
3 5730 10140 4942 
3 5745 5830 5054 
3 5073 8914 5072 
3 5782 5977 5087 
3 6620 9517 5089 
3 5511 6114 5096 
3 6012 6518 5146 
3 5167 6002 5168 
3 6295 6847 5231 
3 5234 6287 5438 
3 6406 7371 5409 
3 5414 7154 7119 
3 6287 6288 5438 
3 6390 7839 5480 
3 5493 5502 5495 
3 5545 7448 7447 
3 9625 9943 5561 
3 5607 9466 6416 
3 8820 9831 5623 
3 5632 6036 5633 
3 5969 10360 5637 
3 5641 9328 9141 
3 5708 9801 9506 
3 5726 9704 9274 
3 9346 9545 5730 
3 5733 9505 5757 
3 9041 9042 5736 
3 5806 5809 5808 
3 6430 9633 5810 
3 7007 10984 5893 
3 5907 5909 5908 
3 9391 10676 5927 
3 5966 7042 7041 
3 5975 10616 10555 
3 6008 10600 5977 
3 6138 8383 8367 
3 6191 7256 6201 
3 6285 7786 6956 
3 6966 10089 6351 
3 9277 9442 6512 
3 6519 9423 6518 
3 8624 8630 6573 
3 6588 9357 7822 
3 6627 9930 6653 
3 7350 10143 9302 
3 7484 10442 9955 
3 7743 7745 7742 
3 7781 9389 7782 
3 9230 9231 7781 
3 8079 8482 8080 
3 9974 10015 8330 
3 8344 8611 8343 
3 8823 10326 8629 
3 9602 9856 8679 
3 9856 9933 8680 
3 9624 9688 8683 
3 9860 9861 8763 
3 9149 9602 8768 
3 8824 10630 10562 
3 9091 9544 9346 
3 33 8743 32 
3 196 469 195 
3 1094 3438 1096 
3 1269 3381 1212 
3 2012 2351 2114 
3 3665 10175 3667 
3 3900 10030 3866 
3 4031 9805 8841 
3 9247 10027 4031 
3 4948 4949 4240 
3 4461 4965 4964 
3 4859 5440 5319 
3 5122 5123 5121 
3 10208 10535 7783 
3 8026 9742 9556 
3 8439 8441 8440 
3 985 8388 3399 
3 1116 1199 1118 
3 1213 5774 1270 
3 1547 9735 1263 
3 1265 1279 1264 
3 1280 1304 1279 
3 1372 1493 1310 
3 1311 1374 1373 
3 1400 1401 1357 
3 1360 1380 1359 
3 1359 9405 3686 
3 1376 1418 1408 
3 1381 1404 1380 
3 1405 1414 1404 
3 1471 1545 1491 
3 1623 5137 4053 
3 1677 1880 1676 
3 9262 9263 1690 
3 1916 9488 1919 
3 1918 2063 1917 
3 2022 2023 2021 
3 2024 7843 2165 
3 2103 8017 2102 
3 2139 9355 4502 
3 2165 6526 2429 
3 2169 5866 2378 
3 2212 2217 2211 
3 2295 2297 2296 
3 2308 9755 2301 
3 2319 2478 2477 
3 2347 2349 2348 
3 2356 8924 2790 
3 2642 2784 2498 
3 2506 2703 2507 
3 2536 2705 2535 
3 2547 9380 2546 
3 2672 5938 4588 
3 2951 2952 2680 
3 3039 4967 3041 
3 9039 9582 3053 
3 9418 9860 3084 
3 3691 4207 3341 
3 3410 3411 3409 
3 3472 9398 3474 
3 9493 9894 3633 
3 3805 6687 5476 
3 4029 10271 8663 
3 4815 4816 4286 
3 4873 5406 4356 
3 4522 9170 4524 
3 4537 8463 8462 
3 4569 5542 5455 
3 6368 6590 4586 
3 4716 5321 4714 
3 4733 6148 6147 
3 4927 7935 5724 
3 5085 6558 5503 
3 6666 6667 5151 
3 6292 6371 5233 
3 5341 5342 5339 
3 5463 6965 6179 
3 5665 7808 5667 
3 5818 9653 5820 
3 5821 6100 5819 
3 5820 6562 5822 
3 5857 7215 7214 
3 6617 9867 5961 
3 6276 6277 6274 
3 6566 8107 6457 
3 6499 9195 9194 
3 9552 9553 7782 
3 583 584 582 
3 4403 8374 1027 
3 1127 3455 1129 
3 8586 9742 1205 
3 1525 9916 1527 
3 9014 9015 2585 
3 3442 4485 3440 
3 3847 3881 3846 
3 5038 9586 4073 
3 4480 10596 5564 
3 4820 5317 4821 
3 5218 6230 5397 
3 5430 6370 5431 
3 5478 7359 5479 
3 5923 9676 9675 
3 6072 6074 6073 
3 6481 6819 6804 
3 6753 6834 6782 
3 52 9096 521 
3 58 8732 453 
3 67 9080 454 
3 460 8777 147 
3 550 8748 189 
3 554 8539 244 
3 451 8274 246 
3 403 8787 251 
3 556 8750 253 
3 464 8788 255 
3 557 8751 262 
3 465 8790 264 
3 544 9092 343 
3 349 9101 529 
3 400 9101 350 
3 511 8882 357 
3 3770 9733 598 
3 3754 8555 636 
3 843 844 842 
3 1275 9475 8995 
3 3637 9664 1443 
3 1499 1554 1553 
3 1887 2502 1619 
3 1726 8861 1723 
3 5646 9241 1742 
3 1770 8895 1839 
3 8862 9388 2000 
3 2159 9011 2001 
3 2135 9749 2042 
3 2043 2121 2120 
3 2507 8299 3216 
3 2789 7730 7046 
3 3986 3987 3016 
3 8476 10122 3209 
3 9708 11045 3595 
3 4078 5659 5117 
3 4143 4916 4915 
3 4425 9467 8863 
3 5048 6552 5049 
3 6554 10060 5049 
3 6739 10188 5883 
3 6107 6153 6152 
3 6652 7494 6160 
3 6320 7785 7784 
3 9320 10240 6496 
3 6545 9710 6546 
3 7331 7333 7332 
3 11119 11140 8121 
3 8893 9094 9093 
3 9129 10518 9128 
3 31 9329 30 
3 340 8412 502 
3 581 583 582 
3 583 585 584 
3 1126 8802 1119 
3 2521 9715 9714 
3 3035 3139 3138 
3 3671 8952 3680 
3 3906 4797 4299 
3 4040 9767 4042 
3 4819 9285 4395 
3 4768 10095 6235 
3 4838 8273 4841 
3 5010 5012 5011 
3 5016 8912 5592 
3 5164 6163 5165 
3 5581 8289 8286 
3 8894 9109 9094 
3 132 8744 131 
3 530 9083 352 
3 2316 9025 4500 
3 2552 2554 2553 
3 3245 9410 2558 
3 2604 2606 2605 
3 2923 9258 2628 
3 2692 8377 3085 
3 2806 9497 8355 
3 3170 9174 5399 
3 9822 10201 3339 
3 3517 9153 9152 
3 3717 9231 3715 
3 3761 9421 3763 
3 4164 6730 6729 
3 4196 4199 4197 
3 4340 5288 4329 
3 4461 9678 6543 
3 4512 9769 4466 
3 4978 10199 6469 
3 5017 8911 6524 
3 8494 9667 5471 
3 5592 8913 6698 
3 9144 9369 5625 
3 5652 10570 10520 
3 6215 10157 5686 
3 6083 6085 6082 
3 6486 9939 9176 
3 6869 6870 6868 
3 7034 7187 7186 
3 8131 10479 8130 
3 295 9222 468 
3 330 8794 329 
3 8462 9479 1289 
3 2558 2560 2559 
3 2875 10669 2876 
3 3870 3871 3105 
3 3181 9438 3183 
3 3756 10252 4114 
3 7942 10534 3928 
3 5769 9540 4033 
3 6459 7234 6417 
3 455 9099 92 
3 501 7999 236 
3 456 9102 354 
3 1006 8297 1948 
3 1332 1476 1334 
3 1840 1962 1841 
3 2012 2352 2351 
3 2157 9693 2353 
3 2308 11231 11195 
3 2560 2562 2561 
3 3261 3263 3260 
3 3780 4997 4602 
3 4753 8137 8136 
3 4775 6242 6241 
3 5791 10144 4901 
3 6088 11096 6559 
3 6863 6887 6270 
3 7426 7427 7424 
3 8930 9250 8834 
3 318 8410 317 
3 574 5524 572 
3 1107 9185 1105 
3 1209 1234 1210 
3 4228 8895 1770 
3 2297 2300 2299 
3 2682 4259 2948 
3 3687 9712 2947 
3 3248 3364 3013 
3 5454 9533 3681 
3 4493 9576 3977 
3 4190 4775 4762 
3 5160 6969 6143 
3 9779 9842 5685 
3 9596 10177 7871 
3 8061 10123 8059 
3 411 9103 359 
3 958 1091 956 
3 4425 8863 1733 
3 1745 1768 1767 
3 1856 4991 3352 
3 9198 10110 1949 
3 2025 8891 8890 
3 2486 8870 2055 
3 2229 10607 10185 
3 7988 10107 2649 
3 2967 3868 3099 
3 3179 9427 5030 
3 3188 4057 3187 
3 5793 8707 3296 
3 3942 3944 3943 
3 8193 8194 4015 
3 4082 9354 5099 
3 4621 4622 4613 
3 5390 6381 4850 
3 5070 9175 8397 
3 6111 6646 5128 
3 5500 8537 8536 
3 5625 9369 5642 
3 5731 9914 9741 
3 5824 5826 5825 
3 6000 11338 7112 
3 6706 6707 6240 
3 6405 7309 7097 
3 8167 9349 8168 
3 8331 9868 8582 
3 8502 10028 9630 
3 8680 9504 8677 
3 50 8877 450 
3 231 8786 230 
3 432 11079 10879 
3 3350 8184 905 
3 1018 9708 3595 
3 1043 1058 1044 
3 2506 2845 2703 
3 2827 10823 8134 
3 2843 8021 2841 
3 3287 9095 4183 
3 3496 3497 3495 
3 7818 10175 3665 
3 3992 4348 4347 
3 4005 4984 4983 
3 5211 5212 4576 
3 5106 5107 5105 
3 5299 6846 6296 
3 5337 7083 6010 
3 5420 7015 6014 
3 5488 9583 5490 
3 5688 9447 8321 
3 9454 9641 5829 
3 5865 10650 10365 
3 516 9329 31 
3 63 9079 408 
3 65 9097 523 
3 360 9084 411 
3 362 9104 531 
3 1861 8962 1994 
3 2709 10907 9580 
3 2807 2810 2809 
3 3541 4717 3022 
3 3773 9614 3024 
3 8383 9442 3246 
3 3263 3959 3260 
3 3476 8971 3477 
3 3535 9110 8350 
3 3760 8323 4440 
3 5043 9509 3764 
3 4092 9282 3767 
3 5007 5008 4245 
3 4307 5236 4804 
3 4332 5245 4834 
3 4678 10197 4680 
3 4726 10041 6671 
3 4879 8104 7574 
3 5074 9282 5595 
3 6117 6137 5170 
3 5325 6657 6656 
3 8633 9866 5565 
3 5614 9048 6575 
3 9270 9928 5832 
3 5835 10295 5842 
3 5858 10124 7344 
3 6017 6975 6376 
3 6097 11177 10559 
3 6137 6139 6138 
3 6139 6141 6140 
3 6519 9521 9423 
3 6781 6840 6765 
3 7716 7717 7715 
3 10986 11382 9139 
3 534 8698 38 
3 101 9873 100 
3 523 11410 11372 
3 573 574 572 
3 591 593 592 
3 593 595 594 
3 595 597 596 
3 641 642 640 
3 651 652 650 
3 653 654 652 
3 718 719 717 
3 861 862 860 
3 1235 1237 1236 
3 1356 9479 2667 
3 1433 8050 1402 
3 1669 1670 1668 
3 2662 2663 2660 
3 2697 9925 2975 
3 2772 3111 2832 
3 10659 10833 2780 
3 3250 4202 2963 
3 3219 10275 9363 
3 3370 9876 4273 
3 3442 9999 4486 
3 3610 4051 3498 
3 9602 9688 3570 
3 3587 9271 5116 
3 3756 3757 3675 
3 4064 4094 4093 
3 4070 9523 5242 
3 4252 7691 7688 
3 4656 4658 4657 
3 5251 5252 4796 
3 4875 6378 5540 
3 5327 7123 7122 
3 5358 6952 5357 
3 5413 5415 5414 
3 6052 9636 6165 
3 6799 6800 6299 
3 7310 7312 6430 
3 6481 6804 6803 
3 7431 7433 7432 
3 7435 7436 7434 
3 10093 10623 7924 
3 8329 9974 8330 
3 322 8496 321 
3 342 9092 404 
3 1878 8455 601 
3 3853 9526 611 
3 8738 10625 1593 
3 2836 2950 2949 
3 2978 10011 7543 
3 3665 3667 3666 
3 4072 4913 4052 
3 4172 9799 4175 
3 4944 5128 4248 
3 6176 7305 5392 
3 5809 9397 6431 
3 10688 10839 5992 
3 11008 11044 6022 
3 6106 6668 6104 
3 11260 11282 6704 
3 7672 7674 7671 
3 522 9075 55 
3 134 8690 133 
3 388 8658 505 
3 653 655 654 
3 880 9171 8201 
3 1281 9224 1303 
3 1527 1611 1529 
3 1536 5663 1534 
3 1537 10073 1539 
3 1592 1624 1591 
3 1634 5418 4963 
3 1666 4744 1665 
3 1959 1968 1960 
3 1968 2089 1969 
3 2245 9289 1998 
3 2015 2340 2091 
3 2019 3039 2320 
3 2086 2344 2084 
3 2319 2477 2476 
3 2339 2445 2338 
3 2340 2524 2400 
3 2406 4552 2537 
3 2529 2770 2528 
3 2707 2708 2706 
3 9381 9653 2803 
3 2904 2905 2903 
3 2960 3862 3097 
3 3418 3606 3419 
3 3456 10631 7449 
3 10338 10356 3547 
3 3576 3580 3578 
3 3758 4380 4262 
3 3840 3841 3838 
3 3867 7942 3928 
3 3883 4801 4297 
3 4309 4311 3893 
3 4587 4605 4048 
3 4142 9883 4143 
3 4178 4294 4293 
3 4373 4603 4371 
3 4565 4761 4760 
3 4584 5850 5131 
3 4796 7787 4610 
3 4648 10613 4650 
3 4668 5207 4670 
3 6551 10188 4761 
3 5294 5301 4824 
3 6312 6313 4831 
3 5173 6000 4845 
3 4885 6978 6514 
3 4906 5393 5272 
3 5767 5775 5768 
3 5854 9727 9618 
3 6534 10019 9760 
3 7327 7329 7328 
3 8272 9507 9502 
3 10601 10647 8573 
3 236 7999 235 
3 1452 1481 1451 
3 2719 8966 2891 
3 8324 11210 3521 
3 4755 6207 5945 
3 4775 6241 6223 
3 5246 6769 4817 
3 5782 9993 6008 
3 6253 6820 6789 
3 6285 6956 6877 
3 8917 11060 11048 
3 406 8855 44 
3 229 9336 228 
3 659 8819 660 
3 751 10412 8980 
3 1251 4537 1253 
3 1759 1762 1761 
3 8761 9316 1877 
3 2238 8849 4958 
3 8471 10446 2412 
3 4214 9682 3001 
3 3519 10372 3066 
3 8768 9602 3570 
3 3695 9823 4191 
3 3899 3900 3866 
3 4360 5742 5741 
3 4361 9043 5441 
3 4852 9592 5478 
3 5638 5791 4901 
3 5461 9704 4946 
3 7578 7906 4989 
3 6042 10587 5121 
3 6518 9421 5146 
3 9518 9519 5147 
3 5337 10001 7084 
3 6532 8708 5522 
3 5572 10085 5799 
3 9058 10461 5600 
3 5628 6501 5627 
3 5988 6180 6046 
3 6777 6785 6775 
3 6809 9539 8876 
3 9091 9346 9090 
3 32 8743 516 
3 219 519 218 
3 430 9100 320 
3 818 9938 820 
3 974 9647 948 
3 1307 9478 1272 
3 1752 3527 1750 
3 2028 2030 2029 
3 2938 9879 2253 
3 2627 2628 2428 
3 9454 9869 2577 
3 2622 5041 2973 
3 2636 9356 2634 
3 2635 9635 2638 
3 3542 9275 3162 
3 3614 10237 3615 
3 4740 5322 4261 
3 4484 8498 8497 
3 5315 5585 4593 
3 4632 4722 4634 
3 4642 5183 4644 
3 8285 10141 4939 
3 5309 5378 5377 
3 5580 9786 8158 
3 5613 9686 5611 
3 6258 6841 6257 
3 6487 9711 9239 
3 9666 10313 8475 
3 504 8553 15 
3 189 8748 188 
3 213 8749 212 
3 275 8648 274 
3 288 8755 287 
3 1551 10040 4418 
3 2902 2904 2903 
3 5112 5980 5110 
3 6521 9615 9597 
3 7863 7864 7862 
3 43 8855 541 
3 8233 8234 503 
3 2172 2337 2336 
3 2396 10076 8018 
3 2844 2849 2848 
3 2853 2855 2854 
3 3976 9439 3182 
3 3275 9095 3287 
3 3899 4288 3900 
3 5225 5754 4313 
3 4394 5451 4793 
3 4400 8150 4857 
3 4527 9464 4525 
3 5402 6212 5214 
3 5282 5287 5283 
3 5495 5499 5496 
3 6623 9393 5537 
3 5751 7148 7147 
3 7422 7452 5881 
3 9354 9683 6001 
3 6157 6991 6352 
3 6237 6239 6238 
3 6352 9220 6979 
3 9639 9805 7897 
3 8959 10780 8311 
3 9221 11006 10693 
3 337 8702 336 
3 946 9948 944 
3 1658 10599 10550 
3 3490 9570 3492 
3 4343 5006 4342 
3 8218 8219 4896 
3 5372 6759 5277 
3 5486 5487 5485 
3 5797 9619 6654 
3 6079 6081 6080 
3 6250 8220 6261 
3 6772 6890 6271 
3 6723 8096 7035 
3 6767 6843 6766 
3 10102 10828 10684 
3 931 9415 929 
3 948 9647 946 
3 1497 9721 1324 
3 1449 10173 1448 
3 2194 10151 1613 
3 2613 2757 2756 
3 9653 9679 2803 
3 3722 9951 9551 
3 3970 8063 4900 
3 7893 10928 4126 
3 4323 4325 4324 
3 8918 9557 4475 
3 5254 5323 4826 
3 4997 6609 6398 
3 5119 9221 7270 
3 5157 6098 5926 
3 5482 9206 8006 
3 5556 5557 5555 
3 7646 10178 7648 
3 868 8314 816 
3 900 9295 885 
3 1021 9469 1046 
3 1042 9637 3154 
3 3439 7704 1115 
3 2718 9531 2497 
3 2582 8907 2517 
3 10324 10776 2518 
3 2660 9226 2658 
3 2742 9547 3201 
3 3392 9982 3208 
3 3348 9420 9419 
3 4027 9982 3392 
3 4249 9728 9299 
3 5065 9727 5854 
3 6272 6273 5286 
3 7156 9740 5437 
3 5442 9991 5794 
3 5765 8428 5763 
3 5794 9850 5796 
3 10461 10579 8180 
3 952 8860 950 
3 1557 1558 1480 
3 1855 1857 1651 
3 2519 9290 8739 
3 2830 4076 2817 
3 3214 9043 4361 
3 3596 11018 8492 
3 3845 3847 3846 
3 4377 4781 4296 
3 5019 5021 5020 
3 5106 9616 6044 
3 7831 9581 5601 
3 626 8597 3775 
3 815 8291 813 
3 856 9313 3086 
3 1237 1239 1238 
3 1240 9554 2244 
3 1290 10440 1257 
3 1355 8996 1287 
3 1401 10071 1357 
3 3406 10281 1376 
3 1390 8694 1475 
3 1638 10155 1577 
3 1695 2042 1694 
3 1753 8497 1755 
3 1935 1938 1937 
3 2120 3054 2135 
3 2127 9751 9017 
3 2183 7899 2181 
3 2583 10036 2584 
3 3018 3056 2754 
3 2758 3453 3242 
3 3243 3244 2759 
3 2842 2844 2843 
3 2887 11065 10300 
3 9658 10729 2890 
3 3067 10304 3519 
3 8272 9502 3186 
3 3205 4466 4465 
3 3230 9503 4065 
3 3340 10946 10937 
3 3353 10173 5902 
3 3379 9041 5736 
3 3530 9047 3531 
3 7811 7812 3559 
3 4244 4245 3605 
3 5937 9536 3753 
3 3955 9994 6345 
3 4040 4042 4041 
3 4064 10059 8489 
3 4813 5997 4603 
3 4624 5139 4626 
3 4647 5267 4645 
3 4728 10041 4726 
3 5002 9625 5561 
3 6563 9773 5058 
3 5100 10741 10366 
3 5162 6132 5163 
3 7795 7796 5262 
3 6816 6817 5289 
3 5460 5462 5461 
3 6284 6306 5531 
3 5587 7798 7538 
3 9634 9744 5621 
3 9262 9886 5830 
3 5958 6624 5963 
3 6351 10288 6674 
3 6369 10090 7580 
3 6395 7140 7139 
3 6403 7010 6402 
3 6510 9073 9037 
3 6856 6858 6857 
3 7912 7913 7911 
3 8661 10249 8163 
3 8626 8627 8625 
3 8627 8629 8628 
3 9440 10801 10099 
3 9486 9487 9485 
3 344 8385 544 
3 984 985 982 
3 992 993 991 
3 1749 9326 1751 
3 1971 2081 1970 
3 2047 9014 2360 
3 2577 9327 2575 
3 10466 10548 3454 
3 4919 4920 3996 
3 4473 9345 9344 
3 5040 5715 5714 
3 7684 7756 5536 
3 8300 9815 5673 
3 7867 8379 5772 
3 6858 6922 6921 
3 7737 9904 9563 
3 419 9111 70 
3 1087 1088 1086 
3 1630 1631 1584 
3 2957 8166 2663 
3 2898 4392 2897 
3 4011 8927 3189 
3 7871 9399 4562 
3 5887 5888 5885 
3 6592 7889 7888 
3 7402 10149 7158 
3 9640 9641 9245 
3 541 8916 42 
3 351 9083 400 
3 358 9103 511 
3 2314 9189 1184 
3 1675 9360 1579 
3 3703 9685 1652 
3 1800 9546 1802 
3 2221 9977 2326 
3 2893 3141 3140 
3 3009 9927 3533 
3 3149 3290 3289 
3 3239 9745 3355 
3 3874 4292 3875 
3 5883 10187 4278 
3 8001 9910 4431 
3 4798 5249 5248 
3 5079 10786 9753 
3 5894 7496 7007 
3 6052 6165 6070 
3 6390 10340 7839 
3 7057 10663 9370 
3 241 8232 503 
3 3775 8413 624 
3 829 10070 3543 
3 923 10169 925 
3 3400 9235 1265 
3 1703 1704 1702 
3 1938 8831 8054 
3 9820 10421 2108 
3 2266 9019 2268 
3 2350 10056 2348 
3 2712 2714 2713 
3 3988 9926 3000 
3 4277 9302 3265 
3 3371 9763 3369 
3 3445 8332 3781 
3 3649 3676 3651 
3 3734 9665 3732 
3 3913 4803 4291 
3 4427 9906 9807 
3 4483 5160 4985 
3 5355 5895 5071 
3 5082 9933 9856 
3 5571 10249 10085 
3 9416 10297 5774 
3 7910 7912 7911 
3 10562 10630 8282 
3 312 9082 311 
3 885 9295 9294 
3 3317 3746 2104 
3 2420 9952 2418 
3 3138 3285 3036 
3 3743 5804 3741 
3 8070 10661 4265 
3 5094 5095 4267 
3 4442 4443 4441 
3 9661 9672 4531 
3 5762 5764 5763 
3 6678 11274 6679 
3 9207 9451 8019 
3 9362 9734 8030 
3 9033 9842 8575 
3 717 9272 5867 
3 745 9893 2398 
3 8053 10636 1288 
3 5509 7944 1783 
3 2105 2108 2107 
3 2252 2254 2253 
3 2305 10462 2275 
3 2607 8352 3788 
3 3090 9904 7737 
3 5063 9471 4088 
3 6127 9445 4130 
3 4308 7849 4306 
3 6114 6116 5096 
3 5157 6099 6098 
3 5866 10465 7262 
3 6203 10703 10430 
3 6287 6898 6876 
3 6429 9498 7311 
3 6533 8479 8478 
3 7865 10905 7864 
3 41 8916 459 
3 483 9106 371 
3 2007 2104 2008 
3 2716 2776 2540 
3 2769 2833 2545 
3 3035 3138 3036 
3 5225 5755 5754 
3 5299 6296 5300 
3 5380 5382 5381 
3 5384 5386 5385 
3 9551 9951 5781 
3 8541 9527 785 
3 1468 8416 1507 
3 1866 8588 8001 
3 5691 9415 3514 
3 4956 10934 4218 
3 4422 5295 4353 
3 8504 9467 4425 
3 5302 6764 5288 
3 6542 9869 5703 
3 5873 10270 9728 
3 6685 9995 9214 
3 906 9708 1018 
3 1119 8802 1117 
3 1124 8803 1127 
3 2332 10067 2098 
3 2489 9977 5877 
3 2833 9875 9817 
3 3401 9779 9030 
3 9562 9563 4380 
3 4611 4795 4610 
3 9373 11164 5094 
3 8065 10150 5526 
3 5636 9456 8145 
3 10727 10762 6003 
3 7053 10888 6061 
3 7192 7193 6811 
3 10028 10029 6844 
3 7408 10380 7409 
3 7458 10278 7461 
3 7564 9953 9575 
3 8800 9834 8798 
3 1550 9232 1616 
3 10042 10158 3368 
3 4871 9605 4870 
3 5019 9786 5580 
3 5257 10164 6267 
3 5630 10519 10224 
3 8176 8178 8177 
3 8628 10408 10372 
3 8710 10362 8711 
3 517 8578 158 
3 519 8310 218 
3 405 8232 242 
3 539 8701 283 
3 10790 10909 580 
3 2157 2353 2158 
3 3313 9214 4037 
3 3651 9950 3653 
3 3736 3737 3735 
3 4320 5273 4319 
3 4607 4608 4535 
3 4899 5450 5449 
3 5094 7257 5095 
3 6260 6829 6259 
3 6684 11292 6947 
3 7559 7908 7558 
3 8305 9731 9573 
3 10673 10763 9721 
3 11089 11135 10671 
3 1045 9212 1020 
3 3685 9261 1248 
3 10376 10673 1497 
3 1971 2083 2082 
3 2545 9817 2388 
3 2581 9565 9291 
3 3355 4383 4382 
3 3700 8593 7722 
3 4911 10373 3787 
3 4147 10294 4149 
3 8617 8618 4179 
3 4399 10423 7234 
3 4441 9937 8587 
3 4992 9063 5037 
3 8770 9933 5082 
3 5123 6043 6042 
3 6751 10182 5350 
3 6578 9263 5745 
3 5825 10629 7799 
3 5892 9441 7895 
3 6518 9423 9422 
3 9906 10019 6534 
3 9470 9550 6547 
3 7895 9639 7897 
3 8102 9825 8103 
3 526 9113 94 
3 356 8733 355 
3 1342 1343 1341 
3 5596 9692 1412 
3 1584 9857 1481 
3 1483 9692 8236 
3 1630 3592 1842 
3 2540 9901 2391 
3 4193 9891 3292 
3 3479 9322 3971 
3 3696 8366 4030 
3 3795 9896 3743 
3 4137 7319 7318 
3 4273 11303 11196 
3 4276 5179 5178 
3 4688 9918 4690 
3 4737 11282 11260 
3 6160 9512 4739 
3 8363 9507 5666 
3 5694 5695 5693 
3 5826 5827 5825 
3 5875 10350 10349 
3 6047 10685 6045 
3 6085 6660 6082 
3 7309 10897 7097 
3 7708 9744 9634 
3 7733 9612 9611 
3 7785 10663 7784 
3 9342 10294 9341 
3 239 8398 448 
3 368 8883 418 
3 655 656 654 
3 889 891 890 
3 1387 10044 896 
3 933 934 932 
3 977 10505 975 
3 1305 1359 1304 
3 1389 9216 1348 
3 3524 9400 1370 
3 1537 1539 1538 
3 1625 1676 1624 
3 1633 1666 1665 
3 1922 10506 1920 
3 1948 8297 8296 
3 1968 1969 1960 
3 2089 2090 1969 
3 2087 2117 2088 
3 2447 2448 2446 
3 2833 9817 2545 
3 9006 9007 2939 
3 3856 10126 2983 
3 2993 3441 3440 
3 3896 3897 3112 
3 9449 11200 3500 
3 3677 9671 4587 
3 4601 8165 3819 
3 3892 4309 3893 
3 4434 5506 4437 
3 4450 5014 4458 
3 4453 6407 4455 
3 4596 7424 7423 
3 5579 6013 4599 
3 5047 5058 5005 
3 9137 9586 5038 
3 6934 6935 5295 
3 5315 9793 7124 
3 6582 8052 5621 
3 5853 10593 10438 
3 5962 6004 5964 
3 5988 6046 6045 
3 9406 9846 6096 
3 6367 10226 6321 
3 6405 7097 7096 
3 6540 8818 6596 
3 10720 10802 6604 
3 7101 7103 7102 
3 7103 7105 7104 
3 7284 10343 9854 
3 8052 10142 9634 
3 8133 10384 9796 
3 8251 10371 10075 
3 520 9074 46 
3 7880 9222 296 
3 507 9085 365 
3 1299 8083 1353 
3 3687 9713 9712 
3 3720 10144 8567 
3 4054 10318 9900 
3 4235 10892 9833 
3 4237 7935 4927 
3 5315 7124 6328 
3 8425 9543 8424 
3 54 9075 401 
3 148 8577 460 
3 639 641 640 
3 641 643 642 
3 643 645 644 
3 925 926 924 
3 928 930 929 
3 941 942 940 
3 940 8827 3517 
3 3367 8662 1048 
3 2068 8803 1124 
3 1982 9010 2140 
3 2224 9330 2195 
3 2552 10047 5922 
3 2556 8704 3245 
3 2837 3247 2761 
3 3192 9853 8322 
3 9302 10143 3265 
3 7309 10708 3398 
3 3499 10276 10166 
3 3793 4947 4240 
3 4724 9124 3823 
3 4064 8489 4094 
3 8923 8975 4228 
3 5295 10593 4353 
3 4690 4692 4691 
3 6605 6606 4802 
3 5906 10331 4922 
3 8051 9702 4976 
3 5004 5047 5005 
3 5685 9842 5683 
3 7106 10922 5880 
3 6155 6156 6154 
3 8533 9446 8532 
3 552 8749 213 
3 939 8693 1200 
3 1057 10207 3367 
3 3398 5929 1216 
3 1297 9253 1351 
3 2649 9889 1887 
3 2247 8243 2226 
3 2456 8763 2372 
3 3085 3618 2696 
3 2804 10093 3729 
3 3054 9625 4013 
3 3061 10266 3063 
3 3084 9860 8763 
3 3111 10507 6634 
3 3136 8616 3873 
3 3201 9547 4415 
3 9273 9686 3314 
3 8980 10540 3642 
3 9656 10126 3856 
3 4039 5054 4040 
3 4149 4981 4151 
3 4584 5131 4585 
3 4673 5262 4671 
3 5227 5228 4813 
3 5856 9183 4904 
3 5013 8378 4919 
3 5037 9063 6485 
3 5251 6249 5252 
3 5384 9412 5577 
3 5845 10205 8770 
3 6441 6442 5895 
3 6442 10766 10201 
3 6540 9529 8818 
3 8202 11344 6693 
3 9885 9886 9262 
3 40 8854 39 
3 137 8524 136 
3 947 8829 1010 
3 1223 1266 1224 
3 1266 1277 1267 
3 1277 1297 1278 
3 7514 10889 1352 
3 1352 10945 7514 
3 9577 10094 1627 
3 1856 9711 4991 
3 5839 9425 1857 
3 2025 10094 8892 
3 2374 2592 2591 
3 2408 10264 8271 
3 2423 2522 2424 
3 3169 8716 2731 
3 3168 3965 3964 
3 3515 4829 4828 
3 3584 3586 3585 
3 3586 3978 3977 
3 3630 9868 8331 
3 4057 9175 5070 
3 4887 9558 4217 
3 8716 8717 4224 
3 4928 9429 6432 
3 4958 6427 4959 
3 5082 9856 9149 
3 5382 5383 5381 
3 5747 10611 5401 
3 8006 8266 5484 
3 5746 10345 6561 
3 9928 9929 6454 
3 6488 9711 6487 
3 7297 7635 7296 
3 7656 7993 7667 
3 8523 10049 8522 
3 9428 10147 9427 
3 1650 9239 1856 
3 2146 8898 1978 
3 5922 8704 2554 
3 3030 3822 2773 
3 2971 10079 2853 
3 3927 4332 4331 
3 7286 7300 3937 
3 3978 4494 4493 
3 9523 9872 5242 
3 6789 8421 5452 
3 6640 10747 10549 
3 9229 9640 8592 
3 8875 9892 8773 
3 59 8732 58 
3 817 8756 1439 
3 870 4411 876 
3 905 8184 887 
3 950 8860 974 
3 957 958 956 
3 1329 9252 1367 
3 1568 9670 1547 
3 1615 9339 1549 
3 9948 10345 1691 
3 1980 2148 2147 
3 2566 2567 2565 
3 2937 2940 2664 
3 3181 3183 3182 
3 5373 7179 3352 
3 9435 9840 3385 
3 4852 4854 3542 
3 3919 4379 4378 
3 5020 9443 4036 
3 4580 5610 5609 
3 5610 11192 9662 
3 9838 9979 5656 
3 5692 8941 5694 
3 5746 6561 5747 
3 6768 10005 10004 
3 7175 10899 7172 
3 1755 8497 1759 
3 2636 10013 9356 
3 2854 9031 2852 
3 8527 10013 2955 
3 3350 10927 8184 
3 3425 8419 3993 
3 3492 3494 3493 
3 3953 7848 3949 
3 6577 10341 4470 
3 8692 9907 5024 
3 5609 9662 7998 
3 5944 10544 8371 
3 7455 7456 5980 
3 6548 9840 6549 
3 9724 9729 6562 
3 6853 6854 6852 
3 7655 10347 7679 
3 8841 9805 9639 
3 38 8698 37 
3 140 8700 467 
3 314 9782 9114 
3 763 766 765 
3 777 779 778 
3 784 8459 780 
3 781 783 782 
3 783 9351 8541 
3 785 9527 787 
3 787 3638 789 
3 790 8461 788 
3 797 9211 792 
3 979 981 980 
3 986 988 987 
3 994 9450 990 
3 1044 8889 1023 
3 5606 5608 1066 
3 1326 9721 3790 
3 1391 1430 1429 
3 3932 8694 1429 
3 3611 9670 1568 
3 2231 9218 1596 
3 1603 10407 1601 
3 1753 1754 1752 
3 1889 1890 1851 
3 2039 8106 1902 
3 1948 8499 8316 
3 2171 10053 2101 
3 2183 9754 7899 
3 2471 9453 2470 
3 2575 9327 2738 
3 9246 9454 2577 
3 2638 9635 9437 
3 8872 10417 2647 
3 10330 10651 2769 
3 2791 8873 3544 
3 2825 2826 2824 
3 2953 9437 3769 
3 3157 8949 5023 
3 3206 10352 9155 
3 3212 4035 3563 
3 4020 9276 3212 
3 9686 9797 3314 
3 8565 9986 3413 
3 4004 9570 3490 
3 3609 3610 3498 
3 9710 9914 3532 
3 3679 9597 3672 
3 3680 8952 5729 
3 3682 10112 7771 
3 6347 6603 3932 
3 9214 9995 4037 
3 4110 5140 4109 
3 4890 5039 4206 
3 4323 4324 4322 
3 8506 9603 4481 
3 4592 4593 4591 
3 4843 9698 4844 
3 5040 5703 5039 
3 7748 9275 5060 
3 5315 6328 5585 
3 5423 7266 7265 
3 5581 9603 8289 
3 5674 8300 5673 
3 8720 9595 5729 
3 5818 9679 9653 
3 5821 6101 6100 
3 9641 9732 5829 
3 5844 6768 5843 
3 6067 6068 5848 
3 6464 10022 5952 
3 6353 9600 7167 
3 6521 9596 7871 
3 9678 10151 6543 
3 6634 10524 6635 
3 7154 10751 9382 
3 7648 10178 7665 
3 7748 9591 8430 
3 7931 10725 10222 
3 8055 9374 8056 
3 8563 9731 8305 
3 8305 9573 9167 
3 8541 9528 9527 
3 8873 9679 9535 
3 92 9099 91 
3 149 8577 148 
3 345 8385 344 
3 354 9102 353 
3 367 9105 366 
3 752 754 749 
3 768 770 769 
3 2395 9181 774 
3 1017 4499 1013 
3 1037 8125 1035 
3 8315 9637 1042 
3 1058 9593 1211 
3 1226 1263 1068 
3 1075 1077 1076 
3 3558 10374 1106 
3 1123 9814 9187 
3 9742 9845 1205 
3 1281 1303 1263 
3 1301 9224 1281 
3 1377 10020 1349 
3 3755 9232 1550 
3 5780 9609 1816 
3 1838 8866 4510 
3 1975 8589 8588 
3 8535 9917 2092 
3 9835 10115 2092 
3 2188 2189 2187 
3 2750 9330 2224 
3 2432 10269 2407 
3 2657 2659 2658 
3 2786 8167 2788 
3 3189 8927 2787 
3 2788 3191 3190 
3 5061 9549 3088 
3 3154 3304 3155 
3 3307 8970 4127 
3 3355 4382 3354 
3 3474 9398 3523 
3 3492 9570 4241 
3 10909 10974 3573 
3 4419 4429 4011 
3 8194 9559 4015 
3 4923 9703 4024 
3 4111 9368 5130 
3 4403 9642 8375 
3 5435 5437 4406 
3 4443 9937 4441 
3 9306 9804 4459 
3 4499 10415 9489 
3 4559 6604 6541 
3 5313 5315 4593 
3 4607 10770 4609 
3 4690 9918 5217 
3 4706 9215 5432 
3 5680 9307 4876 
3 6187 6188 5127 
3 5393 5394 5272 
3 5411 6391 5416 
3 5413 5704 5415 
3 5587 7538 7537 
3 5646 9242 9241 
3 5652 10520 5903 
3 5710 11246 11091 
3 9463 10100 5713 
3 5727 9548 9419 
3 5731 9741 8535 
3 8861 9914 5731 
3 5771 10043 9306 
3 5792 9741 6545 
3 6612 10869 5947 
3 9279 9969 6021 
3 6384 7271 6385 
3 6386 10572 7962 
3 6545 9914 9710 
3 6547 9550 9549 
3 6989 9672 9661 
3 7732 9740 7156 
3 11113 11258 7443 
3 7641 7643 7642 
3 7646 7647 7645 
3 7708 9634 7907 
3 8635 9911 7973 
3 8030 9845 8027 
3 8968 10610 8969 
3 747 9893 745 
3 756 2394 759 
3 8413 11086 794 
3 1063 7946 1061 
3 3644 9223 1189 
3 1196 8525 3644 
3 3381 8606 1212 
3 1454 9578 2138 
3 1629 10377 1578 
3 2344 10656 10655 
3 2608 8352 2607 
3 8966 9032 2891 
3 2895 2960 2959 
3 3683 9595 4110 
3 3890 3891 3734 
3 7901 9591 4043 
3 4148 7738 4146 
3 4199 4200 4197 
3 4296 10006 4794 
3 4677 5261 4675 
3 4918 9322 5733 
3 7969 10297 5044 
3 5123 6094 6043 
3 5579 11034 6412 
3 8914 9917 5792 
3 5813 9739 5812 
3 6219 7628 7627 
3 9157 9158 6507 
3 6641 10933 7358 
3 6719 6721 6720 
3 8798 9834 8801 
3 9674 9774 8964 
3 158 8578 157 
3 257 8579 256 
3 627 9472 629 
3 655 10069 657 
3 670 9747 8540 
3 684 10908 10670 
3 707 9920 704 
3 858 9313 856 
3 1040 3382 1037 
3 1073 10665 1220 
3 1134 9120 1132 
3 3726 9474 1151 
3 1206 9469 3418 
3 1220 3400 1265 
3 1265 9235 1280 
3 1376 1408 1375 
3 1379 10926 9225 
3 1448 10173 1479 
3 1516 9128 1542 
3 1579 9360 1541 
3 1616 1646 1645 
3 2939 9315 1644 
3 9392 10194 1667 
3 1671 10442 1668 
3 1694 9749 3414 
3 1713 10074 1711 
3 1715 10115 1713 
3 1840 1963 1962 
3 1881 1911 1910 
3 1927 1933 1928 
3 2015 2091 1940 
3 2005 9972 1954 
3 1959 9908 1968 
3 7590 9009 1963 
3 2090 2508 1969 
3 2102 3622 2023 
3 7852 9010 2048 
3 2087 2088 2086 
3 2173 2174 2118 
3 2137 9340 2134 
3 2226 8243 2750 
3 2251 9879 3426 
3 2266 2267 2265 
3 2280 9145 2381 
3 2282 2283 2281 
3 9867 10462 2305 
3 2450 9379 2536 
3 2500 9759 2455 
3 2480 3092 2526 
3 7421 10056 2528 
3 2601 9909 2599 
3 2672 10075 5939 
3 2681 4987 4986 
3 2709 9580 2706 
3 2714 9589 2893 
3 3305 3306 2763 
3 2763 9963 9962 
3 2771 3548 3278 
3 9433 9879 2938 
3 9007 9760 2939 
3 2939 9760 9315 
3 2999 3691 3341 
3 3042 3410 3409 
3 3059 10230 4464 
3 3075 3077 3076 
3 3776 9501 3095 
3 7905 10016 3124 
3 3129 9880 3130 
3 3142 9587 3143 
3 3147 10143 3149 
3 3380 9650 3211 
3 3228 9503 3230 
3 3231 4008 3229 
3 3235 4007 3233 
3 3234 4055 3236 
3 3346 9848 3248 
3 3294 9810 3295 
3 3302 9694 3326 
3 3898 8149 3331 
3 3345 8104 4879 
3 3353 5093 5092 
3 3358 9697 3390 
3 4960 9763 3371 
3 3416 9929 9928 
3 3571 11157 11102 
3 3605 8999 3593 
3 3691 5159 4207 
3 7183 11096 3693 
3 3709 9230 4543 
3 3829 4911 3787 
3 4191 9444 3879 
3 3897 10672 4618 
3 3913 4291 3914 
3 9568 10514 3931 
3 3945 3947 3946 
3 3948 11076 3950 
3 8403 10498 4007 
3 8418 10583 4008 
3 4013 9625 5002 
3 10068 10240 4045 
3 4079 10748 10539 
3 4080 9354 4082 
3 7573 10575 4101 
3 6699 6700 4122 
3 4165 9816 6173 
3 4235 9833 7935 
3 5008 5009 4245 
3 4272 6703 5176 
3 4300 4779 4341 
3 4303 10128 4304 
3 4835 7849 4308 
3 8876 9539 4317 
3 4339 4340 4329 
3 4372 4373 4371 
3 4375 10451 4372 
3 4810 5239 4375 
3 7866 10905 4396 
3 4453 10069 6516 
3 8026 9556 4471 
3 4478 8853 4477 
3 4500 9025 8341 
3 10176 10452 4504 
3 4508 5316 4507 
3 6590 10634 4586 
3 4612 9500 5931 
3 5223 5996 4619 
3 4621 4623 4622 
3 4624 4625 4623 
3 4632 4633 4631 
3 4650 4651 4649 
3 4676 4677 4675 
3 4686 4687 4685 
3 4779 5250 5078 
3 6373 6374 4880 
3 4946 9704 5726 
3 4957 9062 7070 
3 5011 8573 5930 
3 5046 10363 9237 
3 5050 10195 7511 
3 5056 9538 5057 
3 5062 10709 9695 
3 5135 10721 8573 
3 5179 6177 5178 
3 6300 6801 5220 
3 5227 6307 5228 
3 5291 6866 5248 
3 5363 6808 6754 
3 6544 9385 5541 
3 10564 10740 5544 
3 5561 9943 8651 
3 5571 10296 10249 
3 5588 9777 5767 
3 6413 9391 5638 
3 5662 10098 10068 
3 5664 9507 8272 
3 6145 9792 5690 
3 5743 10838 5740 
3 7351 10400 5744 
3 5757 9801 6025 
3 5775 10449 5973 
3 8945 10084 5777 
3 5786 10157 6213 
3 5799 10085 10015 
3 5882 6298 5838 
3 6632 9765 5901 
3 5914 10533 10392 
3 5918 6773 5917 
3 5932 9766 9706 
3 9237 10366 5938 
3 5940 6659 6576 
3 6001 10660 5975 
3 10102 10684 6004 
3 10856 11008 6022 
3 6029 10692 10542 
3 6112 10999 10643 
3 6262 6301 6264 
3 6301 6791 6302 
3 6314 10473 10103 
3 6552 9885 9207 
3 9418 9773 6563 
3 6564 9861 9860 
3 6572 10645 10491 
3 9048 10765 6575 
3 10160 10341 6577 
3 7386 10477 7384 
3 7409 10551 7410 
3 7574 7930 7575 
3 9553 10208 7782 
3 7845 10994 10343 
3 8034 11267 8035 
3 10296 10392 8162 
3 9903 10317 8270 
3 8471 10486 10446 
3 8479 10483 9352 
3 8511 10375 8513 
3 10558 10598 8605 
3 9039 9663 9040 
3 9962 10804 9589 
3 291 9259 466 
3 357 8882 356 
3 9549 9550 1031 
3 1370 9400 1343 
3 1391 8560 1430 
3 1892 10475 3699 
3 3623 9219 2078 
3 8478 10159 3089 
3 3986 4990 4988 
3 10189 10415 4499 
3 4847 5357 4846 
3 8052 9811 4947 
3 6708 11112 11108 
3 7342 11460 7341 
3 7593 7594 7432 
3 7439 7441 7440 
3 8760 10040 1639 
3 2781 8907 2582 
3 2795 8873 2791 
3 2800 9791 2802 
3 8394 9841 3627 
3 3847 9997 4171 
3 4995 9726 7235 
3 5639 10051 7120 
3 5694 8941 5800 
3 10256 10459 6543 
3 7756 7758 7757 
3 71 9151 419 
3 153 8495 402 
3 190 8782 550 
3 245 8274 554 
3 252 8750 403 
3 267 8791 514 
3 289 8793 515 
3 587 588 586 
3 880 8201 8200 
3 1243 3569 1245 
3 1516 1541 1515 
3 1657 3562 1610 
3 1630 1842 1631 
3 1924 9846 1927 
3 2166 2167 2103 
3 2448 2449 2446 
3 2584 2587 2586 
3 2771 10765 3548 
3 3140 3915 3291 
3 3411 5050 3409 
3 9469 9865 3418 
3 4537 10193 8464 
3 5032 10060 8152 
3 6180 11325 9947 
3 6454 6456 6455 
3 6632 9778 9765 
3 8848 10163 7143 
3 581 582 580 
3 1140 9574 4445 
3 1595 10236 1597 
3 1705 1706 1704 
3 1707 1708 1706 
3 2122 9482 9018 
3 2595 2597 2368 
3 3010 9035 3530 
3 7753 10196 7690 
3 10060 10077 8152 
3 417 8791 268 
3 369 8883 368 
3 3772 3773 3024 
3 6433 8089 4398 
3 6093 8121 8120 
3 570 6863 6270 
3 1447 10984 9386 
3 9012 9013 4444 
3 4555 4557 4553 
3 5440 8741 8046 
3 10032 10033 6194 
3 6395 7532 7140 
3 6617 10462 9867 
3 10735 11005 8393 
3 942 8827 940 
3 1184 9189 1177 
3 8900 8901 2142 
3 2554 8704 2556 
3 3092 9500 3094 
3 3872 9998 3274 
3 4060 10186 7952 
3 5512 5749 5513 
3 5525 7045 7043 
3 8193 9382 5583 
3 9170 9723 5732 
3 69 9111 506 
3 609 9116 3853 
3 943 3522 945 
3 979 7996 981 
3 999 9599 1005 
3 7487 11174 3055 
3 4457 8933 3450 
3 5156 9988 4107 
3 5177 10119 4176 
3 7160 8062 5172 
3 9535 9679 5802 
3 1074 10428 1051 
3 4424 8958 1064 
3 9239 9711 1856 
3 9757 9758 2321 
3 2373 2613 2612 
3 3721 9508 4544 
3 8567 10501 3722 
3 4141 6741 6740 
3 4343 9953 5036 
3 6305 6477 4785 
3 6298 6299 5838 
3 5962 10117 6004 
3 6070 8326 6072 
3 6868 9248 6290 
3 6535 8110 6536 
3 6589 10098 9363 
3 1205 9845 9607 
3 1744 1745 1743 
3 1744 9241 2065 
3 1768 1770 1769 
3 1882 10737 1942 
3 2853 10079 2855 
3 3570 9688 9624 
3 6713 9265 3920 
3 4307 10128 5236 
3 5255 9249 7248 
3 5373 7224 7179 
3 6883 6884 6255 
3 7641 7644 7643 
3 8538 10333 8757 
3 8582 9941 9213 
3 2213 9863 4405 
3 2218 9462 2223 
3 4590 10769 4592 
3 5229 6293 6289 
3 6342 7610 7609 
3 6450 10156 6449 
3 667 9473 1500 
3 8672 8673 1447 
3 2434 10087 2702 
3 2614 9534 2758 
3 2694 7709 3026 
3 3134 9880 8616 
3 3211 9650 4079 
3 3321 9762 6693 
3 3585 10814 3583 
3 4472 9514 4469 
3 4582 9515 4539 
3 4687 5260 4685 
3 5285 7938 6772 
3 5799 9974 9069 
3 5909 10504 6633 
3 6006 10619 5957 
3 6521 9597 9596 
3 7385 7386 7384 
3 9786 9815 8158 
3 8679 9856 8680 
3 9565 9723 9170 
3 356 8882 8733 
3 3414 9764 9046 
3 3884 4778 4193 
3 4906 9183 5393 
3 6552 9886 9885 
3 46 9074 45 
3 53 9096 52 
3 68 9080 67 
3 74 9098 73 
3 343 9092 342 
3 350 9101 349 
3 359 9103 358 
3 365 9085 364 
3 371 9106 370 
3 1411 3524 1370 
3 1541 9360 3839 
3 1549 9339 3458 
3 1654 10341 10160 
3 2193 9269 2461 
3 2583 2584 2361 
3 2668 9453 3629 
3 3355 9278 4383 
3 3385 9840 9590 
3 4036 9443 3563 
3 3895 10263 4323 
3 5195 9775 7740 
3 5683 9842 9033 
3 6103 9990 6105 
3 9001 10686 6602 
3 9607 9845 8030 
3 9741 9917 8535 
3 139 8721 138 
3 5512 7909 5749 
3 5537 9393 6064 
3 5832 9928 5905 
3 7801 9979 9838 
3 1556 9128 1516 
3 1648 9217 1897 
3 2429 9821 2166 
3 2214 9136 2212 
3 2238 2239 2237 
3 3876 9960 3148 
3 4930 5071 3988 
3 4137 7318 7317 
3 4812 4813 4603 
3 7110 7202 5406 
3 8547 11251 6188 
3 8651 9943 9751 
3 669 9747 670 
3 1343 9400 1341 
3 1452 9692 1483 
3 7989 9759 2500 
3 4701 10788 10761 
3 5569 10296 5571 
3 9061 10521 6006 
3 6777 7937 6785 
3 7657 10347 7655 
3 7696 10870 8847 
3 8628 10286 8625 
3 10148 10801 9897 
3 135 8689 134 
3 2613 2756 2612 
3 2638 9437 2953 
3 3356 9108 8586 
3 8818 9529 3501 
3 8718 9648 4224 
3 4335 10202 4334 
3 5378 5380 5379 
3 6171 9434 7374 
3 7340 9968 7337 
3 147 8777 146 
3 154 8495 153 
3 156 8778 155 
3 163 8745 162 
3 165 8779 164 
3 167 8747 166 
3 227 8785 226 
3 244 8539 243 
3 246 8274 245 
3 251 8787 250 
3 253 8750 252 
3 255 8788 254 
3 262 8751 261 
3 264 8790 263 
3 266 8752 265 
3 2381 9145 6199 
3 8127 9737 3980 
3 5614 9049 9048 
3 6384 7272 7271 
3 7613 10453 7610 
3 1293 9802 1292 
3 8910 9892 4226 
3 5871 9716 6583 
3 10714 10882 7042 
3 10185 10607 8449 
3 8587 9937 9420 
3 1507 8416 1582 
3 1818 10433 1815 
3 3971 9322 4918 
3 4032 8772 6467 
3 5911 8211 4301 
3 6851 6852 5474 
3 6174 9636 6050 
3 6274 10248 6273 
3 9630 10028 6844 
3 1850 8922 4745 
3 8925 10268 2172 
3 4405 9462 2215 
3 3438 9851 9172 
3 9792 11155 3452 
3 7361 7454 3622 
3 4037 9995 8808 
3 5288 10537 4329 
3 6167 9988 5156 
3 6764 6812 5288 
3 6080 11067 6078 
3 6597 10459 10256 
3 6861 7529 7528 
3 7034 7188 7187 
3 51 8877 50 
3 10124 10665 1230 
3 1292 9802 3545 
3 1816 9609 1814 
3 8474 9300 2410 
3 9299 10270 2753 
3 2917 9564 2915 
3 4398 8089 3163 
3 4403 8375 8374 
3 4851 9464 4527 
3 6396 9738 5026 
3 6759 9844 5277 
3 5662 10068 9578 
3 8589 10091 8588 
3 1256 8847 1259 
3 1711 10074 3526 
3 7992 10132 1837 
3 8105 9990 3025 
3 9990 10602 3025 
3 3183 9438 4401 
3 8552 9942 5143 
3 7730 10675 7046 
3 10972 11142 7439 
3 635 9691 3469 
3 1246 9261 1690 
3 1257 8847 1256 
3 2396 8994 1260 
3 1498 8996 1355 
3 1393 9542 8329 
3 3087 9484 1774 
3 9623 10134 1778 
3 2033 10935 10803 
3 2527 5352 2345 
3 8257 9657 2419 
3 2461 9269 2937 
3 2639 10013 2636 
3 2672 5939 5938 
3 2907 9936 2908 
3 2956 9729 9724 
3 3141 10080 3140 
3 3930 9999 3442 
3 3507 10674 3509 
3 9035 9036 3530 
3 8492 11073 3596 
3 3644 8525 8482 
3 3868 9936 5907 
3 5217 10054 4692 
3 9314 10238 5551 
3 5591 9999 7064 
3 5798 9695 7361 
3 10600 10625 5977 
3 7828 10340 6390 
3 6415 7126 6414 
3 6431 9684 7468 
3 6456 10048 6566 
3 8680 9933 9655 
3 4481 9211 797 
3 992 9450 4211 
3 9935 10035 1560 
3 2185 9754 2183 
3 4140 9665 3734 
3 4068 9523 4070 
3 6130 9665 4140 
3 6333 9698 4843 
3 10290 11041 6657 
3 7663 10178 7646 
3 1030 9549 1031 
3 1034 9780 1032 
3 1082 9734 1771 
3 1159 10339 1166 
3 1320 8095 1322 
3 1814 9609 1817 
3 2657 9912 2661 
3 4019 9226 2785 
3 4043 9837 3164 
3 4382 9859 3354 
3 4429 10254 4011 
3 4252 7688 7687 
3 5713 10100 5967 
3 10031 10216 5867 
3 7789 10881 7116 
3 9171 9798 8201 
3 9875 10039 9817 
3 794 9383 620 
3 1529 8684 1531 
3 3822 10507 2773 
3 4910 9988 6580 
3 5342 10633 7943 
3 10225 10592 7678 
3 8884 11454 11449 
3 440 9331 385 
3 787 9527 3638 
3 1213 9416 5774 
3 1376 10281 1418 
3 1961 9908 1959 
3 2088 10303 2086 
3 6527 7751 2429 
3 9130 9924 2449 
3 2552 5922 2554 
3 3209 9666 2826 
3 2909 7204 7203 
3 3212 9276 4035 
3 5614 5701 4430 
3 5197 5199 4438 
3 9161 10448 5658 
3 7659 7670 7657 
3 9707 10445 9706 
3 1423 9807 1396 
3 1821 9750 1787 
3 2410 9300 2409 
3 3864 10181 3297 
3 3975 9732 4492 
3 4720 10001 5337 
3 7702 10136 4857 
3 10766 10965 6575 
3 7598 10373 7597 
3 352 9083 351 
3 1484 9935 1482 
3 9363 9475 3219 
3 3940 10104 3939 
3 10787 10924 5542 
3 5761 9788 9147 
3 6562 9729 5822 
3 7848 10393 5837 
3 5878 10289 7817 
3 8373 10595 6621 
3 7889 7891 7888 
3 55 9075 54 
3 64 9079 63 
3 66 9097 65 
3 326 9115 325 
3 361 9084 360 
3 363 9104 362 
3 3501 9216 1389 
3 1430 8560 1461 
3 8902 10525 2056 
3 4014 9791 2800 
3 4219 7458 7457 
3 4462 9652 5511 
3 5015 7568 7567 
3 5111 10084 5113 
3 6365 10394 6366 
3 7858 10428 7366 
3 8180 10579 8177 
3 9669 9687 8921 
3 2678 10680 2985 
3 4222 9668 3118 
3 3178 10050 9716 
3 5214 10261 4184 
3 6271 6272 5286 
3 11105 11156 6650 
3 8449 10548 8444 
3 527 9082 312 
3 3759 10325 3110 
3 9213 9941 3438 
3 5675 9937 4443 
3 6509 10776 10324 
3 8009 9992 9126 
3 558 8792 273 
3 7946 8889 1061 
3 1149 9474 1564 
3 1285 9366 1274 
3 1943 9243 1883 
3 3699 9956 1907 
3 2273 10554 2271 
3 2326 9977 2489 
3 3863 9810 4287 
3 6635 10672 3896 
3 8502 9761 3905 
3 3945 4825 3947 
3 4386 9659 4384 
3 5656 9979 4496 
3 4968 10113 5921 
3 5777 10084 5111 
3 8320 10221 5780 
3 6707 6743 6240 
3 6275 6276 6274 
3 6332 8667 8632 
3 1466 9678 1464 
3 5475 9935 1484 
3 1964 9989 2012 
3 8472 9530 2115 
3 2388 9817 4054 
3 5760 9958 7727 
3 5812 10042 5807 
3 523 9079 64 
3 454 9097 66 
3 953 10614 955 
3 1187 8604 1193 
3 2663 2785 2660 
3 3283 7942 3867 
3 8162 10392 3470 
3 4069 10364 4067 
3 4709 11130 4121 
3 4620 9626 4621 
3 7935 9833 5724 
3 7371 10622 10589 
3 8501 9906 7571 
3 44 8855 43 
3 964 8736 962 
3 1360 9225 3394 
3 1833 10987 1898 
3 1903 10206 7259 
3 2365 9957 2143 
3 2351 10024 2437 
3 3082 9985 3776 
3 3130 9880 3134 
3 3393 10461 8180 
3 3725 10809 10623 
3 5623 9831 9238 
3 10165 10205 5845 
3 5950 10321 7752 
3 6315 10485 6316 
3 7008 9843 7009 
3 7314 9887 7312 
3 10454 10732 7483 
3 10266 10576 9204 
3 1324 9721 1326 
3 5835 5842 4556 
3 9594 10718 8709 
3 1990 8900 1989 
3 2244 10314 8406 
3 2360 9014 2585 
3 4260 9875 2835 
3 5234 9730 6287 
3 5799 10015 9974 
3 5957 10619 10573 
3 401 9096 53 
3 506 9080 68 
3 461 8778 156 
3 548 8745 163 
3 462 8779 165 
3 513 8747 167 
3 480 11167 10378 
3 6539 10234 2504 
3 2919 10211 2917 
3 6634 6635 3896 
3 8549 10890 4701 
3 4936 10923 10865 
3 6561 10345 9948 
3 8960 9915 8670 
3 4413 9224 1301 
3 1765 10273 1748 
3 1989 8900 2142 
3 2138 9578 4045 
3 2253 9879 2251 
3 2594 10631 2261 
3 2755 10179 3057 
3 3633 9987 8276 
3 3748 9536 3746 
3 4243 10363 5046 
3 5178 9789 4274 
3 8014 10019 4427 
3 4944 10746 6111 
3 5529 10308 5528 
3 9776 9777 5588 
3 8952 8953 5729 
3 5779 9764 9749 
3 9177 10165 5845 
3 5982 7471 7470 
3 5995 10949 10624 
3 6621 10536 6620 
3 10352 10466 9155 
3 1429 8694 1390 
3 4710 10635 4098 
3 4176 10119 4178 
3 4477 8853 5064 
3 6776 9945 5237 
3 5604 9441 5892 
3 8711 9835 5753 
3 6708 11263 6706 
3 8430 9591 7901 
3 896 10044 894 
3 996 10267 993 
3 9425 10302 1588 
3 2976 10242 3268 
3 4459 9804 4118 
3 8769 9898 5058 
3 5987 10716 10447 
3 7519 10322 9865 
3 9389 9552 7782 
3 2956 9724 2801 
3 5259 8038 8037 
3 7756 7757 5536 
3 6762 6813 5828 
3 9538 9539 6809 
3 1685 10676 9391 
3 3044 8169 2114 
3 9952 10494 4727 
3 5477 10359 9707 
3 10229 10232 6037 
3 6698 11248 10874 
3 7867 10063 8229 
3 603 8456 605 
3 1891 8922 1851 
3 2223 9462 9173 
3 4054 9900 2228 
3 5328 10746 4944 
3 6709 9520 5404 
3 6737 9530 8472 
3 10560 10681 9054 
3 1070 10744 3398 
3 1851 8922 1850 
3 2229 10185 1973 
3 2092 9917 9835 
3 3173 10118 4247 
3 9829 10231 3226 
3 3980 9737 3322 
3 5578 9975 3597 
3 9296 10271 4029 
3 5403 7721 7720 
3 6464 10356 10338 
3 9126 9992 7151 
3 10358 10657 8585 
3 72 9151 71 
3 657 10069 804 
3 1388 10169 923 
3 1690 10055 1244 
3 1288 10193 1249 
3 1778 10134 1776 
3 1796 10132 3700 
3 4444 9135 1945 
3 2227 8815 2248 
3 2269 9493 2267 
3 8604 10275 3219 
3 3416 9928 9270 
3 5212 10353 4576 
3 6197 9789 5178 
3 6801 10825 5220 
3 9628 9629 5267 
3 7885 9465 5520 
3 5571 10085 5572 
3 5575 10358 8397 
3 5748 10431 10121 
3 5753 9835 8914 
3 5930 10471 9627 
3 8059 10123 8954 
3 8248 9777 9776 
3 8711 10115 9835 
3 9201 10287 9483 
3 653 9572 655 
3 9920 10070 705 
3 1157 10558 1161 
3 8994 9452 1258 
3 1294 9314 3505 
3 3089 10159 1392 
3 1522 9882 8241 
3 8130 10573 1563 
3 1635 10341 1636 
3 1658 10550 8483 
3 2009 9972 8868 
3 2440 11036 2334 
3 2649 10107 9889 
3 2714 9962 9589 
3 2985 10403 2987 
3 9749 9764 3414 
3 3520 10702 8978 
3 3567 10165 10031 
3 9207 9885 3685 
3 3697 10562 10245 
3 3969 10144 3720 
3 4051 10100 9463 
3 4085 10408 9072 
3 8740 8741 4213 
3 4781 10006 4296 
3 5942 10059 4446 
3 5901 9515 4582 
3 4837 8273 4838 
3 7690 8378 5013 
3 5830 9767 5054 
3 5297 9919 6940 
3 5522 8708 8135 
3 9610 10022 5602 
3 5736 9632 9513 
3 5767 10082 5775 
3 5793 10954 8707 
3 7683 10012 5813 
3 9887 9888 5814 
3 9272 10031 5867 
3 5900 10491 6631 
3 6011 10675 7730 
3 9063 9654 6485 
3 7936 9862 6564 
3 9363 10275 6587 
3 6621 10595 10536 
3 6767 9630 6844 
3 7482 10605 7483 
3 9951 10501 7834 
3 7924 10224 7923 
3 9176 9939 7981 
3 9684 10109 8082 
3 8159 10388 8160 
3 8373 10608 10595 
3 9868 10521 8582 
3 10804 11087 9588 
3 2315 11066 10912 
3 5783 9993 5782 
3 9956 10465 5866 
3 11078 11081 6694 
3 1151 9474 1149 
3 1508 10535 1469 
3 1497 10673 9721 
3 1804 8947 1806 
3 3040 9377 2320 
3 3207 10274 8564 
3 3252 10246 4126 
3 3811 9512 4355 
3 3878 10129 4068 
3 3898 10369 8149 
3 5417 9697 3994 
3 6356 6357 4207 
3 4320 10116 5512 
3 6671 10528 4581 
3 5583 9382 5582 
3 5802 9679 5818 
3 8344 8612 8611 
3 526 11227 9113 
3 1623 10302 5138 
3 2515 10419 3590 
3 7443 7445 7444 
3 9112 11249 7491 
3 3348 9548 8095 
3 5610 9662 5609 
3 8689 8690 134 
3 1132 9120 1135 
3 5092 7589 1557 
3 9668 9981 3116 
3 8035 8036 5188 
3 10721 10828 6007 
3 9394 10600 6008 
3 1673 10160 1953 
3 4329 10537 4327 
3 6294 10006 4781 
3 8998 8999 5699 
3 5755 6763 5824 
3 10584 10745 5955 
3 6596 10276 7534 
3 7677 10225 7678 
3 8196 11206 470 
3 973 8736 964 
3 1048 8662 1029 
3 1847 10910 1974 
3 2460 9903 2192 
3 3855 10095 4187 
3 7165 10899 10172 
3 990 9450 992 
3 1223 9795 3449 
3 1232 9314 1294 
3 8069 10955 3775 
3 4574 10411 5876 
3 5402 7228 6229 
3 5850 10668 6622 
3 5869 10328 8207 
3 6050 9636 6052 
3 10623 10809 6055 
3 6682 9797 6680 
3 7315 11033 10839 
3 1071 10207 1057 
3 1843 11097 10843 
3 4535 10021 2404 
3 10555 10616 3386 
3 7800 10261 5214 
3 6624 9794 5963 
3 8001 10091 9910 
3 622 8413 794 
3 758 10255 3362 
3 1303 9608 1548 
3 9107 10676 1685 
3 1805 9546 3612 
3 3295 9810 3863 
3 5164 9883 6186 
3 5259 10736 8039 
3 7980 10873 5516 
3 8555 10564 5544 
3 6643 10003 5712 
3 6144 9568 5855 
3 6165 8326 6070 
3 2437 10024 7487 
3 3209 10217 9666 
3 3455 10582 9309 
3 8826 10165 3567 
3 3567 10031 9272 
3 3956 10058 3958 
3 5054 9767 4040 
3 5424 8081 4932 
3 5116 10467 5115 
3 6761 6807 5275 
3 8995 10098 5662 
3 7974 10262 8849 
3 9585 9586 9137 
3 704 9920 705 
3 9352 10483 1227 
3 2043 9482 2122 
3 3691 10410 6614 
3 4603 10487 4371 
3 9981 10400 4536 
3 5591 7064 7063 
3 5774 10114 8665 
3 8624 10286 8630 
3 9655 10110 9198 
3 25 8687 8686 
3 240 8398 239 
3 1785 9750 5509 
3 2031 10803 3340 
3 2837 9566 3247 
3 4091 9969 9279 
3 9969 10610 6021 
3 6175 10239 6640 
3 10267 10427 7277 
3 1046 9469 1206 
3 1571 9803 8814 
3 2200 9610 5602 
3 5024 9907 6548 
3 10311 10467 5116 
3 5778 10494 9952 
3 6214 6227 5861 
3 6326 8903 6608 
3 7692 10834 7693 
3 10015 10085 8661 
3 9835 9917 8914 
3 70 9111 69 
3 79 9112 78 
3 804 10069 4453 
3 2647 10417 822 
3 1968 9908 7478 
3 2102 8017 4366 
3 2705 9580 3701 
3 2961 10469 3225 
3 10122 10217 3209 
3 5854 9829 3640 
3 3912 10103 3929 
3 8630 10367 6573 
3 7398 7966 7965 
3 551 8783 193 
3 242 8232 241 
3 2743 9940 4848 
3 4017 8003 2783 
3 3134 8616 3136 
3 8584 10657 3600 
3 4538 10064 4416 
3 7648 7650 7649 
3 141 8700 140 
3 819 8756 817 
3 1193 8604 3219 
3 1945 9135 1707 
3 2687 10667 2482 
3 5645 10304 3069 
3 3104 9196 3103 
3 3697 10245 8822 
3 5986 10533 5914 
3 3365 9857 1584 
3 2910 9836 6389 
3 3098 10469 2961 
3 5269 10480 6806 
3 7816 9533 5454 
3 6680 9797 9686 
3 8969 10610 9969 
3 10446 10486 9927 
3 174 8780 173 
3 268 8791 267 
3 273 8792 272 
3 5172 8062 4255 
3 5134 9812 6075 
3 5578 10091 9975 
3 2176 9743 6641 
3 9716 10641 3178 
3 3632 10387 9949 
3 5853 10438 6932 
3 563 9259 292 
3 2114 8169 1965 
3 5920 9982 4027 
3 4339 9511 4340 
3 6836 6837 6108 
3 10599 10637 8064 
3 12 9375 559 
3 821 9460 819 
3 3600 10260 1114 
3 2904 9567 2906 
3 3653 9671 3655 
3 4424 8959 8958 
3 5762 10108 6190 
3 6005 10472 5964 
3 6038 10914 9133 
3 8316 8499 6479 
3 6681 11285 6683 
3 6772 6897 6890 
3 537 8943 184 
3 2175 9955 1678 
3 2513 10797 2511 
3 3200 9940 2743 
3 3191 8168 3193 
3 9982 10274 3207 
3 3743 9896 5804 
3 5987 10447 5851 
3 5854 10231 9829 
3 6174 11288 9636 
3 8374 8375 7569 
3 7954 10409 10221 
3 1176 9622 1170 
3 1392 10159 1384 
3 4427 9807 1423 
3 1566 10594 1642 
3 8865 10186 1867 
3 9865 10322 3606 
3 3730 10231 10222 
3 4303 10531 10128 
3 4621 9626 4624 
3 8112 9772 4986 
3 5117 10510 5118 
3 5687 9013 9012 
3 6395 10163 7532 
3 7670 10347 7657 
3 7755 11124 11082 
3 1289 9479 1356 
3 1583 9921 1572 
3 1912 9008 1910 
3 2048 9010 1982 
3 2983 10126 2677 
3 2706 9580 2705 
3 2789 10063 7730 
3 3149 10143 3835 
3 5049 10060 4498 
3 5113 10084 6450 
3 5162 9934 6689 
3 5755 5823 5754 
3 9680 10494 5778 
3 10447 10455 5851 
3 5938 10366 5940 
3 9513 9632 6482 
3 9857 9858 8235 
3 10036 10037 8948 
3 2458 10357 9493 
3 3413 10529 2820 
3 10076 10077 6554 
3 7691 10597 7692 
3 8389 10953 10775 
3 24 8686 428 
3 1954 9972 2009 
3 1971 10882 2083 
3 2080 9826 6118 
3 2950 10332 3733 
3 6416 10572 6386 
3 549 8780 174 
3 2206 9461 2204 
3 2970 10618 2861 
3 5431 10200 5665 
3 9777 10082 5767 
3 6032 10776 6509 
3 6605 10162 6606 
3 10031 10165 9177 
3 42 8916 41 
3 1500 9473 3393 
3 1857 9425 1651 
3 4507 9922 1917 
3 2118 9983 2088 
3 2372 9340 2137 
3 2279 10715 2277 
3 2393 10015 8661 
3 2834 10651 3106 
3 4055 8192 3236 
3 8199 9890 4203 
3 4469 9514 4945 
3 5204 10135 4666 
3 5088 10690 10418 
3 5091 10034 5090 
3 10886 11028 8596 
3 9589 10804 9588 
3 315 9782 314 
3 2092 10115 1715 
3 4086 10244 10050 
3 7983 10320 5836 
3 7953 10726 7961 
3 437 9782 315 
3 341 8412 340 
3 1654 10160 1673 
3 2147 10264 2408 
3 2215 9462 2218 
3 3395 9236 2605 
3 4099 10219 6342 
3 5158 11082 11056 
3 9513 10065 5510 
3 6029 10542 5946 
3 7003 10580 7039 
3 9673 10027 9247 
3 466 8793 290 
3 1902 9877 1660 
3 1879 10206 1699 
3 1900 8867 1835 
3 5582 9726 4995 
3 5008 10624 5010 
3 6771 7813 5395 
3 9169 10433 10356 
3 503 8398 240 
3 2234 9803 1649 
3 2216 9585 2214 
3 3857 10227 2986 
3 4504 10452 9747 
3 6049 10842 6047 
3 8874 9990 8105 
3 9528 10251 9527 
3 2106 10906 2008 
3 7765 10309 5720 
3 7410 10500 9681 
3 7453 7927 7585 
3 7817 10252 10175 
3 3560 8815 2227 
3 4102 9421 3761 
3 5199 10430 4438 
3 5432 9215 7197 
3 6145 11185 9792 
3 6279 10247 6277 
3 7107 7108 6375 
3 1130 10125 1128 
3 1260 8994 1258 
3 1949 10205 8826 
3 9561 9792 3452 
3 5060 9275 3542 
3 5729 9595 3683 
3 4418 10040 9739 
3 7793 11146 10938 
3 8438 10352 10233 
3 11010 11051 8939 
3 1623 5138 5137 
3 3151 10145 2774 
3 6401 8155 4881 
3 5005 9898 5515 
3 5350 10182 5341 
3 10464 10615 5985 
3 9004 10396 8131 
3 993 10267 3627 
3 1482 9935 1560 
3 1560 10035 1630 
3 8428 10210 2975 
3 3030 10401 3822 
3 9795 11168 3449 
3 5526 10150 8910 
3 7057 9370 7058 
3 7257 11038 7258 
3 10044 10603 894 
3 2445 9924 5088 
3 9030 9613 2978 
3 10179 10230 3057 
3 3094 9500 4612 
3 3800 9406 6113 
3 4739 9512 3811 
3 3982 9818 3813 
3 4753 10292 8138 
3 4869 10310 4971 
3 5975 10555 5944 
3 432 10549 83 
3 1649 9803 1571 
3 1843 10843 1631 
3 3832 9651 8156 
3 11464 11472 479 
3 3514 9415 931 
3 1974 9577 1684 
3 1794 10132 1796 
3 3745 10047 2145 
3 4353 9569 4159 
3 4976 10566 10276 
3 4990 10152 5979 
3 10259 10402 5485 
3 10326 10408 8629 
3 8828 10345 9705 
3 10258 10302 9425 
3 210 8784 538 
3 684 10670 686 
3 944 9948 1691 
3 1221 10207 1071 
3 1248 9261 1246 
3 1587 9240 9239 
3 2391 10024 2351 
3 2763 9962 2712 
3 3634 9531 2965 
3 3057 10230 3059 
3 3127 10016 3150 
3 3326 9694 3329 
3 4656 10293 4658 
3 4751 10108 5762 
3 9811 10464 4951 
3 5860 10397 5862 
3 6544 10441 10046 
3 6566 9970 8107 
3 8283 10608 8373 
3 8518 10637 10599 
3 1684 9577 1627 
3 2776 9901 2540 
3 2756 9809 2612 
3 4362 10425 3926 
3 9989 10916 5068 
3 7566 10572 6416 
3 7401 10903 7251 
3 7514 10915 7513 
3 9833 10892 8264 
3 8859 11255 8857 
3 441 9524 88 
3 3884 10627 4778 
3 9341 10294 4147 
3 6251 10002 5252 
3 819 9460 8756 
3 824 10417 8328 
3 1827 8864 1803 
3 2741 9754 2185 
3 9903 10264 2192 
3 9809 9847 2612 
3 3276 10330 2768 
3 4597 10058 3956 
3 4202 10723 9824 
3 4401 8150 4400 
3 8328 10774 4411 
3 6131 10041 4728 
3 5499 10476 7832 
3 7165 10172 9576 
3 10134 10824 7219 
3 7480 7481 7479 
3 9961 10605 7482 
3 8886 10884 1696 
3 1837 10132 1794 
3 3489 10139 4005 
3 3518 9253 8561 
3 10467 10560 5115 
3 8034 8035 5188 
3 10172 10899 7175 
3 7376 11266 10604 
3 596 9733 1399 
3 762 10391 760 
3 800 10183 3412 
3 820 9938 2647 
3 983 7996 979 
3 3399 10552 982 
3 7908 10344 986 
3 3088 9549 1030 
3 2514 10324 2518 
3 2647 10153 8872 
3 3090 10003 9904 
3 3164 9837 4338 
3 8806 10233 3206 
3 9527 10251 3638 
3 3928 10463 3927 
3 10168 10177 3958 
3 4913 9402 4052 
3 4334 10202 5303 
3 5897 10058 4597 
3 8637 11193 4736 
3 4902 10563 7525 
3 5174 11158 8047 
3 5608 10868 9212 
3 5748 10140 9545 
3 5784 10072 9685 
3 5794 9991 9850 
3 9896 9897 5804 
3 7377 10328 5869 
3 6091 10763 10673 
3 6392 10174 7551 
3 10932 11271 6977 
3 7177 10823 10677 
3 7534 10566 8303 
3 7644 10817 7663 
3 8433 10122 10066 
3 8440 10352 8438 
3 8475 10313 8806 
3 8758 10503 9344 
3 10911 10947 8812 
3 8973 10762 10727 
3 10121 10431 9304 
3 749 10191 747 
3 802 9669 805 
3 1062 10988 4424 
3 1108 10374 1366 
3 9670 9735 1547 
3 1771 9734 9362 
3 1975 8588 1865 
3 2058 10525 2459 
3 2082 9787 7741 
3 4404 9461 2206 
3 5527 9912 2655 
3 2785 9226 2660 
3 2891 10355 10342 
3 2894 10010 2895 
3 10255 10813 3362 
3 10356 10433 3547 
3 3674 10252 3756 
3 4091 9745 3690 
3 3730 10725 7725 
3 8927 10277 4019 
3 4116 9804 5042 
3 4219 10278 7458 
3 5026 9738 4357 
3 4418 10012 7972 
3 5795 10064 4538 
3 4562 9399 4877 
3 5966 10434 7042 
3 8670 9915 7636 
3 7823 10147 9428 
3 7871 10177 9399 
3 8166 9349 8167 
3 9108 9742 8586 
3 8600 10190 8601 
3 9172 9851 8800 
3 10761 10788 8969 
3 10295 10355 9032 
3 10222 10231 9618 
3 1678 9955 1671 
3 9470 9736 2233 
3 2688 9961 2425 
3 3374 9816 4165 
3 3525 9288 3506 
3 3667 10175 3674 
3 4072 11170 4913 
3 4114 9854 9368 
3 9483 10176 4504 
3 5100 10366 10363 
3 5932 10445 8117 
3 10527 11234 8640 
3 14 8553 445 
3 711 10547 707 
3 8978 10847 757 
3 1041 9806 1050 
3 1092 10807 8644 
3 1128 10125 3462 
3 1192 10483 2314 
3 3219 9475 1214 
3 1274 9366 1307 
3 1372 8012 4861 
3 1375 10007 1413 
3 1652 9685 1575 
3 1628 7590 1840 
3 9722 10282 1703 
3 1988 8729 1909 
3 1929 10023 1926 
3 2259 10631 3456 
3 2267 9493 3633 
3 2319 9579 2478 
3 2340 8530 5062 
3 2412 10446 2574 
3 2549 10499 2441 
3 2477 10334 2476 
3 2598 9864 2600 
3 2620 9458 7316 
3 2712 9962 2714 
3 2965 9531 2718 
3 3244 9495 2759 
3 2855 10079 3806 
3 2860 10265 4137 
3 3063 10266 9204 
3 3069 10304 3067 
3 3114 9959 3115 
3 3210 10539 3403 
3 3236 8192 3238 
3 3250 10661 4594 
3 8351 10285 3417 
3 3418 9865 3606 
3 8644 10841 3520 
3 3526 10287 9201 
3 8483 10450 3561 
3 6476 10237 3614 
3 9023 9828 3639 
3 3653 9950 9671 
3 3655 9671 3677 
3 3698 9645 9256 
3 3754 10564 8555 
3 9578 10068 4045 
3 4045 10240 9620 
3 4827 10399 4071 
3 4117 10278 4219 
3 4752 8032 4168 
3 5194 9963 4169 
3 5129 10379 4263 
3 4327 10537 4791 
3 4427 10019 9906 
3 4436 10703 7253 
3 4466 9769 4465 
3 9194 9195 4622 
3 4624 9626 5139 
3 4669 10632 5263 
3 4744 10442 7484 
3 4782 10164 5257 
3 4794 10028 8502 
3 6601 9926 5071 
3 5087 10561 5086 
3 5335 11117 7198 
3 5418 10377 7352 
3 9496 10199 5510 
3 8765 10645 5645 
3 9052 10570 5652 
3 5867 10216 8327 
3 7284 9854 5879 
3 10366 10741 5940 
3 9471 10584 5955 
3 5971 10398 5969 
3 5973 10576 7827 
3 5996 10577 9049 
3 6006 10521 9868 
3 10523 10703 6203 
3 6477 9872 9523 
3 7822 10450 6497 
3 6499 9196 9195 
3 6566 10285 9970 
3 7241 10520 6616 
3 9904 10003 6643 
3 8114 10957 6673 
3 6982 10473 9699 
3 7062 10863 10835 
3 7141 11180 7939 
3 7211 10638 7212 
3 10791 10872 7212 
3 7295 11459 8031 
3 10343 10387 7845 
3 7847 10152 9417 
3 7969 10470 10114 
3 8422 10616 9188 
3 10193 10511 8464 
3 8513 10230 10179 
3 8826 10205 10165 
3 10412 10540 8980 
3 9022 10989 10862 
3 9130 10690 9924 
3 11056 11082 9406 
3 9933 10110 9655 
3 458 8658 389 
3 2220 9585 2216 
3 2470 9453 2668 
3 2835 9875 2833 
3 3124 10016 3127 
3 5999 10118 4120 
3 1936 10530 1931 
3 4137 10265 7319 
3 6760 6950 5224 
3 7616 10312 5362 
3 7267 10813 7268 
3 9663 10696 9040 
3 481 10747 10239 
3 10301 11057 3688 
3 7227 10916 10306 
3 10862 10989 9855 
3 4203 9572 653 
3 3322 9737 3323 
3 3443 9831 8820 
3 3630 10619 9868 
3 7234 10422 4399 
3 5359 10723 4846 
3 4939 10141 8231 
3 5143 9942 7573 
3 5817 10162 5816 
3 9587 9588 5978 
3 6165 11254 8326 
3 8770 10110 9933 
3 9969 10761 8969 
3 6452 10314 5904 
3 8801 10121 8799 
3 1575 9685 1544 
3 2359 10047 2552 
3 2760 9909 2601 
3 4067 10364 4712 
3 5239 10451 4375 
3 4937 10004 6304 
3 9613 9779 5785 
3 9867 10724 5959 
3 7075 10965 6442 
3 10245 10562 8284 
3 9788 9925 9147 
3 4118 9804 4116 
3 4544 9508 6581 
3 9703 10730 7510 
3 2591 9643 8850 
3 4965 10323 4964 
3 9382 10751 5582 
3 8727 10251 9528 
3 130 9292 129 
3 540 9292 130 
3 612 10976 875 
3 1101 10789 1099 
3 1114 10260 1116 
3 2753 10457 2510 
3 5202 10293 4656 
3 5163 9812 5134 
3 5912 10484 6159 
3 8318 10717 1074 
3 1276 9352 1227 
3 2441 10499 2440 
3 3093 9681 2526 
3 3994 9697 3358 
3 3908 10170 3907 
3 5520 9465 5521 
3 5914 10296 5569 
3 7608 10528 6023 
3 6142 11109 11001 
3 10783 10876 6341 
3 8073 10176 8074 
3 1310 9477 1269 
3 2212 9136 2217 
3 9576 10172 3979 
3 4114 10289 9854 
3 1207 9416 1213 
3 1787 9750 1785 
3 1909 8729 2006 
3 3632 9949 2290 
3 3417 10285 10048 
3 5129 10551 10379 
3 6111 10746 9619 
3 6790 9872 6477 
3 1531 8684 3803 
3 2425 9961 7482 
3 8812 10947 3638 
3 4347 10279 4888 
3 4981 10416 10018 
3 9515 10052 9516 
3 471 10272 8253 
3 580 10909 578 
3 4519 8867 2072 
3 2083 10714 2085 
3 2986 10227 2984 
3 4248 10489 3172 
3 5216 9918 4688 
3 6597 10257 8119 
3 463 8782 191 
3 4433 9458 2620 
3 3629 10229 3641 
3 4600 9931 4733 
3 6193 10108 4751 
3 5969 10398 10360 
3 7375 11179 7376 
3 10059 10368 8489 
3 9483 10287 10176 
3 10175 10252 3674 
3 1384 9352 1276 
3 1501 10546 8722 
3 8182 9864 2598 
3 3635 10052 9765 
3 7258 11126 5095 
3 11064 11163 5634 
3 6180 9947 6046 
3 8284 10562 8282 
3 1161 10558 8605 
3 4138 9284 5612 
3 5699 10471 9366 
3 9671 9950 7522 
3 8219 11168 10896 
3 4149 10294 4981 
3 6616 10034 6565 
3 7206 11072 7945 
3 1214 9475 1275 
3 2984 10227 3855 
3 3047 10057 3049 
3 3907 10424 3286 
3 9137 10545 6539 
3 3284 9675 7453 
3 4542 10811 9930 
3 6342 10219 7611 
3 8154 8155 6401 
3 3014 9829 3015 
3 7453 7585 3284 
3 3528 10604 3466 
3 4693 10736 4691 
3 5450 7225 5449 
3 5546 10295 9032 
3 6360 10064 5795 
3 5943 10622 6396 
3 7507 10135 9541 
3 10834 10870 7696 
3 598 9733 596 
3 1802 9546 1805 
3 1807 8947 1804 
3 2517 10419 2515 
3 10988 11239 4424 
3 5839 10258 9425 
3 6615 10621 9617 
3 9827 10569 7562 
3 705 10070 829 
3 2677 10126 8067 
3 3177 10735 4086 
3 4969 10113 4968 
3 5935 10639 5933 
3 7234 10423 6417 
3 8847 10870 1259 
3 10281 10696 1418 
3 1636 10341 1654 
3 2482 10513 2318 
3 4729 10559 7198 
3 5247 10664 4815 
3 5088 10418 7086 
3 5665 10200 7808 
3 5813 10012 9739 
3 10073 10484 5912 
3 8018 10076 6554 
3 7391 10588 10312 
3 9451 9452 8019 
3 10216 10360 8327 
3 8513 10375 10230 
3 10437 10597 8666 
3 10337 10396 8990 
3 9758 10416 9342 
3 3583 10814 9266 
3 8435 10122 8433 
3 4123 10220 6699 
3 10491 10539 6631 
3 1873 10512 1983 
3 3889 10097 3109 
3 5886 10389 5884 
3 9020 9645 9019 
3 3150 10490 3906 
3 9536 9820 3746 
3 6402 9884 5078 
3 9924 10690 5088 
3 9774 10311 5116 
3 6299 10739 10104 
3 6639 10785 10658 
3 9871 10437 8666 
3 1840 7590 1963 
3 3101 10145 3916 
3 4876 9307 4878 
3 9739 10158 5812 
3 5621 9744 2421 
3 3347 10455 10447 
3 3548 10765 9048 
3 5759 10569 9910 
3 6037 10727 6003 
3 9848 9849 6099 
3 320 9100 319 
3 10227 10492 10095 
3 1513 11148 10784 
3 4976 10276 3499 
3 6649 10861 6012 
3 1520 9678 1466 
3 2344 9787 2084 
3 3813 9818 3815 
3 2891 10342 2520 
3 5816 9960 3876 
3 6585 10168 6586 
3 10649 10778 7724 
3 1357 10071 2653 
3 1651 9425 1588 
3 2275 10462 2273 
3 3628 9785 3036 
3 9019 9645 3698 
3 2307 9579 2319 
3 9473 10461 3393 
3 6476 10337 10237 
3 6587 10275 6588 
3 319 9100 510 
3 2542 9709 4223 
3 9368 10994 5130 
3 5138 10302 10258 
3 6800 10739 6299 
3 10531 10532 6788 
3 7039 10764 7759 
3 9859 10498 8403 
3 1061 8889 1044 
3 2145 10047 2359 
3 2728 10036 2583 
3 2872 8640 2870 
3 2888 11073 2885 
3 3640 9829 3014 
3 7543 10349 3405 
3 4754 10830 4294 
3 6578 10055 9263 
3 3593 8999 8998 
3 4156 11310 5180 
3 9427 10147 5030 
3 8668 10533 751 
3 2233 9806 1041 
3 3727 9916 1525 
3 9118 10773 1697 
3 3889 10325 7572 
3 10058 10168 3958 
3 10494 10559 4729 
3 6045 10716 5987 
3 9934 10979 6689 
3 10040 10158 9739 
3 4758 9996 6226 
3 6134 9812 5163 
3 5957 10573 10510 
3 6027 11068 6144 
3 7518 10390 7517 
3 8659 11430 11403 
3 9620 10240 9320 
3 6270 7856 571 
3 1178 9808 1173 
3 2352 9989 5068 
3 6437 10113 4969 
3 6557 10274 5920 
3 10113 10717 8318 
3 4391 9701 3033 
3 4185 10170 3908 
3 6569 10358 5575 
3 7169 10228 6354 
3 8072 10316 8073 
3 8437 10217 8435 
3 1865 8588 1866 
3 3526 10362 10287 
3 5594 10037 9028 
3 6007 10102 8485 
3 1973 10185 1765 
3 2172 10268 2337 
3 11010 11013 2588 
3 2655 9912 2657 
3 8814 10166 8818 
3 1109 10827 3572 
3 1121 9187 1126 
3 9986 10228 3413 
3 4357 9738 5367 
3 6259 9730 5234 
3 5290 10493 7615 
3 5483 10402 5906 
3 10497 10567 5931 
3 10571 10596 5965 
3 8760 10158 10040 
3 10831 11125 9604 
3 1920 10574 1918 
3 5805 9957 2643 
3 9028 10036 2728 
3 3806 10214 2857 
3 4886 10802 6383 
3 8080 11084 5067 
3 7579 10120 6368 
3 624 8413 622 
3 757 10859 8643 
3 9384 9622 1176 
3 8518 10599 1658 
3 1668 10442 1666 
3 7798 11220 2549 
3 2890 10701 2717 
3 2859 10214 2970 
3 2893 9589 3142 
3 9614 9961 3024 
3 3066 10372 4085 
3 4203 9890 9572 
3 4509 10844 9369 
3 5058 9898 5005 
3 5236 10128 6788 
3 5289 10493 5290 
3 5348 10633 5344 
3 5528 10308 9658 
3 5600 10461 9473 
3 6602 10686 5708 
3 5812 10158 10042 
3 5967 10434 5966 
3 8804 10584 5981 
3 9683 10640 6001 
3 9868 10619 6006 
3 10788 10890 6020 
3 10089 10288 6351 
3 6454 9929 6456 
3 9179 10337 6476 
3 7219 10824 6627 
3 10740 11123 6651 
3 6676 11163 11064 
3 10176 10287 8074 
3 8396 10560 10467 
3 8625 10286 8624 
3 8822 10245 8823 
3 10702 10847 8978 
3 8991 10337 8990 
3 8990 10396 9004 
3 2884 10628 2924 
3 3753 9536 3748 
3 7995 10974 7123 
3 6096 9846 1923 
3 2774 10145 3101 
3 3331 8149 3909 
3 9304 10719 3558 
3 3815 9818 3921 
3 5128 10489 4248 
3 5924 10431 5069 
3 5321 10731 9215 
3 9289 10101 5711 
3 5732 10794 8595 
3 5780 10409 9609 
3 5914 10392 10296 
3 10342 10355 7223 
3 7243 7245 7242 
3 4428 10382 8672 
3 10550 10599 6498 
3 3351 11053 616 
3 747 10191 9893 
3 10491 10645 3403 
3 9042 9632 5736 
3 6162 10203 6074 
3 9054 10681 6638 
3 8163 10249 8162 
3 2842 9978 2844 
3 4263 10379 5056 
3 4754 11419 11411 
3 6935 10593 5295 
3 5690 9792 9561 
3 9618 10231 5854 
3 1578 10377 1634 
3 1937 10444 7840 
3 9195 9196 3104 
3 5797 11027 9619 
3 8396 10467 6610 
3 10128 10531 6788 
3 7611 10991 7614 
3 7780 10208 7783 
3 2078 9219 2079 
3 3855 10227 10095 
3 6400 10591 8696 
3 10237 10337 8991 
3 1803 8864 1801 
3 9570 10365 4241 
3 9930 10824 4542 
3 5851 10455 5765 
3 6192 11404 11389 
3 25 8686 24 
3 1123 9187 1121 
3 2288 10924 7886 
3 3226 10231 3730 
3 6543 10459 4965 
3 5920 10274 9982 
3 7757 10277 10254 
3 2471 10232 9453 
3 2759 9495 2615 
3 3670 9615 3666 
3 5534 10133 9656 
3 7498 11234 6161 
3 8124 10832 10798 
3 9739 10012 4418 
3 4498 10060 5032 
3 6595 10021 4535 
3 5115 10560 9054 
3 6370 10200 5431 
3 8433 10066 8431 
3 8672 10382 8673 
3 10489 10642 2732 
3 2999 10410 3691 
3 10034 10570 5090 
3 5129 10759 10551 
3 2844 9978 3798 
3 5791 10501 10144 
3 10544 10691 8371 
3 2194 10256 10151 
3 4259 10693 9781 
3 9853 10753 8322 
3 1987 9878 1943 
3 4126 11025 3251 
3 9609 10409 4564 
3 5125 10229 6037 
3 11289 11340 8915 
3 1173 9808 4221 
3 1976 10186 4060 
3 3622 7454 2023 
3 2643 9957 2365 
3 2529 9822 3339 
3 3024 9961 2688 
3 2960 10010 3862 
3 4317 9539 7408 
3 5225 10223 5755 
3 9545 10140 5730 
3 10640 10660 6001 
3 10081 11127 6269 
3 10276 10566 7534 
3 9072 10408 10326 
3 1241 9967 1243 
3 3470 10392 8668 
3 4146 10032 4144 
3 5931 10567 6026 
3 9521 10692 6029 
3 6610 10311 6611 
3 8149 11350 11319 
3 3175 10118 3173 
3 10328 10439 3308 
3 8388 10775 3399 
3 10079 10931 3806 
3 191 8782 190 
3 290 8793 289 
3 3454 10607 2363 
3 2857 10214 2859 
3 3412 9669 802 
3 5487 10259 5485 
3 4806 10170 4185 
3 10438 10593 6935 
3 3178 9809 2756 
3 3503 10437 9871 
3 6446 9713 3687 
3 4143 9883 5164 
3 4178 10119 4754 
3 8308 10270 5873 
3 7358 10658 6426 
3 7029 8572 7027 
3 9123 10623 10093 
3 1867 10186 1976 
3 2192 10264 2147 
3 3172 10489 2732 
3 9032 10355 2891 
3 4571 10411 4574 
3 7966 7967 4787 
3 6647 10489 5128 
3 5889 10235 9940 
3 7489 10415 10189 
3 1573 10073 1537 
3 10204 10314 2244 
3 4708 10030 3900 
3 4465 9769 5588 
3 10796 11228 6056 
3 9191 9192 7985 
3 9975 10091 8589 
3 10849 10913 10458 
3 1544 10072 1508 
3 9263 10055 1690 
3 5778 9952 2420 
3 3038 9417 3017 
3 5915 9694 3302 
3 6817 10493 5289 
3 5941 10636 10388 
3 9508 9870 6581 
3 10520 10570 6616 
3 6822 10369 6774 
3 7601 11072 10760 
3 8101 10361 8102 
3 5608 9212 1066 
3 1288 10511 10193 
3 2822 10823 2823 
3 4564 10502 8865 
3 7268 10813 10255 
3 10233 10313 8437 
3 1520 10151 9678 
3 4052 9402 4051 
3 3598 9852 1559 
3 9554 10204 2244 
3 2974 9978 2842 
3 2861 10618 2863 
3 10449 10576 5973 
3 10775 10953 6015 
3 799 10630 8824 
3 1408 10007 1375 
3 1680 10298 1908 
3 5661 10820 9691 
3 6593 10574 10506 
3 389 8658 388 
3 4319 10000 3891 
3 8880 9966 4404 
3 6277 10248 6274 
3 10241 11294 10792 
3 3132 9193 9192 
3 6116 10955 8069 
3 10702 10841 6474 
3 8738 10640 9683 
3 9179 10396 10337 
3 1227 10483 1192 
3 2539 9899 2443 
3 5268 10480 4641 
3 10768 10793 6473 
3 6658 10982 10866 
3 9433 10225 7677 
3 11294 11331 5758 
3 618 9383 3351 
3 2654 9780 1034 
3 1106 10374 1108 
3 1512 9240 1587 
3 3034 9785 3113 
3 3690 9745 3239 
3 9419 9548 3348 
3 4904 9183 4906 
3 9617 10621 10545 
3 980 10552 10505 
3 2155 10099 2111 
3 4179 10219 3802 
3 5038 10545 9137 
3 7062 10835 8984 
3 7382 10498 9859 
3 7782 10208 7780 
3 9000 10728 9001 
3 9875 10327 10039 
3 1614 7882 1698 
3 2392 9555 2541 
3 5220 10393 3953 
3 5132 9934 5162 
3 10610 10698 6021 
3 7815 10330 3276 
3 3841 9976 3844 
3 3857 10492 10227 
3 9402 10100 4051 
3 9013 10420 4444 
3 11211 11278 6231 
3 8470 10154 8469 
3 3254 10246 3252 
3 3592 11038 9826 
3 9817 10039 4054 
3 6368 10120 6590 
3 9169 10356 6465 
3 11360 11377 7932 
3 3595 10929 1028 
3 3365 9858 9857 
3 3921 9651 3824 
3 4139 9284 4138 
3 8697 10995 5498 
3 7680 11000 7101 
3 296 9222 295 
3 3091 10743 890 
3 1069 10744 1056 
3 1562 10302 1623 
3 10230 10375 4464 
3 15 8553 14 
3 10938 11146 1974 
3 4947 9811 4948 
3 5341 10182 5343 
3 5498 10259 5487 
3 6019 10788 6020 
3 8600 10799 10190 
3 9680 10559 10494 
3 1691 10345 8828 
3 4513 10574 6593 
3 7619 10398 5971 
3 9517 10412 5986 
3 9397 10109 6431 
3 8046 8741 8740 
3 8068 11061 9785 
3 10357 10722 9894 
3 2386 9436 2178 
3 10138 10687 2896 
3 2966 10436 3309 
3 8773 10243 6488 
3 10368 11065 8490 
3 3613 10734 2424 
3 7847 9417 3038 
3 3378 10648 3963 
3 4503 9455 3792 
3 4445 10600 9394 
3 8666 10597 5080 
3 6106 11009 6668 
3 7978 11042 7176 
3 1761 10679 1757 
3 2012 9989 2352 
3 9348 10317 2645 
3 4084 10735 3180 
3 3613 10429 7216 
3 4184 10261 4186 
3 6565 10741 5100 
3 7277 10427 5872 
3 6014 10617 6015 
3 10083 10985 6731 
3 7377 10439 10328 
3 2321 10443 2036 
3 2567 10167 2565 
3 10139 10320 5052 
3 5351 7874 7090 
3 8638 10749 6955 
3 10605 10678 7483 
3 10011 10349 7543 
3 3308 10439 1008 
3 3636 10943 1022 
3 1066 9212 1045 
3 1964 10306 9989 
3 2820 10529 2822 
3 3308 10654 8208 
3 3609 10649 7724 
3 3641 10229 5125 
3 4723 10278 4117 
3 5602 10338 9298 
3 5711 10271 9296 
3 5865 10365 9570 
3 6354 10228 5868 
3 5896 10153 6423 
3 7153 10757 5897 
3 10004 10005 6304 
3 7827 10576 10266 
3 10221 10726 7954 
3 8431 10066 8451 
3 8435 10217 10122 
3 760 10255 758 
3 814 10840 868 
3 868 10967 7153 
3 1350 10565 1378 
3 2646 10557 1569 
3 2520 10342 2432 
3 2510 10457 2512 
3 5660 9780 2654 
3 3225 10998 2959 
3 4120 10118 3175 
3 3412 9687 9669 
3 9597 9615 3670 
3 4011 10254 8927 
3 4091 10761 9969 
3 4420 10149 9457 
3 8209 10189 4499 
3 10022 10321 5952 
3 7931 10222 8881 
3 1493 9477 1310 
3 5472 10534 7942 
3 5500 10333 8538 
3 7834 10501 5791 
3 5879 10289 5878 
3 5949 11037 6205 
3 5981 10585 8804 
3 7051 10656 7052 
3 11007 11031 10010 
3 1243 9967 3569 
3 1593 10625 9574 
3 3559 10155 1638 
3 9488 9923 1919 
3 1925 10506 1922 
3 1923 9846 1924 
3 2086 10303 2344 
3 2287 9949 2288 
3 2320 9377 8531 
3 8327 10360 2397 
3 10360 10398 2397 
3 7940 10907 2709 
3 2720 9714 2899 
3 3728 9709 2766 
3 2938 10225 9433 
3 3110 10325 3889 
3 3244 10575 9496 
3 3482 10449 8839 
3 5541 9852 3598 
3 3909 10980 3910 
3 3915 10080 6605 
3 4197 10209 3952 
3 3953 10393 7848 
3 4008 10096 9029 
3 5100 10363 4056 
3 9228 10874 4272 
3 9444 10531 4303 
3 9537 10772 4310 
3 5326 9511 4339 
3 6013 9931 4599 
3 4601 10831 9604 
3 4727 10494 4729 
3 5237 9945 4783 
3 4803 10980 6915 
3 9128 10518 5103 
3 5136 10828 5135 
3 6022 11044 5154 
3 6812 10537 5288 
3 10490 10704 5689 
3 7911 10124 5858 
3 5915 10590 9694 
3 9706 10445 5932 
3 5946 10542 10495 
3 5968 10381 8493 
3 5977 10625 10561 
3 6033 10106 9611 
3 6148 11222 10944 
3 6926 10485 6315 
3 8117 10515 6441 
3 6498 10599 8064 
3 6573 10367 6572 
3 6590 10120 9768 
3 6610 10467 10311 
3 6616 10570 10034 
3 8064 10637 6628 
3 6630 10327 6629 
3 6929 10845 6927 
3 7588 10704 7905 
3 9932 11035 7622 
3 7917 10818 7915 
3 10114 10297 7969 
3 8174 10612 8173 
3 8173 10612 8370 
3 10144 10501 8567 
3 10705 10826 9023 
3 10281 10470 9040 
3 7095 10509 5534 
3 6041 10971 6663 
3 6092 10602 6103 
3 298 9832 495 
3 3776 10081 9501 
3 5118 10479 9179 
3 3036 9785 3034 
3 4260 10327 9875 
3 9548 10376 8095 
3 980 10505 977 
3 2648 10565 1350 
3 4614 10257 2194 
3 2476 10334 2686 
3 10781 11070 4423 
3 10101 10271 5711 
3 6646 9781 6647 
3 4151 10171 4153 
3 6048 9947 6174 
3 7448 11055 10499 
3 7664 11450 7672 
3 10039 10327 6630 
3 1154 10339 1159 
3 10233 10352 3206 
3 9324 10844 4509 
3 5847 10521 9061 
3 10979 11029 6689 
3 7952 10502 7954 
3 6446 11027 10323 
3 7689 10250 7753 
3 1395 10835 3603 
3 3460 10448 9161 
3 4521 11011 7185 
3 5334 11202 11141 
3 2504 10234 2506 
3 5998 10652 10475 
3 7965 7966 4787 
3 6588 10598 9357 
3 1521 7882 1614 
3 2845 10045 2703 
3 2717 10701 2907 
3 2870 8640 3197 
3 3140 10080 3915 
3 4948 9811 4951 
3 8487 11046 5166 
3 6089 10659 9682 
3 1209 10428 7858 
3 7515 9555 5068 
3 10053 10218 6608 
3 3403 10539 10491 
3 10542 10692 3568 
3 4373 10451 5982 
3 5774 10297 10114 
3 9927 10486 7691 
3 292 9259 291 
3 10867 11066 586 
3 2512 10457 10324 
3 4796 10002 7787 
3 10707 10727 6037 
3 6067 10990 6090 
3 10160 10522 1953 
3 3347 10447 8142 
3 6663 10633 5348 
3 8825 10595 8580 
3 892 10603 3091 
3 982 10552 980 
3 8214 10664 5247 
3 8818 10166 6596 
3 7922 10738 7920 
3 888 10881 827 
3 4061 10354 4072 
3 6622 9934 5131 
3 10746 10925 6654 
3 11428 11435 7613 
3 10405 10488 7765 
3 7502 10164 4782 
3 5108 10678 5105 
3 7925 10124 7911 
3 748 10829 1435 
3 4511 10007 1408 
3 2574 10446 3009 
3 9894 9987 3633 
3 5071 9926 3988 
3 4056 10363 4243 
3 4155 11080 9045 
3 4614 10895 10755 
3 5981 10584 5063 
3 5744 10400 7504 
3 6005 10722 10357 
3 6204 10523 6203 
3 10023 10530 7213 
3 610 11052 608 
3 2521 9714 2720 
3 5485 10402 5483 
3 10187 10188 6551 
3 10067 10528 7608 
3 1051 10428 1209 
3 10234 10621 2845 
3 5403 7720 5405 
3 10578 10754 6303 
3 6437 10717 10113 
3 10254 10277 8927 
3 10409 10502 4564 
3 6225 10353 5212 
3 6637 11318 10435 
3 10670 10908 6649 
3 7603 9701 9156 
3 9792 11185 11155 
3 10850 11014 9901 
3 9806 10305 1050 
3 1449 11116 11094 
3 5215 10197 4678 
3 4986 9772 9190 
3 5131 9934 5132 
3 8264 10892 5890 
3 6614 10785 6639 
3 7694 10250 7689 
3 7692 10597 10437 
3 10249 10296 8162 
3 2422 10734 2616 
3 5349 10213 5345 
3 7425 10635 9612 
3 10847 10859 757 
3 3574 10840 812 
3 11122 11297 2486 
3 9965 10771 7004 
3 9747 10452 8540 
3 7516 10087 2323 
3 3268 10242 4181 
3 3824 9651 3832 
3 4605 10088 4048 
3 6084 10378 7356 
3 8084 10833 9881 
3 2968 11029 2873 
3 10232 10707 6037 
3 6568 10470 7969 
3 10215 10634 6590 
3 3502 10167 2567 
3 3962 10335 3960 
3 9958 10718 7727 
3 9574 10625 10600 
3 1199 10822 1118 
3 1613 10151 1520 
3 8842 10748 4079 
3 8509 10458 5997 
3 6044 10795 10511 
3 9606 11150 6655 
3 8395 10560 8396 
3 5161 9932 4630 
3 7946 10756 8889 
3 9166 10680 2676 
3 4474 10527 8641 
3 8483 10550 10450 
3 1120 10777 1122 
3 8294 11051 2588 
3 2947 9166 2675 
3 5952 10321 5950 
3 9098 11223 535 
3 6056 10253 1933 
3 2290 9949 2287 
3 6462 9922 4507 
3 9029 10096 5687 
3 5988 10383 6180 
3 8737 10640 8738 
3 1788 9387 1790 
3 2423 10137 2522 
3 1328 10993 1330 
3 1330 10837 1332 
3 3025 10602 8087 
3 4559 10236 6604 
3 5495 10476 5499 
3 5501 10333 5496 
3 4359 9131 3893 
3 10372 10408 4085 
3 6607 10578 4802 
3 5995 10624 5008 
3 5850 10694 10668 
3 10048 10285 6566 
3 9399 10177 6585 
3 963 10932 965 
3 1351 9253 3518 
3 3408 10385 8514 
3 8571 10920 5724 
3 1470 9371 1506 
3 5992 9959 3903 
3 6990 10481 6569 
3 10539 10748 6631 
3 6663 10971 10315 
3 1548 9608 2646 
3 4079 10539 3210 
3 3642 10536 8825 
3 8824 10562 3697 
3 10896 11168 5929 
3 5937 10474 10421 
3 10166 10276 6596 
3 2751 9682 2780 
3 10511 10636 6044 
3 2974 10716 10685 
3 4005 10139 5052 
3 7325 11407 7327 
3 2072 8867 1900 
3 5701 10131 4430 
3 5868 10228 9986 
3 6026 10705 9626 
3 6927 10845 6926 
3 499 9944 303 
3 3128 9191 3125 
3 6769 11030 4817 
3 6598 10662 6599 
3 7522 9950 9895 
3 9489 10415 7758 
3 8604 10598 10275 
3 2522 10137 2896 
3 9189 10555 3386 
3 4171 9799 4172 
3 6155 10280 6157 
3 620 9383 618 
3 7805 10827 1198 
3 9393 10822 1199 
3 3008 9610 2202 
3 2512 10324 2514 
3 3600 10657 10481 
3 7710 11075 10220 
3 2446 9924 2445 
3 2458 10554 10472 
3 3779 11112 2988 
3 3802 10219 4099 
3 5182 11344 11308 
3 10161 10162 6605 
3 7605 10346 7044 
3 7876 10371 9582 
3 9753 10786 8226 
3 9030 9779 9613 
3 8984 10835 740 
3 9682 10659 2780 
3 2894 11007 10010 
3 3367 10666 8662 
3 3386 10616 8422 
3 9204 10576 3482 
3 3931 10181 9568 
3 4925 11041 4236 
3 5893 10336 4865 
3 4980 10580 10291 
3 5957 10510 5117 
3 5518 10519 5517 
3 5904 10314 10204 
3 6529 10936 6035 
3 10247 10248 6277 
3 8552 10702 6474 
3 6607 10754 10578 
3 10288 11131 6674 
3 11389 11404 6718 
3 7314 9888 9887 
3 7709 10517 7710 
3 8045 10370 8044 
3 8074 10362 8710 
3 10396 10479 8131 
3 8395 10681 10560 
3 9517 10540 10412 
3 9778 10793 10768 
3 5136 10722 10684 
3 9366 10647 1307 
3 1970 9900 1859 
3 2068 10777 10745 
3 8992 10619 3630 
3 4532 10762 8973 
3 6336 11130 10130 
3 1643 9921 9003 
3 4438 10430 4435 
3 9801 10686 6025 
3 2056 10525 2058 
3 8821 10542 3568 
3 6572 10491 5900 
3 6242 10606 6882 
3 10811 10937 9930 
3 986 10344 988 
3 10798 10827 7805 
3 2686 10334 7466 
3 2895 10010 2960 
3 8904 10225 2938 
3 5976 10335 4915 
3 9626 10705 5139 
3 6074 10203 6079 
3 10425 10426 6972 
3 1198 10827 1111 
3 3547 10433 1818 
3 5052 10320 7415 
3 1287 9476 1262 
3 1307 10601 9478 
3 2077 9009 3090 
3 2168 9821 7624 
3 2173 9753 2174 
3 8803 10585 3455 
3 4848 10235 5599 
3 6431 10109 9684 
3 7278 10712 6480 
3 6638 10706 7777 
3 822 10417 824 
3 2337 10268 2430 
3 988 10344 994 
3 10398 10547 2397 
3 2407 10269 2406 
3 3559 10851 10155 
3 5956 10571 5965 
3 5985 10615 7731 
3 10472 10554 6617 
3 7284 10387 10343 
3 10316 10452 8073 
3 7144 9996 4758 
3 5252 10002 4796 
3 6159 11273 6158 
3 7252 10974 6618 
3 302 9944 567 
3 1445 9386 3601 
3 2314 10544 9189 
3 4181 10242 7144 
3 10190 10799 4931 
3 5816 10161 9960 
3 7959 10682 10419 
3 10392 10533 8668 
3 4958 10262 6427 
3 576 11032 574 
3 1262 9476 2396 
3 1963 9009 2077 
3 8282 10630 8283 
3 5141 10112 4109 
3 8709 10718 4604 
3 9702 10566 4976 
3 10765 10766 6575 
3 10745 10777 6623 
3 3284 7585 2905 
3 3754 10936 10564 
3 4431 10569 9827 
3 5510 10199 4978 
3 6095 10435 6992 
3 10149 10753 7158 
3 8804 10745 10584 
3 4233 10291 4235 
3 11012 11244 7121 
3 2863 11023 2865 
3 3216 10180 7550 
3 4372 10451 4373 
3 4599 9931 4600 
3 4867 10336 5928 
3 7082 10280 6155 
3 6565 11017 10741 
3 2703 10045 2981 
3 2994 10436 2966 
3 7725 10596 4480 
3 5755 10223 6763 
3 6647 11006 10642 
3 11439 11445 2262 
3 3888 10482 3107 
3 4783 9945 5993 
3 4815 10664 5232 
3 9854 10289 5879 
3 3638 10947 789 
3 1634 10377 5418 
3 3500 10503 8758 
3 4154 9819 5201 
3 9825 10516 4253 
3 4399 10422 7516 
3 10245 10326 8823 
3 6992 10779 6043 
3 10287 10362 8074 
3 2397 10547 711 
3 10095 10492 6235 
3 7739 10033 7738 
3 11158 11159 8047 
3 82 10747 81 
3 5859 10211 3221 
3 6033 10918 10876 
3 6049 10891 10842 
3 760 10391 10255 
3 9812 11079 6075 
3 2506 10234 2845 
3 5240 10413 6770 
3 5502 10476 5495 
3 2981 10432 7535 
3 5474 10534 5472 
3 8573 10721 10601 
3 9569 10593 5853 
3 10001 10912 7084 
3 5137 10940 6121 
3 10495 10542 8821 
3 7680 10897 1069 
3 2501 9387 1788 
3 3792 9455 3738 
3 10536 10595 8825 
3 1069 10929 7680 
3 1469 10535 1617 
3 2768 10330 2769 
3 4907 10648 3378 
3 8559 10385 3408 
3 5534 10509 10133 
3 6344 11276 5698 
3 11433 11444 6723 
3 2491 10092 2493 
3 569 10009 568 
3 2330 11137 8106 
3 6157 10280 6991 
3 1642 10594 9002 
3 4658 10292 4660 
3 8849 10262 4958 
3 5476 11124 7755 
3 8491 11018 6094 
3 7116 10591 6400 
3 7746 10771 9965 
3 8479 10691 10483 
3 3449 10945 1266 
3 4353 10593 9569 
3 5783 10478 9993 
3 5841 10556 6041 
3 5496 10333 5500 
3 5828 10524 5827 
3 5898 10153 5896 
3 6239 10919 6708 
3 8903 10053 6608 
3 8288 10390 7518 
3 8440 10466 10352 
3 8722 10546 8728 
3 8806 10313 10233 
3 9614 10605 9961 
3 919 11317 8263 
3 1367 11340 11289 
3 1572 9921 1643 
3 2309 10567 8225 
3 4006 10964 7075 
3 6583 10244 6584 
3 6645 10774 8872 
3 11441 11456 7329 
3 10594 10706 9002 
3 9904 11008 9563 
3 1890 10475 1892 
3 8889 10756 3350 
3 10062 10904 3935 
3 5457 10962 5934 
3 5954 10061 5606 
3 6053 10650 5865 
3 10617 10775 6015 
3 7726 10939 6066 
3 6068 10673 10376 
3 6586 10967 7053 
3 6735 11388 11380 
3 8771 10996 7074 
3 7170 10677 7169 
3 10939 11003 7772 
3 8047 11159 11151 
3 8442 10466 8440 
3 17 11488 11485 
3 810 10950 3574 
3 10185 10273 1765 
3 2194 10257 10256 
3 2363 10607 2229 
3 2890 10729 10701 
3 2907 10504 9936 
3 4109 10112 3682 
3 4279 10699 5203 
3 4552 10269 7223 
3 9940 10235 4848 
3 6361 10348 4894 
3 4931 10799 9335 
3 5848 10376 9548 
3 5903 10322 7519 
3 5926 11098 6167 
3 2116 10683 10346 
3 2261 10631 2259 
3 3112 10131 2832 
3 5139 10862 9855 
3 8904 10592 10225 
3 192 8783 463 
3 1471 10696 1590 
3 1513 10784 1514 
3 1519 11519 11508 
3 1569 10557 1595 
3 1573 10484 10073 
3 11001 11109 1661 
3 1931 10530 1929 
3 8054 8833 2017 
3 2271 10554 2458 
3 2293 11100 2310 
3 2347 9753 8226 
3 2449 9924 2446 
3 10732 10935 2609 
3 2642 10410 2999 
3 8985 11354 2652 
3 2694 10194 7709 
3 3001 9682 2751 
3 3339 10765 2771 
3 3122 10386 3120 
3 3469 11430 8659 
3 4007 10477 8418 
3 4104 10894 9616 
3 4384 9659 8257 
3 4434 10406 5506 
3 4435 10430 4436 
3 4569 10088 5542 
3 4658 10293 10292 
3 4660 10292 4753 
3 4681 10198 4786 
3 6113 11134 4725 
3 5103 10517 9392 
3 9541 10135 5204 
3 5293 10413 5240 
3 7469 10541 5406 
3 5944 10555 10544 
3 9794 10787 5963 
3 5964 10472 6617 
3 5991 10721 6007 
3 9478 10601 5991 
3 6388 10568 10307 
3 9523 10129 6477 
3 6497 10550 6498 
3 6527 10215 7751 
3 6701 11103 11083 
3 7384 10498 7382 
3 7388 10583 7386 
3 10631 10949 7449 
3 7619 10547 10398 
3 7777 10706 10594 
3 8531 9378 7843 
3 9894 10722 7869 
3 7921 11039 7919 
3 10224 10519 7923 
3 8084 9881 8083 
3 8250 10371 8251 
3 10624 10949 8277 
3 10807 10841 8644 
3 10573 10619 8992 
3 9493 10357 9894 
3 3399 10775 10617 
3 8872 10153 5898 
3 199 9964 494 
3 1563 10573 8992 
3 2524 10849 2777 
3 7620 11236 4636 
3 5819 10846 5803 
3 6068 10376 5848 
3 6032 10794 10776 
3 2869 11103 2871 
3 5884 10111 3298 
3 6079 10203 6084 
3 2036 10443 2162 
3 2344 10655 9787 
3 6620 10540 9517 
3 11466 11491 6742 
3 5998 10475 2046 
3 2969 11047 10958 
3 3317 10689 3747 
3 3403 10645 8765 
3 5941 10388 8159 
3 9881 10833 5984 
3 10784 11148 6677 
3 10950 11022 6981 
3 6320 10626 7785 
3 4362 10426 10425 
3 8083 9881 4428 
3 4934 10171 5863 
3 9040 10470 6568 
3 5068 9555 2392 
3 1656 10512 1873 
3 2324 9210 4519 
3 4362 10663 10426 
3 8619 10857 8618 
3 10773 10861 1697 
3 2819 10468 3108 
3 3496 10649 3609 
3 4774 10538 7809 
3 7386 10583 10477 
3 10477 10583 8418 
3 5765 10455 8428 
3 10595 10608 8580 
3 5861 10699 4962 
3 6571 10700 6570 
3 9028 10037 10036 
3 9736 10885 2233 
3 6025 10863 6024 
3 4048 10088 4569 
3 5977 10561 5087 
3 5645 10645 10367 
3 6636 10928 6637 
3 7258 11038 10883 
3 3735 10099 2155 
3 9440 10099 3735 
3 8585 10657 8584 
3 1597 10236 1600 
3 4821 10083 4163 
3 4584 10516 5850 
3 1697 10908 682 
3 9636 11243 6165 
3 1588 10302 1562 
3 3297 10181 3931 
3 4594 10661 6648 
3 4964 10323 5797 
3 10447 10716 8142 
3 2845 10395 10045 
3 4921 10331 5833 
3 6765 10223 5225 
3 5965 10725 7931 
3 7767 10886 8596 
3 2764 10482 2765 
3 11182 11220 7798 
3 3258 10192 3256 
3 3258 10526 10192 
3 4980 10291 4233 
3 6097 10559 9680 
3 6450 10620 9486 
3 9179 10479 10396 
3 7784 10663 4362 
3 7682 10648 4907 
3 6663 10750 10633 
3 9134 10970 10817 
3 1524 9882 1522 
3 2084 9787 2082 
3 3939 10739 10062 
3 1590 10696 9663 
3 3243 10575 3244 
3 4432 10406 4434 
3 6574 11028 4708 
3 5398 10581 5968 
3 9580 10907 5815 
3 7596 10652 5998 
3 6640 10879 6134 
3 7116 10881 10743 
3 4922 10331 4921 
3 7975 10646 7489 
3 3286 10424 3872 
3 445 9375 13 
3 1757 10679 1758 
3 5110 10454 5108 
3 1334 11081 1336 
3 10137 10138 2896 
3 6051 10891 6049 
3 2723 10429 2523 
3 10378 11257 480 
3 2880 10283 4474 
3 5883 10188 10187 
3 6046 9947 6048 
3 2202 9610 2200 
3 3109 10097 3728 
3 6235 10492 6237 
3 7169 10677 10529 
3 8804 10585 8803 
3 9024 10989 9022 
3 1601 10407 1604 
3 2896 10687 7540 
3 10395 10621 6615 
3 1506 9371 3755 
3 2971 10902 10864 
3 4232 10290 4230 
3 6888 7856 6270 
3 8482 11084 8080 
3 3220 11011 4521 
3 6269 11230 6879 
3 2675 9166 2676 
3 3346 9849 9848 
3 3120 10386 4222 
3 11426 11432 3992 
3 4454 10579 9058 
3 4936 10865 4935 
3 5902 11016 10957 
3 3927 10463 4332 
3 6676 10643 5168 
3 6030 10816 6032 
3 7410 10551 9290 
3 8605 10598 8604 
3 9404 11374 11335 
3 2406 10269 4552 
3 6044 10636 5941 
3 8246 11259 11215 
3 1257 10440 8847 
3 6585 10177 10168 
3 2191 9882 1524 
3 4633 10212 4631 
3 10606 10952 6882 
3 582 10790 580 
3 1667 10194 1669 
3 2902 10351 2904 
3 3699 10465 9956 
3 8444 10548 8442 
3 11173 11314 8647 
3 303 9944 302 
3 2769 10651 2834 
3 4358 10025 5027 
3 6043 10779 6042 
3 8124 10798 7805 
3 7954 10502 10409 
3 1925 10871 10506 
3 3299 10111 3860 
3 6283 11198 7036 
3 7890 11161 9088 
3 10659 11046 8487 
3 8881 10222 9618 
3 93 9113 455 
3 686 10670 708 
3 751 10533 10412 
3 9234 10768 1092 
3 1953 10737 1882 
3 2162 10443 7533 
3 2912 10812 2626 
3 2780 10833 8084 
3 3221 10211 2919 
3 3457 10640 8737 
3 9188 10660 3457 
3 3725 10623 9123 
3 4354 10541 7700 
3 5650 10637 8518 
3 9309 10582 5650 
3 5724 10920 5723 
3 5735 9631 6767 
3 5816 10162 10161 
3 5948 10966 6649 
3 6282 11014 10850 
3 9796 10384 6532 
3 6577 10522 10160 
3 8540 10452 10316 
3 10684 10828 5136 
3 5409 10589 5860 
3 6016 10586 6018 
3 10133 10509 7527 
3 2523 10429 3613 
3 5401 10611 8223 
3 6004 10684 6005 
3 6102 10763 6091 
3 7077 10860 10130 
3 1921 9923 2154 
3 7759 10764 10674 
3 709 10495 8821 
3 8580 10608 799 
3 9371 10639 3755 
3 10655 10656 7525 
3 894 10603 892 
3 2616 10615 6582 
3 7345 10885 8549 
3 8230 10812 2912 
3 6039 10639 5935 
3 7177 10677 7170 
3 9088 11161 592 
3 8686 11511 11506 
3 447 8784 211 
3 4262 10758 5129 
3 6694 11062 6154 
3 8005 11187 2994 
3 3482 10576 10449 
3 4380 10758 4262 
3 6142 11001 6087 
3 6178 11269 7076 
3 2488 9584 2487 
3 4290 10606 4190 
3 566 9964 200 
3 11237 11296 455 
3 2033 10803 2031 
3 4683 10198 4681 
3 10412 10533 5986 
3 10681 10706 6638 
3 9809 10641 7983 
3 806 11022 808 
3 5877 10092 2491 
3 3180 10735 3177 
3 4844 10610 8968 
3 6852 10534 5474 
3 6087 10800 6039 
3 83 10549 82 
3 2624 9584 2488 
3 3903 9959 3114 
3 4024 11011 3199 
3 5090 10570 9052 
3 4915 10335 3962 
3 6039 10800 10639 
3 1943 9878 9243 
3 3568 10692 9118 
3 4555 9717 4558 
3 5168 10643 8932 
3 4101 10575 3243 
3 3636 11003 10939 
3 2766 9709 2542 
3 5924 10719 10431 
3 6644 10300 5942 
3 6630 10318 10039 
3 7712 10690 9130 
3 8177 10612 8174 
3 1043 10943 1059 
3 4997 10403 6609 
3 1221 10922 10207 
3 4068 10129 9523 
3 10430 10703 4436 
3 9711 10243 4991 
3 5226 10671 6814 
3 6532 10384 9552 
3 9733 11290 1399 
3 3733 10116 3890 
3 5882 10825 6802 
3 7489 10646 10415 
3 4222 10386 9667 
3 4380 10856 10758 
3 6637 10435 6095 
3 10769 10934 6598 
3 7363 10488 10405 
3 10565 11116 1378 
3 1929 10530 10023 
3 2886 10284 8100 
3 3009 10446 9927 
3 5653 10783 4567 
3 6071 10931 10864 
3 6144 11068 10522 
3 10580 10764 7039 
3 10437 10834 7692 
3 8442 10548 10466 
3 9377 9378 8531 
3 8087 10887 3799 
3 4894 10348 9677 
3 7738 10032 4146 
3 1261 10870 3503 
3 4000 10246 3254 
3 6147 10796 4730 
3 9404 11160 9403 
3 1020 10654 1014 
3 6426 10785 5079 
3 9963 10804 9962 
3 5395 10209 4197 
3 5357 10893 5359 
3 9400 10086 5702 
3 10218 10496 6608 
3 3266 10351 2902 
3 9634 10142 7907 
3 3747 10689 3752 
3 3885 10627 3884 
3 5983 10404 4267 
3 5063 10584 9471 
3 5345 10213 5347 
3 8573 10647 5930 
3 10417 10774 8328 
3 8121 11118 8120 
3 2435 9210 2324 
3 7939 11180 6558 
3 10367 10645 6572 
3 7515 10916 7215 
3 7409 10380 10379 
3 1834 10811 1825 
3 2924 10283 2882 
3 3509 10674 8365 
3 5104 10605 9614 
3 6251 10687 10002 
3 6282 10850 6279 
3 3415 10614 953 
3 4294 10830 6330 
3 7878 11090 11052 
3 2904 10351 9567 
3 7707 10973 1683 
3 3494 10649 3496 
3 8219 10896 4896 
3 5606 10061 5608 
3 6650 11156 11143 
3 10894 11049 8467 
3 791 10947 798 
3 2676 10680 2678 
3 4730 10831 4601 
3 4754 11411 10830 
3 7366 10717 6437 
3 8077 10666 7452 
3 3466 10604 3464 
3 7640 10817 7641 
3 2228 9900 1970 
3 4230 10290 8033 
3 886 11003 904 
3 8548 11005 4084 
3 4558 9717 4937 
3 9716 10050 6583 
3 8134 10899 7165 
3 7215 10916 7227 
3 3931 10514 5793 
3 6628 10637 10582 
3 6995 10921 6645 
3 606 9689 604 
3 10365 10778 4241 
3 4772 10538 4774 
3 7724 10778 5954 
3 7016 10617 6014 
3 10718 11074 7727 
3 1600 10236 4559 
3 2046 10475 1890 
3 2068 10745 8804 
3 2083 10882 10714 
3 10534 10930 3928 
3 4962 10699 4279 
3 4592 10769 6598 
3 7195 10983 5354 
3 6060 10888 6981 
3 9619 10746 6654 
3 9134 10817 7640 
3 10415 10646 7758 
3 10431 10719 9304 
3 3107 10482 2764 
3 4568 9819 4154 
3 4218 10934 7191 
3 10450 10550 6497 
3 753 10986 756 
3 1417 10046 1409 
3 9685 10072 1544 
3 10023 10871 1925 
3 1928 10253 1930 
3 1969 10359 1960 
3 2277 10715 2305 
3 2342 11434 9020 
3 3132 9191 3128 
3 11250 11312 3280 
3 3327 10872 3325 
3 4108 10307 3364 
3 9909 10809 3725 
3 3906 10490 4798 
3 10104 10739 3939 
3 4310 11104 7729 
3 9574 10600 4445 
3 4640 11281 11136 
3 4650 10613 5191 
3 4791 10821 7836 
3 8493 10982 4925 
3 10379 10380 5056 
3 9695 10849 5062 
3 5798 10913 9695 
3 6036 10951 6112 
3 6472 10807 6473 
3 7511 10634 6527 
3 10275 10598 6588 
3 6601 10201 9822 
3 10041 11120 6671 
3 6778 8224 7629 
3 10253 11228 8002 
3 8335 10676 9107 
3 10674 10764 8365 
3 1005 9599 1011 
3 1056 10744 1070 
3 4707 10707 6038 
3 2588 11013 2246 
3 10529 10677 2822 
3 5708 10686 9801 
3 6227 10699 5861 
3 1933 10253 1928 
3 5852 10383 5988 
3 8550 10901 5603 
3 7629 8224 7630 
3 8285 10422 7234 
3 6189 10383 5852 
3 5993 10688 5992 
3 1631 10843 3365 
3 2878 10038 2881 
3 2443 9899 2549 
3 9552 10384 9553 
3 10910 10938 1974 
3 8487 10833 10659 
3 4247 10975 4943 
3 4865 10336 4867 
3 11243 11254 6165 
3 6488 10243 9711 
3 2971 10864 10079 
3 7693 10834 7696 
3 2108 10421 7766 
3 2626 10812 2539 
3 5997 10913 10487 
3 10803 10935 7456 
3 6091 10673 6068 
3 211 8784 210 
3 10614 10710 955 
3 5258 10736 4693 
3 6405 10708 7309 
3 2699 10210 2762 
3 3806 10942 10214 
3 9002 10706 4583 
3 6473 10793 8842 
3 3603 10728 9000 
3 5804 10801 9440 
3 6003 10762 6030 
3 6134 10879 9812 
3 10361 10694 8102 
3 200 9964 199 
3 299 9832 298 
3 9023 10826 9828 
3 9854 10343 9368 
3 10050 10244 6583 
3 1659 9877 4614 
3 6441 10515 7075 
3 6725 11333 9297 
3 9532 10872 10791 
3 10092 10693 4259 
3 10914 11013 9133 
3 5200 10025 4358 
3 4775 10606 6242 
3 10699 10959 5203 
3 7562 10730 5598 
3 13 9375 12 
3 7887 10902 2971 
3 3260 10526 3258 
3 10582 10637 5650 
3 5989 10755 6119 
3 9824 10723 7065 
3 2631 11119 2633 
3 8662 10666 8077 
3 8253 10272 8254 
3 8832 10944 4967 
3 1230 10665 1073 
3 1418 10696 1471 
3 2174 9753 2347 
3 4583 10681 8395 
3 5509 10992 7944 
3 9386 10984 7007 
3 7456 10935 10732 
3 7005 10581 5398 
3 9930 10937 6653 
3 4153 10171 4934 
3 4798 10490 5689 
3 7631 10106 5700 
3 8739 10759 6613 
3 4134 10265 2862 
3 4190 10606 4775 
3 6063 11010 8939 
3 5994 10770 4607 
3 2661 11302 11034 
3 6767 9631 9630 
3 8033 10810 4924 
3 7451 10719 5924 
3 11124 11134 6113 
3 5211 11521 6206 
3 1277 10945 1352 
3 10346 10683 7044 
3 10966 11019 708 
3 2862 10265 2860 
3 8832 8833 8054 
3 10544 10555 9189 
3 10044 10995 10603 
3 10481 10657 6569 
3 8322 10753 4420 
3 6216 10538 4772 
3 5710 11091 8864 
3 8277 10949 2594 
3 10058 10757 10168 
3 890 10743 888 
3 3524 10086 9400 
3 6162 11257 10203 
3 1919 9923 1921 
3 4779 10578 6303 
3 5104 10678 10605 
3 10705 10862 5139 
3 5542 10924 7283 
3 7358 10933 9402 
3 11356 11359 2652 
3 9215 10731 7197 
3 3456 10592 8904 
3 9910 10569 4431 
3 6040 10869 6993 
3 10726 10797 7961 
3 6009 10083 4821 
3 5947 10869 6040 
3 6624 10724 10715 
3 7578 10848 7906 
3 10522 11068 1953 
3 4542 10824 9623 
3 5955 10745 6623 
3 6055 10809 6036 
3 10549 10879 6640 
3 7002 10901 8550 
3 7044 10683 7207 
3 8468 11095 8470 
3 3731 10404 2949 
3 6059 10749 8638 
3 8195 10009 8196 
3 10796 10831 4730 
3 8945 10620 10084 
3 2881 10284 2883 
3 4701 10761 4090 
3 8365 10764 4980 
3 8969 10788 6019 
3 9713 10460 6451 
3 3516 11166 7602 
3 4618 10672 5226 
3 5544 10740 6651 
3 10024 11014 7487 
3 10780 11071 6167 
3 7512 10889 7514 
3 2987 10403 3780 
3 763 11110 766 
3 2526 10500 2481 
3 3457 10660 10640 
3 11131 11189 6674 
3 94 9113 93 
3 6071 10864 6069 
3 2975 10210 2699 
3 8590 10497 9500 
3 9611 10918 6033 
3 7641 10817 7644 
3 604 9689 1201 
3 7992 10543 10132 
3 8187 11204 8188 
3 193 8783 192 
3 7813 10209 5395 
3 2661 11034 8247 
3 4332 10463 5245 
3 2879 10361 10038 
3 7371 10589 5409 
3 6734 11388 6735 
3 9778 10768 9234 
3 3625 11090 9690 
3 6136 11145 6701 
3 10207 10922 7106 
3 5923 9675 3284 
3 6057 11125 10831 
3 5275 10000 4319 
3 5940 10741 6659 
3 8429 10626 6320 
3 6669 11116 10565 
3 9461 10805 7752 
3 602 10644 600 
3 4290 10952 10606 
3 6010 11054 6592 
3 6668 10878 6104 
3 5158 11056 11040 
3 5105 10678 5104 
3 812 10840 814 
3 8366 10838 4030 
3 4371 10487 4369 
3 4896 10896 5840 
3 8257 9659 9657 
3 9690 11090 10587 
3 7624 10406 4432 
3 9268 11166 5310 
3 6096 11056 9406 
3 8932 10999 9236 
3 455 11296 9099 
3 1047 10929 1069 
3 1059 11074 9594 
3 3340 10937 8078 
3 4253 10516 4254 
3 8595 10816 4532 
3 8917 11048 8293 
3 8603 11070 9184 
3 2035 10935 2033 
3 9563 10856 4380 
3 10459 10460 4965 
3 9617 10545 5038 
3 3853 11498 11492 
3 7456 10732 5980 
3 2107 10148 2106 
3 10035 10883 3592 
3 4903 10468 5857 
3 5219 10997 10923 
3 7455 10946 7456 
3 8035 11267 11241 
3 2845 10621 10395 
3 3362 10813 8600 
3 3433 10726 10221 
3 9156 9701 4391 
3 10537 10821 4791 
3 5582 10751 9726 
3 7943 10750 7087 
3 3780 10403 4997 
3 9757 10416 9758 
3 3298 10111 3299 
3 5840 10708 6405 
3 6595 10138 10137 
3 10524 11089 6635 
3 9901 11014 10024 
3 708 11019 8979 
3 6519 10773 9521 
3 7787 10138 6595 
3 7738 10033 10032 
3 5874 10263 3277 
3 3979 10814 3585 
3 9125 11176 11146 
3 5897 10757 10058 
3 7663 11107 10178 
3 9266 10814 7978 
3 2537 10496 10218 
3 5479 10771 7746 
3 10507 10508 6634 
3 1099 10789 2415 
3 4707 10727 10707 
3 4844 10698 10610 
3 10061 10650 5608 
3 8902 11346 6964 
3 8389 10775 8388 
3 8391 10953 8389 
3 1011 9599 9598 
3 1122 10777 2068 
3 1446 10414 1420 
3 10639 10800 3755 
3 4604 10718 9958 
3 4724 11188 9125 
3 9988 11071 6580 
3 6666 10781 6667 
3 7960 10682 7957 
3 8776 11165 8775 
3 2085 10714 3631 
3 3126 8851 7984 
3 9721 10763 3790 
3 4300 10578 4779 
3 9698 10698 4844 
3 6078 10942 6073 
3 7099 10897 7680 
3 7196 11263 11108 
3 9235 10818 1379 
3 1669 10194 2694 
3 2166 9821 2168 
3 2777 10849 10458 
3 9353 11244 3525 
3 3548 10577 9537 
3 7812 10851 3559 
3 3643 11184 9480 
3 3869 10057 7875 
3 4802 10578 4300 
3 4369 10487 5798 
3 4583 10706 10681 
3 4631 10212 4697 
3 5158 11040 4711 
3 5121 10587 5120 
3 5154 11101 5155 
3 9954 10197 5215 
3 10220 11075 5514 
3 6377 11055 5545 
3 10728 10863 6025 
3 6672 11094 6098 
3 6137 11133 11106 
3 6474 10841 6472 
3 7876 9582 6567 
3 6642 11044 6643 
3 11016 11094 6672 
3 9755 11162 7763 
3 10633 10750 7943 
3 8283 10630 10608 
3 10854 11021 9985 
3 1660 9877 1659 
3 8973 10727 4707 
3 10182 10553 5349 
3 432 10879 10549 
3 1201 10644 602 
3 3022 11131 3797 
3 5166 11182 4868 
3 6665 11060 6664 
3 7864 10905 7866 
3 5391 10860 7077 
3 10484 11384 11368 
3 2327 10315 2330 
3 7755 11082 5158 
3 6317 10852 5323 
3 11106 11133 1622 
3 10045 10432 2981 
3 5056 10380 9538 
3 10864 10902 6069 
3 7430 10968 7431 
3 6402 10815 9884 
3 7439 11142 7441 
3 1111 10827 1109 
3 1118 10822 1120 
3 8142 10716 2974 
3 7447 11046 6089 
3 5700 10106 6033 
3 7191 10934 10769 
3 5103 10518 10517 
3 10877 11087 5194 
3 4356 10541 4354 
3 9828 10826 2309 
3 2424 10734 2422 
3 10972 11004 3702 
3 1259 10870 1261 
3 2619 11140 2631 
3 3817 10195 3411 
3 9947 11265 6174 
3 6567 9582 9039 
3 10132 10543 3700 
3 81 10747 481 
3 2177 11097 1967 
3 5864 10456 5035 
3 6121 11240 7392 
3 6124 10958 6122 
3 2436 10315 2327 
3 2518 10776 9723 
3 6226 11461 11412 
3 6383 10720 8071 
3 3700 10543 8593 
3 6622 10979 9934 
3 10608 10630 799 
3 2482 10667 10513 
3 2875 11029 10979 
3 4096 11049 4104 
3 10852 11063 5323 
3 6100 10846 5819 
3 10668 10694 10361 
3 11032 11152 5524 
3 4090 10761 4091 
3 6579 10960 6986 
3 6625 11030 6626 
3 3571 11102 8885 
3 6090 10887 6092 
3 6631 10748 6632 
3 11492 11498 6738 
3 6112 11064 5633 
3 1211 10988 1060 
3 5062 10849 2524 
3 7047 10609 6644 
3 5120 10587 6077 
3 768 11132 3537 
3 5967 10933 10782 
3 3108 10468 4903 
3 10103 10473 3929 
3 4671 10632 4669 
3 6388 10307 4108 
3 11110 11413 6938 
3 3929 10473 6982 
3 5996 10772 10577 
3 7425 10858 7426 
3 7428 10963 7430 
3 8102 10694 9825 
3 11172 11183 8345 
3 11019 11043 8979 
3 1409 10046 1421 
3 10039 10318 4054 
3 6231 11556 11554 
3 7957 10682 7959 
3 7766 10474 7767 
3 740 10835 1395 
3 4430 10131 3112 
3 10034 11017 6565 
3 11138 11145 10875 
3 10203 10378 6084 
3 524 11114 86 
3 3049 10057 3869 
3 5406 10541 4356 
3 10471 10647 9366 
3 7010 10815 6402 
3 6651 11123 8405 
3 6793 11312 11250 
3 5035 10456 5006 
3 10211 11144 9564 
3 7842 11444 11433 
3 8552 10847 10702 
3 6752 10713 5280 
3 8811 10911 8812 
3 9186 10832 9830 
3 4402 11117 5335 
3 10130 11130 4709 
3 6026 10826 10705 
3 1014 10654 3308 
3 7944 10992 3361 
3 5984 10833 8487 
3 6976 11068 6027 
3 6061 10888 6060 
3 7588 11033 10704 
3 8551 10847 8552 
3 8842 10793 10748 
3 2511 10797 3433 
3 3411 10195 5050 
3 3913 10980 4803 
3 10564 10936 6529 
3 6728 11402 11212 
3 7122 10912 5976 
3 9335 10799 7267 
3 8646 11122 2486 
3 8119 10755 5989 
3 8671 11156 9209 
3 2958 11050 10429 
3 8872 10774 10417 
3 9184 11070 11059 
3 1604 10808 1606 
3 10668 10669 6622 
3 8891 11284 6696 
3 3798 10891 7887 
3 6442 10201 5895 
3 6104 10878 6102 
3 9129 11181 11075 
3 5284 10760 7206 
3 10898 10922 8414 
3 7984 8851 7985 
3 1514 10784 1556 
3 2498 10078 2499 
3 6480 10712 6481 
3 9897 10855 10148 
3 578 10909 3573 
3 3259 9913 3262 
3 2898 9725 4392 
3 6575 10965 5701 
3 5193 10877 5194 
3 6527 10634 10215 
3 10220 11203 6699 
3 10438 11353 2026 
3 9369 10844 5642 
3 9723 10794 5732 
3 8246 11215 5149 
3 8371 10691 6533 
3 3257 9913 3259 
3 4951 10464 4953 
3 10818 10819 7915 
3 9184 11059 3043 
3 3264 11159 9635 
3 2609 10935 2035 
3 3106 10900 7909 
3 2974 10685 9978 
3 6652 11273 11224 
3 76 11167 75 
3 2777 10854 9985 
3 6012 10861 6519 
3 4721 10526 3959 
3 10662 10934 4956 
3 584 11066 2315 
3 2110 10148 2107 
3 5148 11203 5514 
3 9217 11105 9409 
3 4260 10941 10327 
3 4764 11278 6130 
3 11044 11101 5154 
3 10762 10816 6030 
3 9612 10918 9611 
3 3452 11099 2289 
3 9897 10801 5804 
3 8106 10895 9877 
3 9409 11105 6979 
3 5226 10672 10671 
3 6156 11077 6694 
3 6885 10754 6607 
3 2876 10669 2879 
3 8405 11123 5358 
3 10145 10241 5887 
3 10957 11111 5902 
3 6069 10902 6051 
3 1332 10837 1476 
3 8415 10898 8414 
3 9594 11074 10718 
3 3178 10641 9809 
3 5942 10368 10059 
3 6649 10966 10670 
3 3935 10627 3885 
3 7359 10767 5479 
3 10596 10725 5965 
3 10951 10999 6112 
3 6252 10917 6251 
3 10517 10518 7710 
3 6102 10878 10763 
3 6618 10974 7995 
3 7461 11195 7460 
3 1022 10943 1043 
3 2823 10823 2827 
3 7540 11007 2894 
3 6024 10863 7062 
3 6258 10904 6842 
3 6472 10841 10807 
3 10168 10757 6586 
3 7216 11050 6946 
3 9127 11107 10970 
3 8311 10780 2648 
3 6580 11239 7006 
3 6654 10925 7181 
3 3702 11004 8650 
3 5930 10647 10471 
3 746 10829 748 
3 10829 11351 1435 
3 1449 11016 10173 
3 8002 11247 1939 
3 9794 10880 2284 
3 2309 10826 10567 
3 10499 11055 2440 
3 2784 10078 2498 
3 3400 10819 9235 
3 8643 10936 3754 
3 3840 9976 3841 
3 5902 11111 5093 
3 9980 11182 5166 
3 7797 10632 5262 
3 5320 11069 10008 
3 5594 10742 9652 
3 10514 11268 5793 
3 6108 10772 5996 
3 6007 10828 10102 
3 6035 10859 8551 
3 6473 10807 10768 
3 6519 10861 10773 
3 10758 10856 6613 
3 6633 10729 7278 
3 10671 10672 6635 
3 10741 11017 6659 
3 7284 10806 10387 
3 11327 11336 7499 
3 8206 11163 11148 
3 8465 10894 8467 
3 7449 10949 5995 
3 6691 10854 8509 
3 6882 10952 6892 
3 6668 11009 10837 
3 6632 10793 9778 
3 11093 11106 9197 
3 5219 10923 4936 
3 9311 11173 8647 
3 9113 11237 455 
3 590 11161 1766 
3 8016 10972 3702 
3 2073 11172 8345 
3 4267 10404 3731 
3 3890 10116 4320 
3 6558 11180 10354 
3 1683 10973 1846 
3 6642 11111 11101 
3 3433 10797 10726 
3 6227 10959 10699 
3 5959 10724 5958 
3 1336 11078 1338 
3 2323 10087 2434 
3 84 11153 432 
3 10982 11041 4925 
3 2281 10880 2279 
3 11127 11230 6269 
3 1905 10910 1847 
3 5068 10916 7515 
3 9146 10964 4006 
3 6094 11018 6636 
3 7356 11280 7355 
3 6481 10712 6819 
3 8078 10937 10811 
3 2471 10914 10232 
3 712 11172 2073 
3 2882 10283 2880 
3 3503 10834 10437 
3 10327 10941 6629 
3 10603 10995 8697 
3 6129 11172 710 
3 3132 9192 9191 
3 6725 11405 11315 
3 10499 11220 7448 
3 3699 10652 10465 
3 11102 11157 8634 
3 1410 11116 1449 
3 525 11330 9081 
3 7321 11361 7324 
3 11409 11423 6719 
3 11075 11181 5514 
3 10513 11231 2306 
3 4953 10464 5985 
3 5895 10201 6601 
3 6613 10856 6022 
3 4404 10805 9461 
3 7097 10897 7099 
3 4980 10764 10580 
3 10018 10416 9757 
3 3389 10932 963 
3 4532 10816 10762 
3 6747 11533 11478 
3 4580 11175 5610 
3 7877 10853 5979 
3 10567 10826 6026 
3 9691 10820 3469 
3 5400 11183 8634 
3 5740 10838 8366 
3 6533 10691 8479 
3 9133 11013 11010 
3 7205 10808 10407 
3 1420 10414 8133 
3 6151 11193 8637 
3 10803 10946 3340 
3 8979 11043 3794 
3 6002 11181 10978 
3 8121 11140 11118 
3 10670 10966 708 
3 8920 11271 3389 
3 9310 11258 11113 
3 7909 10900 5749 
3 7079 11305 6382 
3 7437 11004 10972 
3 6020 10890 9736 
3 8364 11221 8982 
3 2900 9725 2898 
3 7762 10994 7845 
3 6619 11206 11152 
3 10030 10886 10474 
3 10173 11016 5902 
3 10577 10772 9537 
3 5610 11175 9268 
3 930 11179 933 
3 4817 11030 10961 
3 9500 10497 5931 
3 10768 10807 1092 
3 9284 11251 5612 
3 6073 10931 6071 
3 6136 11092 10875 
3 8114 11111 10957 
3 2008 10906 1905 
3 3799 11058 2570 
3 10810 11129 4924 
3 7435 11026 11004 
3 9577 11176 10094 
3 8078 10811 1834 
3 7792 10855 9897 
3 2284 10880 2281 
3 4272 10874 6703 
3 7525 10656 7051 
3 10387 10806 9949 
3 682 10908 684 
3 9288 11012 6424 
3 10465 10653 7262 
3 2875 10979 10669 
3 6676 11064 10643 
3 9360 11423 11409 
3 4734 11287 10697 
3 10701 10729 6633 
3 10148 10855 2106 
3 10940 10941 5983 
3 2776 10850 9901 
3 568 10009 8195 
3 8295 11208 3602 
3 6751 10553 10182 
3 11004 11026 8650 
3 1338 11078 3020 
3 3822 10629 10508 
3 5603 10901 9358 
3 10383 11321 6180 
3 4614 10755 10257 
3 2879 10668 10361 
3 10763 10878 3790 
3 4261 11194 5622 
3 4411 10921 8886 
3 5655 11369 9218 
3 8551 10859 10847 
3 3277 10263 3895 
3 789 10947 791 
3 2969 11083 2867 
3 4254 10516 4584 
3 8208 10868 6053 
3 6092 10887 10602 
3 6210 11165 6937 
3 6263 10917 6252 
3 10998 11050 2958 
3 4420 10753 10149 
3 4971 10733 8709 
3 5160 10697 6969 
3 5719 10860 5391 
3 5999 10975 10118 
3 11122 11314 6705 
3 8959 11071 10780 
3 9139 11382 11370 
3 10784 10978 1556 
3 2303 11231 2308 
3 9681 10500 2526 
3 9959 10839 3131 
3 3394 10873 7980 
3 3775 10955 8413 
3 11043 11093 3794 
3 4738 11248 8913 
3 10785 10786 5079 
3 6952 10893 5357 
3 5958 10724 6624 
3 10684 10722 6005 
3 6161 11234 10527 
3 7354 11373 6185 
3 6793 11178 6302 
3 8110 10588 6536 
3 11173 11194 7070 
3 7886 10924 10787 
3 9023 10862 10705 
3 9129 11075 10518 
3 4828 11166 3516 
3 10795 10894 8465 
3 4596 10635 7425 
3 4989 10742 5594 
3 6798 10997 5219 
3 5890 10892 6443 
3 6692 11307 11270 
3 8122 11235 8242 
3 9099 11311 525 
3 770 11191 773 
3 10487 10913 5798 
3 6697 11189 4741 
3 9221 10693 5877 
3 7602 11175 6334 
3 6592 11054 7890 
3 9402 10933 10100 
3 3777 11286 8583 
3 5980 10454 5110 
3 9097 11410 523 
3 7494 11279 3197 
3 6065 10889 7512 
3 6812 10821 10537 
3 6066 10939 7772 
3 7431 10969 7433 
3 76 11232 11167 
3 10602 10887 8087 
3 3325 10872 9532 
3 5203 10959 6738 
3 9268 11192 5610 
3 3449 11168 10915 
3 10767 10771 5479 
3 3797 11131 10288 
3 10010 11031 3862 
3 7084 10867 7083 
3 9022 10862 9023 
3 10842 10891 3798 
3 2457 11186 882 
3 3771 10948 5859 
3 5444 11259 8246 
3 2879 10038 2878 
3 3603 10863 10728 
3 4098 10635 4596 
3 5531 10752 5532 
3 7778 10987 10963 
3 808 10950 810 
3 1585 11283 8249 
3 9978 10842 3798 
3 10084 10620 6450 
3 2959 10998 2958 
3 5994 11028 10770 
3 6800 10956 10739 
3 7433 11026 7435 
3 11235 11242 6120 
3 8934 11201 6150 
3 6076 11207 6538 
3 11265 11288 6174 
3 5723 10920 7576 
3 7763 11088 7761 
3 7906 10742 4989 
3 10758 10759 5129 
3 9078 11342 9077 
3 2864 11224 4134 
3 5262 10632 4671 
3 6085 11047 6660 
3 7465 10709 8530 
3 10964 10965 7075 
3 1960 10359 5477 
3 11228 11247 8002 
3 10601 10721 5991 
3 7437 10972 7439 
3 10814 11042 7978 
3 10232 10914 10707 
3 5599 11002 7510 
3 8206 11148 9664 
3 10776 10794 9723 
3 10748 10793 6632 
3 7778 10963 7428 
3 11351 11370 1435 
3 9236 10999 2760 
3 5514 11203 10220 
3 6033 10876 5653 
3 10300 10368 5942 
3 10643 11064 6112 
3 8464 10795 8465 
3 3688 11027 6446 
3 6279 10850 10247 
3 6644 10628 10300 
3 3794 11093 9197 
3 6570 11202 5334 
3 11321 11325 6180 
3 9949 10806 2288 
3 6047 10842 10685 
3 3822 10508 10507 
3 1266 10945 1277 
3 10315 10971 2330 
3 4640 11136 4642 
3 5524 11152 8196 
3 9936 10504 5907 
3 10008 11069 7250 
3 8731 11192 9268 
3 10353 11139 4575 
3 9816 11196 6173 
3 6688 11125 6687 
3 1533 11334 1535 
3 11018 11025 6636 
3 9197 11106 1622 
3 10401 10629 3822 
3 10919 11112 6708 
3 7006 11239 10988 
3 61 11212 60 
3 2883 10284 2886 
3 5119 11006 9221 
3 10642 11006 5119 
3 3979 11042 10814 
3 2924 10628 10609 
3 4238 11147 9353 
3 5907 10504 5909 
3 10770 11028 6574 
3 7725 10725 10596 
3 5194 10804 9963 
3 10952 11154 6892 
3 10474 10886 7767 
3 6674 11216 4999 
3 7251 10962 5457 
3 10421 10474 7766 
3 10511 10795 8464 
3 1087 11210 1089 
3 4259 10301 2948 
3 8561 10903 7401 
3 11009 11062 1476 
3 3055 10836 10057 
3 8707 10954 3771 
3 4826 11063 4827 
3 8382 10966 5948 
3 6643 11044 11008 
3 7491 11275 9112 
3 8596 11028 5994 
3 608 11052 3625 
3 10692 10773 9118 
3 5446 11211 6231 
3 3755 10800 9232 
3 4711 11040 5091 
3 5282 10713 6832 
3 8016 11142 10972 
3 9127 10970 1689 
3 9997 11420 11400 
3 6237 10919 6239 
3 8247 11034 5579 
3 8414 10922 1221 
3 9532 10791 5015 
3 6122 11047 6085 
3 10247 10850 2776 
3 6132 10875 6133 
3 6152 11062 11009 
3 9088 11256 7890 
3 7570 11328 4155 
3 10969 11026 7433 
3 10407 10808 1604 
3 8393 11005 8391 
3 80 11249 79 
3 1621 11225 775 
3 3405 10350 8613 
3 4732 11218 6120 
3 6015 10953 8548 
3 6093 11151 8121 
3 9687 11285 8921 
3 5967 10782 10434 
3 9743 10782 6641 
3 11094 11116 6669 
3 10278 11115 7461 
3 10046 10441 1421 
3 8673 10984 1447 
3 3525 11012 9288 
3 3782 11238 9228 
3 11031 11178 3862 
3 5091 11017 10034 
3 11040 11150 5091 
3 5183 11293 11267 
3 5463 11080 6965 
3 11082 11124 6113 
3 6613 10759 10758 
3 6643 11008 9904 
3 10957 11016 6672 
3 11125 11134 6687 
3 6703 11260 6704 
3 7299 10711 10329 
3 7622 11015 7623 
3 7919 10926 7917 
3 8036 11379 11355 
3 8382 11019 10966 
3 9521 10773 10692 
3 6629 10940 5137 
3 6774 10590 5917 
3 1993 10866 10381 
3 6536 10588 7391 
3 10389 10952 4290 
3 5180 11284 11261 
3 10650 10868 5608 
3 6689 11138 6132 
3 6683 11285 9687 
3 2948 10301 3688 
3 5976 10912 10001 
3 2867 11083 2869 
3 4708 10886 10030 
3 2732 10642 2451 
3 6854 11020 10930 
3 2570 11058 2618 
3 11296 11311 9099 
3 10940 11126 6121 
3 6264 11031 6263 
3 7101 11000 7103 
3 3790 10993 1328 
3 9781 11006 6647 
3 7456 10946 10803 
3 2246 11013 2471 
3 1846 10973 2011 
3 9966 10805 4404 
3 614 10976 612 
3 2885 11073 2887 
3 4967 10944 6169 
3 779 11245 8557 
3 5634 11163 8206 
3 10118 10975 4247 
3 4734 10697 4483 
3 5280 10713 5282 
3 3339 10766 10765 
3 11368 11384 7320 
3 574 11032 5524 
3 1028 10929 1047 
3 2310 11100 11015 
3 11136 11281 6710 
3 5015 10791 7568 
3 5992 10839 9959 
3 7799 10629 10401 
3 756 10986 2394 
3 1821 11026 10969 
3 3910 10980 3913 
3 5979 10853 6600 
3 5233 10792 5758 
3 7500 11069 5320 
3 6306 10752 5531 
3 7054 10996 8771 
3 3959 10526 3260 
3 9931 11222 4733 
3 1060 10988 1062 
3 8959 11239 11071 
3 1449 11094 11016 
3 4935 10865 6325 
3 11139 11202 6570 
3 1821 10969 9750 
3 3857 10919 10492 
3 9750 10968 5509 
3 2471 11013 10914 
3 6154 11062 6152 
3 6167 11098 10780 
3 9125 11146 7793 
3 6089 11046 10659 
3 11196 11303 6712 
3 6675 10990 6067 
3 8183 11226 526 
3 5354 10983 6062 
3 904 11003 3636 
3 6125 11092 6136 
3 6087 11001 10800 
3 6664 11059 6666 
3 6691 11021 10854 
3 6172 11077 6156 
3 8404 11088 4723 
3 5719 10977 10860 
3 1556 10978 9129 
3 10931 10942 3806 
3 7231 10961 6625 
3 2451 10642 5119 
3 11311 11330 525 
3 10700 11139 6570 
3 3361 10987 1833 
3 6656 10982 6658 
3 7945 11072 10482 
3 9133 11010 6063 
3 10429 11050 7216 
3 10963 10987 3361 
3 11058 11118 2618 
3 6701 10958 6124 
3 6117 11133 6137 
3 10219 10991 7611 
3 9519 11019 8382 
3 9310 11113 1826 
3 6965 11302 6179 
3 7435 11004 7437 
3 9980 11220 11182 
3 3151 11294 10241 
3 11000 11045 7103 
3 8516 10995 10044 
3 2873 11029 2875 
3 5633 11064 5634 
3 7793 10938 7791 
3 10743 10881 888 
3 6668 10993 10878 
3 11144 11305 7142 
3 3464 11266 927 
3 6729 11316 4162 
3 6082 10695 6080 
3 10027 11255 8859 
3 8295 11289 11208 
3 616 11053 614 
3 1841 10127 1629 
3 1689 10970 9134 
3 3199 11011 3220 
3 4157 11326 4156 
3 4442 11190 5174 
3 10100 10933 5967 
3 6383 10802 10720 
3 8637 11346 8636 
3 794 11085 9383 
3 8869 11282 4737 
3 11034 11302 6965 
3 2760 10951 9909 
3 2865 11023 2969 
3 2879 10669 10668 
3 8149 11319 3909 
3 5191 11385 11381 
3 9145 11241 6199 
3 6598 10934 10662 
3 7000 11200 6999 
3 7762 11121 10994 
3 9519 11043 11019 
3 432 11153 11079 
3 1367 11289 8295 
3 61 11417 11212 
3 6263 11031 11007 
3 3151 10241 10145 
3 6230 11556 5397 
3 10349 10350 3405 
3 9985 11021 3776 
3 6062 11084 8482 
3 11162 11195 7461 
3 3776 11021 10081 
3 6730 11347 6729 
3 10917 11007 7540 
3 3197 11279 2868 
3 8939 11051 6665 
3 6852 10930 10534 
3 8293 11048 8294 
3 77 11232 76 
3 6371 10792 5233 
3 5980 10732 10454 
3 6126 11275 7491 
3 6642 11101 11044 
3 8093 10883 10035 
3 10839 11033 3131 
3 10685 10842 9978 
3 6164 11226 6619 
3 28 11517 11464 
3 7510 11002 9703 
3 10809 10951 6036 
3 11141 11202 6228 
3 8530 10709 5062 
3 5917 10590 5915 
3 1476 11081 1334 
3 5840 10896 10708 
3 1661 11109 8186 
3 5093 11111 6642 
3 10818 10926 1379 
3 1965 10127 1841 
3 871 11252 8944 
3 11169 11273 6159 
3 10756 10927 3350 
3 6179 11327 7499 
3 9931 11291 11222 
3 10873 11039 7921 
3 3043 11060 8917 
3 4378 11300 4736 
3 6947 11292 10183 
3 9243 10866 1993 
3 4575 11139 10700 
3 11341 11352 10090 
3 6660 10695 6082 
3 3954 11076 3948 
3 10707 10914 6038 
3 10652 10653 10465 
3 7125 10977 5719 
3 6013 11291 9931 
3 6152 11009 6106 
3 6195 11420 7354 
3 6263 11007 10917 
3 11059 11070 6666 
3 8650 11026 1821 
3 5514 11181 5167 
3 6117 11157 11133 
3 6673 10957 6672 
3 10528 11129 6023 
3 4636 11281 4637 
3 10885 10890 8549 
3 7443 11258 7445 
3 6009 10985 10083 
3 7103 11045 7105 
3 9670 11383 11380 
3 6053 10868 10650 
3 6141 11043 9519 
3 9235 10819 10818 
3 10492 10919 6237 
3 10214 11067 2970 
3 11332 11336 3382 
3 10389 11154 10952 
3 10587 11090 6077 
3 11040 11056 6655 
3 4735 11307 5182 
3 3602 11107 9127 
3 5877 10693 10092 
3 6133 11092 6175 
3 7441 11113 7443 
3 2760 10999 10951 
3 6717 11037 5949 
3 3097 11250 3280 
3 10609 10628 6644 
3 9909 10951 10809 
3 8618 10991 4179 
3 5653 10876 10783 
3 11532 11549 7093 
3 8831 11272 8832 
3 11282 11297 6704 
3 6172 11143 11077 
3 11148 11163 6677 
3 5929 11168 9795 
3 10780 11098 2648 
3 10172 11042 3979 
3 10183 11292 3412 
3 22 11510 11503 
3 6705 11297 11122 
3 7070 11314 11173 
3 9736 10890 10885 
3 3131 11033 7588 
3 9225 11039 3394 
3 6993 11096 6088 
3 6655 11056 6096 
3 6837 11104 6108 
3 6141 11093 11043 
3 6183 11360 8032 
3 6657 11041 6656 
3 7729 10981 6780 
3 7463 11231 10513 
3 9024 11035 10989 
3 11363 11374 9404 
3 10739 10956 10062 
3 6200 11447 11440 
3 10329 10711 4825 
3 5323 11063 4826 
3 8634 11157 6117 
3 454 11366 9097 
3 8864 11091 3360 
3 11195 11231 7463 
3 9076 11435 11428 
3 11114 11153 85 
3 9619 11057 6111 
3 6706 11299 6707 
3 8080 11130 6336 
3 10883 11038 3592 
3 9855 10989 5161 
3 11077 11143 3020 
3 4179 10991 10219 
3 10983 11084 6062 
3 11177 11217 6127 
3 427 11280 11232 
3 4719 11049 4096 
3 9232 11001 1661 
3 7596 10653 10652 
3 523 11372 9079 
3 7727 11074 7728 
3 9045 11080 5463 
3 10119 11419 4754 
3 6793 11250 11178 
3 3251 11025 3596 
3 11077 11078 6694 
3 5193 11315 10877 
3 6139 11106 11093 
3 9784 11036 6377 
3 6658 10866 9243 
3 8490 11065 8492 
3 10792 11294 5758 
3 5978 11087 6034 
3 2968 11138 11029 
3 3394 11039 10873 
3 6139 11093 6141 
3 10618 10695 6660 
3 9877 10895 4614 
3 9673 11255 10027 
3 10875 11092 6133 
3 10669 10979 6622 
3 6854 10930 6852 
3 8467 11095 8468 
3 9480 11184 5467 
3 6694 11081 11062 
3 7917 10926 10818 
3 2291 11100 2293 
3 6075 11079 6702 
3 10057 10836 7875 
3 10108 11406 11371 
3 6656 11041 10982 
3 9406 11082 6113 
3 917 11317 919 
3 6629 10941 10940 
3 6704 11297 6705 
3 3771 10954 10948 
3 10963 10992 7430 
3 6130 11211 9373 
3 6100 11271 10846 
3 8647 11122 8646 
3 4483 10697 5160 
3 10906 10910 1905 
3 1967 11097 1843 
3 7252 11152 11032 
3 86 11114 85 
3 11188 11261 8892 
3 10878 10993 3790 
3 10614 11276 6344 
3 8190 11397 8472 
3 10257 10755 8119 
3 9524 11253 524 
3 2633 11119 3264 
3 6662 11158 6661 
3 10846 11271 8920 
3 1378 11116 1410 
3 6115 11086 6114 
3 6639 11170 7141 
3 3382 11336 8125 
3 5587 11182 7798 
3 10458 10913 5997 
3 8885 11102 6129 
3 7763 11115 11088 
3 11101 11111 8114 
3 2538 11197 2909 
3 6660 11047 11023 
3 6978 11171 8070 
3 10837 11009 1476 
3 10463 11020 5245 
3 11391 11434 8138 
3 2968 11145 11138 
3 3415 11276 10614 
3 3452 11155 11099 
3 5095 11126 5983 
3 10482 11072 2765 
3 9876 11303 4273 
3 6382 11305 10948 
3 2871 11103 2968 
3 8120 11118 6675 
3 6023 11129 10810 
3 10958 11083 2969 
3 6137 11106 6139 
3 6650 11143 6172 
3 592 11161 590 
3 7794 10910 10906 
3 1622 11133 8981 
3 2887 11073 11065 
3 6146 11264 6178 
3 10283 11338 4474 
3 6228 11513 11500 
3 85 11153 84 
3 11270 11307 6173 
3 2988 11112 3857 
3 8007 11246 4519 
3 6560 11109 6142 
3 8391 11005 10953 
3 3361 10992 10963 
3 10968 10969 7431 
3 6503 11351 6711 
3 2618 11140 2619 
3 6264 11178 11031 
3 6702 11153 11114 
3 10953 11005 8548 
3 2765 11072 7601 
3 6078 11067 10942 
3 10522 11214 6144 
3 10658 11170 6639 
3 2289 11099 2291 
3 11301 11306 9265 
3 7307 11294 3151 
3 7791 10938 7794 
3 6679 11286 6681 
3 766 11132 768 
3 4506 11105 9217 
3 9125 11188 11176 
3 6128 11117 4402 
3 4725 11134 6057 
3 3596 11025 11018 
3 5161 11035 9932 
3 6182 11374 11363 
3 10990 11058 3799 
3 4519 11246 8867 
3 6675 11118 11058 
3 761 11110 763 
3 6670 11218 11190 
3 9604 11125 6688 
3 9664 11148 1513 
3 9257 11355 2382 
3 4717 11131 3022 
3 9403 11160 3529 
3 3727 11456 11441 
3 4642 11136 5183 
3 6687 11124 5476 
3 6109 11293 6710 
3 6504 11356 6506 
3 7623 11100 11099 
3 8669 11349 8985 
3 9404 11335 11160 
3 4175 11399 5177 
3 10033 11431 11402 
3 6077 11090 7878 
3 11190 11218 6661 
3 8005 11233 11187 
3 6098 11094 6669 
3 6170 11306 11301 
3 10883 11240 7258 
3 481 11277 11249 
3 4850 11268 5651 
3 7490 11205 6125 
3 6701 11145 11103 
3 8047 11151 6093 
3 8185 11422 2457 
3 11204 11213 8188 
3 9062 11314 7070 
3 8892 11261 8891 
3 10241 11024 5887 
3 9588 11087 5978 
3 7890 11256 7889 
3 2909 11128 7204 
3 5185 11270 6712 
3 6132 11138 10875 
3 2440 11055 11036 
3 6176 11295 7306 
3 5358 11123 7001 
3 6648 11149 8405 
3 4717 11189 11131 
3 2119 11346 8902 
3 11229 11242 3397 
3 11541 11542 6748 
3 3857 11112 10919 
3 6813 11135 11089 
3 6577 11214 10522 
3 614 11053 10976 
3 6666 11070 10781 
3 6648 11171 11149 
3 4723 11115 10278 
3 4924 11120 4238 
3 5651 11268 10514 
3 11304 11313 8313 
3 6687 11134 11124 
3 6057 11134 11125 
3 11029 11138 6689 
3 5190 11329 5655 
3 11375 11446 9077 
3 8634 11183 11102 
3 6118 11164 5446 
3 480 11257 9098 
3 8121 11151 11119 
3 4868 11182 5587 
3 6334 11175 4580 
3 5310 11166 4828 
3 6280 11198 6283 
3 882 11186 877 
3 11014 11174 7487 
3 7946 11388 10756 
3 808 11022 10950 
3 2648 11098 10565 
3 11147 11244 9353 
3 10986 11390 2394 
3 4913 11170 10658 
3 710 11172 712 
3 8957 11332 3382 
3 11236 11281 4636 
3 5859 11144 10211 
3 6135 11313 11304 
3 6177 11343 6197 
3 6659 11150 9606 
3 10671 11135 6814 
3 9798 11308 8201 
3 11133 11157 8981 
3 6664 11060 11059 
3 3020 11078 11077 
3 8981 11157 3571 
3 10961 11030 6625 
3 3909 11319 10980 
3 3688 11057 11027 
3 6073 10942 10931 
3 6677 11163 6676 
3 6690 11127 6691 
3 7084 11066 10867 
3 1203 11403 7256 
3 6702 11199 6149 
3 11092 11205 6175 
3 11335 11374 5198 
3 6692 11270 5185 
3 8915 11340 7666 
3 3020 11143 8671 
3 6119 11137 6997 
3 10989 11035 5161 
3 2652 11359 744 
3 5334 11141 7526 
3 6225 11139 10353 
3 11186 11252 877 
3 5335 11177 6127 
3 9750 10969 10968 
3 1455 11262 9449 
3 10942 11067 10214 
3 11256 11290 7892 
3 5155 11101 8114 
3 928 11179 930 
3 5182 11339 5181 
3 6034 11087 10877 
3 6131 11147 10041 
3 8070 11171 10661 
3 2308 11162 9755 
3 11023 11047 2969 
3 8457 11516 11462 
3 6619 11152 7252 
3 11099 11100 2291 
3 7623 11155 7621 
3 11340 11364 7666 
3 5186 11389 6718 
3 6969 11187 6143 
3 10378 11167 7356 
3 10518 11075 7710 
3 4506 11156 11105 
3 524 11199 11114 
3 8345 11183 5400 
3 4363 11233 8005 
3 8775 11165 6210 
3 5983 11126 10940 
3 5149 11203 5148 
3 7794 10938 10910 
3 9209 11156 4506 
3 6670 11190 4442 
3 11205 11277 10239 
3 6822 11350 10369 
3 7761 11121 7762 
3 11118 11140 2618 
3 9635 11159 6662 
3 3537 11191 770 
3 11059 11060 3043 
3 11302 11327 6179 
3 10800 11001 9232 
3 4741 11189 4717 
3 6197 11341 10090 
3 6698 11238 6697 
3 11215 11259 6700 
3 10090 11352 7580 
3 6193 11406 10108 
3 8326 11223 6162 
3 6125 11205 11092 
3 9139 11370 9138 
3 10772 11104 4310 
3 6699 11215 6700 
3 6662 11159 11158 
3 5758 11331 7855 
3 11091 11258 3360 
3 1974 11146 9577 
3 10875 11145 6136 
3 10661 11171 6648 
3 7112 11338 10283 
3 5622 11173 9311 
3 9775 11375 7740 
3 11048 11051 8294 
3 6283 11174 6282 
3 11088 11115 4723 
3 6302 11178 6264 
3 10638 11219 7212 
3 9430 11188 4724 
3 7342 11530 11452 
3 11241 11267 6199 
3 6150 11193 6151 
3 7739 11431 10033 
3 8186 11204 8187 
3 11393 11427 7667 
3 6661 11218 4732 
3 11027 11057 9619 
3 1826 11142 8016 
3 470 11206 8183 
3 6225 11202 11139 
3 4273 11196 9816 
3 7196 11108 10017 
3 11167 11232 7356 
3 60 11212 508 
3 11065 11073 8492 
3 8093 11240 10883 
3 7490 11277 11205 
3 7307 11331 11294 
3 3528 11309 10604 
3 9407 11427 11393 
3 5184 11201 8934 
3 11342 11438 7740 
3 9720 11192 8731 
3 6515 11207 6076 
3 6665 11051 11048 
3 6187 11242 11229 
3 6209 11396 6207 
3 7460 11195 7463 
3 8404 11121 11088 
3 750 11382 753 
3 4999 11216 3782 
3 5651 11214 6577 
3 481 11249 80 
3 1414 11365 7932 
3 10178 11208 7665 
3 11243 11288 419 
3 10895 11137 6119 
3 6675 11058 10990 
3 7441 11142 11113 
3 11021 11127 10081 
3 7357 11280 11275 
3 8035 11379 8036 
3 1089 11210 9308 
3 5174 11190 11158 
3 7445 11258 11091 
3 10086 11416 5702 
3 6158 11273 6652 
3 6671 11129 10528 
3 11218 11235 6120 
3 794 11086 11085 
3 11319 11350 6917 
3 6143 11233 6176 
3 8982 11221 727 
3 6127 11217 8143 
3 5945 11390 9139 
3 6163 11237 11227 
3 11406 11417 408 
3 8621 11457 8620 
3 641 11376 643 
3 11376 11415 3626 
3 6717 11426 11037 
3 10756 11388 6734 
3 9162 11404 6192 
3 6794 11312 6793 
3 775 11225 777 
3 9308 11229 3397 
3 10904 10956 6842 
3 9430 11261 11188 
3 6187 11229 8324 
3 6710 11293 11136 
3 6159 11368 11169 
3 7256 11403 6201 
3 3397 11242 8122 
3 6710 11236 6145 
3 10239 11277 481 
3 6711 11351 10829 
3 5091 11150 11017 
3 7354 11420 11373 
3 5886 11154 10389 
3 11178 11250 3862 
3 6228 11202 6225 
3 10094 11176 8892 
3 7621 11185 7620 
3 9670 11380 9735 
3 8867 11246 5710 
3 11267 11293 6199 
3 6740 11209 4764 
3 6181 11412 8621 
3 6186 11296 11237 
3 11448 11451 8877 
3 10531 11408 10532 
3 5183 11267 8034 
3 10108 11371 6190 
3 11414 11455 8621 
3 9111 11265 506 
3 1306 11363 9404 
3 11179 11266 7376 
3 11062 11081 1476 
3 11049 11095 8467 
3 4156 11326 11310 
3 6196 11306 6170 
3 10915 11168 8219 
3 11017 11150 6659 
3 6713 11301 9265 
3 9151 11243 419 
3 5823 11061 5754 
3 7357 11275 6126 
3 11363 11367 6182 
3 11225 11245 777 
3 6736 11386 5196 
3 759 11413 761 
3 11187 11233 6143 
3 8242 11235 6670 
3 10354 11180 4072 
3 8324 11229 11210 
3 3862 11250 3097 
3 4737 11260 4738 
3 10948 11305 5859 
3 6148 11247 6147 
3 6204 11387 7199 
3 11155 11185 7621 
3 11099 11155 7623 
3 11109 11204 8186 
3 10293 11421 11391 
3 8106 11137 10895 
3 6163 11227 6164 
3 746 11359 10829 
3 11015 11100 7623 
3 6281 11198 6280 
3 2866 11224 2864 
3 6197 11343 11341 
3 5612 11251 6678 
3 10062 10956 10904 
3 408 11417 62 
3 2306 11231 2303 
3 6186 11237 6163 
3 10041 11147 11120 
3 6120 11242 6187 
3 6701 11083 10958 
3 928 11266 11179 
3 11212 11417 6728 
3 427 11232 77 
3 6147 11247 11228 
3 7666 11364 7993 
3 11085 11086 6115 
3 11208 11289 7665 
3 10484 11368 6159 
3 6560 11204 11109 
3 11264 11269 6178 
3 10829 11359 6711 
3 47 11414 520 
3 11263 11299 6706 
3 11210 11229 9308 
3 777 11245 779 
3 3536 11241 9145 
3 877 11252 871 
3 6108 11104 10772 
3 6712 11259 5444 
3 6691 11127 11021 
3 8640 11234 3197 
3 6135 11304 7162 
3 11036 11055 6377 
3 7613 11435 10453 
3 6619 11226 11206 
3 6325 11411 6326 
3 11265 11325 506 
3 6943 11323 11322 
3 8313 11313 8691 
3 5698 11255 9673 
3 6996 11213 6560 
3 6282 11174 11014 
3 9360 11409 3839 
3 10877 11405 6034 
3 3360 11258 9310 
3 11079 11153 6702 
3 11455 11457 8621 
3 8684 11361 3803 
3 11102 11183 6129 
3 7580 11335 7579 
3 8921 11285 3777 
3 11119 11151 3264 
3 10265 11169 7319 
3 6175 11205 10239 
3 927 11266 928 
3 7665 11289 8915 
3 6009 11422 10985 
3 11113 11142 1826 
3 4424 11239 8959 
3 6813 11089 5828 
3 2308 11195 11162 
3 7114 11253 6146 
3 4396 11426 3850 
3 7121 11244 6131 
3 6147 11228 10796 
3 6182 11367 6202 
3 6711 11359 11356 
3 7162 11304 11221 
3 7212 11219 10791 
3 11249 11277 7491 
3 9081 11269 441 
3 11201 11301 6713 
3 5180 11261 9430 
3 535 11254 9151 
3 11284 11310 6695 
3 6848 11230 6690 
3 9373 11211 11164 
3 7669 11443 9858 
3 10033 11402 6194 
3 7892 11290 8843 
3 10980 11319 6915 
3 6977 11271 6100 
3 11136 11293 5183 
3 11313 11324 8691 
3 7392 11240 8093 
3 4637 11281 4640 
3 11120 11147 4238 
3 8691 11324 1746 
3 2099 11542 11541 
3 4719 11095 11049 
3 6719 11423 6721 
3 7320 11384 7343 
3 10435 11318 3770 
3 5184 11301 11201 
3 8583 11274 1585 
3 3770 11318 9733 
3 2866 11279 11224 
3 5754 11061 8068 
3 11221 11304 727 
3 8857 11276 3415 
3 8143 11287 4734 
3 441 11264 9524 
3 2868 11279 2866 
3 11169 11368 7319 
3 11253 11264 6146 
3 7612 11425 11424 
3 5197 11374 6182 
3 6964 11300 5296 
3 8870 11297 11282 
3 7842 11433 1675 
3 6202 11357 6204 
3 6690 11230 11127 
3 7142 11305 7079 
3 7448 11220 9980 
3 10978 11181 9129 
3 9151 11254 11243 
3 11467 11471 3599 
3 10985 11422 8185 
3 11114 11199 6702 
3 8732 11438 453 
3 6935 11353 10438 
3 11226 11227 526 
3 10613 11385 5191 
3 11088 11121 7761 
3 6131 11244 11147 
3 11217 11287 8143 
3 6221 11471 11467 
3 11529 11538 10553 
3 6381 11268 4850 
3 10830 11411 6325 
3 6696 11284 6695 
3 3524 11443 10086 
3 8870 11282 8869 
3 4134 11169 10265 
3 5828 11089 10524 
3 6741 11320 6740 
3 9139 11390 10986 
3 9524 11264 11253 
3 6737 11398 6736 
3 11315 11333 6725 
3 419 11288 9111 
3 6173 11307 4735 
3 11324 11337 1746 
3 11160 11352 3529 
3 1746 11337 8983 
3 10017 11108 3779 
3 7889 11256 7892 
3 11337 11345 8983 
3 6170 11301 5184 
3 11158 11190 6661 
3 10944 11222 6169 
3 6202 11367 11357 
3 1939 11272 8831 
3 8031 11322 3954 
3 3992 11432 4348 
3 6034 11392 4749 
3 8457 11442 1581 
3 2486 11297 8870 
3 7499 11336 11332 
3 7355 11280 7357 
3 8249 11283 8547 
3 6796 11358 6794 
3 11424 11425 9096 
3 11355 11379 9318 
3 11196 11270 6173 
3 6693 11344 6692 
3 5527 11336 11327 
3 6695 11310 6714 
3 6712 11270 11196 
3 9080 11321 454 
3 6794 11358 11312 
3 11103 11145 2968 
3 11357 11387 6204 
3 3412 11292 9687 
3 9520 11296 6186 
3 7491 11277 7490 
3 11308 11339 5182 
3 9076 11428 9075 
3 7329 11456 7331 
3 727 11304 8313 
3 8983 11345 4487 
3 5296 11300 4378 
3 9265 11306 3528 
3 7373 11309 6196 
3 11251 11283 6678 
3 11369 11383 3611 
3 11274 11286 6679 
3 9449 11262 11200 
3 7545 11454 7547 
3 7932 11377 1416 
3 7579 11335 5198 
3 11222 11291 6169 
3 6700 11303 9876 
3 10874 11248 6703 
3 6915 11319 6917 
3 6943 11322 6945 
3 10292 11391 8138 
3 6710 11281 11236 
3 6169 11291 7570 
3 10791 11219 7568 
3 3280 11312 9823 
3 6727 11365 11362 
3 11510 11515 7628 
3 9407 11393 3591 
3 6199 11293 6109 
3 5622 11194 11173 
3 11381 11385 9257 
3 7306 11331 7307 
3 2260 11439 2262 
3 11342 11375 9077 
3 9997 11400 4171 
3 7547 11474 7014 
3 11366 11410 9097 
3 2909 11197 11128 
3 6185 11378 6184 
3 5347 11263 7196 
3 6412 11328 6013 
3 9912 11302 2661 
3 11176 11188 8892 
3 9111 11288 11265 
3 8520 11313 6135 
3 11454 11474 7547 
3 2070 11317 917 
3 8845 11352 11341 
3 9472 11447 6200 
3 11349 11354 8985 
3 11107 11208 10178 
3 9858 11443 8235 
3 4699 11540 4769 
3 3602 11208 11107 
3 8547 11283 11251 
3 7499 11332 6177 
3 6945 11459 10299 
3 8139 11445 11439 
3 8520 11324 11313 
3 11164 11211 5446 
3 11370 11382 1435 
3 6729 11329 11316 
3 11362 11365 8240 
3 6034 11405 11392 
3 6709 11311 9520 
3 8201 11308 8202 
3 6726 11315 5193 
3 7256 11415 11376 
3 441 11269 11264 
3 4162 11316 4160 
3 11037 11426 4396 
3 9098 11257 11223 
3 6697 11238 11216 
3 6723 11444 8096 
3 9060 11324 8520 
3 453 11342 9078 
3 10213 11299 5347 
3 8125 11336 5527 
3 7580 11352 11160 
3 521 11448 8877 
3 6796 11401 11358 
3 8139 11453 8137 
3 7855 11295 4363 
3 8636 11346 2119 
3 7606 11347 6730 
3 8845 11341 1090 
3 2264 11445 2342 
3 6716 11345 11337 
3 9060 11337 11324 
3 9798 11339 11308 
3 9520 11311 11296 
3 5527 11327 9912 
3 1535 11334 1573 
3 9819 11446 5201 
3 4160 11326 4157 
3 506 11325 9080 
3 6716 11337 9060 
3 10299 11459 7294 
3 7324 11348 7325 
3 5181 11339 6191 
3 6709 11330 11311 
3 11347 11369 5655 
3 10843 11450 3365 
3 6714 11329 5190 
3 11307 11344 5182 
3 6190 11372 7146 
3 7668 11418 7662 
3 8884 11449 3566 
3 9297 11333 3830 
3 6560 11213 11204 
3 6944 11429 6942 
3 6714 11326 11316 
3 3727 11441 9916 
3 6189 11366 10383 
3 11206 11226 8183 
3 49 11455 48 
3 11216 11238 3782 
3 6715 11345 6716 
3 2382 11355 9318 
3 6670 11235 11218 
3 11452 11460 7342 
3 6196 11309 11306 
3 4487 11349 8669 
3 7614 11425 7612 
3 7055 11353 6935 
3 9080 11325 11321 
3 11380 11383 6735 
3 1090 11343 8957 
3 3529 11352 8845 
3 8032 11360 6727 
3 9912 11327 11302 
3 11223 11257 6162 
3 7672 11450 10843 
3 9218 11369 3611 
3 7076 11330 6709 
3 7740 11375 11342 
3 401 11424 9096 
3 4474 11338 10527 
3 3611 11383 9670 
3 9252 11340 1367 
3 9257 11385 11355 
3 11200 11262 6999 
3 6164 11227 11226 
3 7606 11383 11369 
3 6148 11272 11247 
3 11391 11421 9020 
3 11412 11461 520 
3 3626 11415 9798 
3 11160 11335 7580 
3 11076 11323 6930 
3 9252 11364 11340 
3 3536 11379 11241 
3 9405 11357 3686 
3 3954 11323 11076 
3 9140 11351 6503 
3 6506 11354 6715 
3 6727 11362 6726 
3 4738 11260 11248 
3 7947 11367 11363 
3 7105 11394 6421 
3 6818 11401 6796 
3 11306 11309 3528 
3 6717 11440 11432 
3 11241 11379 8035 
3 8240 11365 1414 
3 7667 11427 9424 
3 11381 11395 9770 
3 4134 11273 11169 
3 9140 11370 11351 
3 9770 11395 5202 
3 3591 11364 9252 
3 1612 11476 8338 
3 11316 11326 4160 
3 11372 11410 7146 
3 7947 11363 1306 
3 6711 11356 6504 
3 11248 11260 6703 
3 6200 11440 6717 
3 11247 11272 1939 
3 7662 11418 7669 
3 11209 11278 4764 
3 7333 11490 7335 
3 5191 11381 9770 
3 11380 11388 4566 
3 35 11466 34 
3 5202 11421 10293 
3 744 11359 746 
3 1416 11387 9405 
3 6715 11349 11345 
3 6800 11298 10956 
3 7319 11368 7320 
3 10369 11350 8149 
3 11312 11358 9823 
3 11341 11343 1090 
3 27 11464 479 
3 11357 11367 3686 
3 16 11485 504 
3 11348 11361 8684 
3 4095 11460 4719 
3 9735 11380 4566 
3 8647 11314 11122 
3 428 11515 11510 
3 11310 11326 6714 
3 9256 11381 9257 
3 11345 11349 4487 
3 11427 11437 9424 
3 8583 11286 11274 
3 10157 11475 11470 
3 9079 11371 408 
3 6736 11399 11386 
3 8472 11398 6737 
3 9798 11415 11339 
3 5347 11299 11263 
3 9138 11370 9140 
3 3830 11362 8240 
3 4743 11373 4132 
3 11358 11401 4191 
3 8096 11378 4743 
3 5198 11374 5197 
3 11339 11415 6191 
3 9256 11395 11381 
3 9823 11358 4191 
3 595 11478 597 
3 9405 11387 11357 
3 4566 11388 7946 
3 6421 11394 7239 
3 643 11376 3626 
3 11371 11406 408 
3 1435 11382 750 
3 6013 11328 11291 
3 11470 11475 541 
3 7239 11394 7240 
3 11373 11378 6185 
3 3686 11367 7947 
3 6739 11462 10188 
3 7932 11365 11360 
3 11259 11303 6700 
3 9424 11437 7668 
3 6712 11303 11259 
3 10956 11298 6842 
3 5201 11375 9775 
3 7327 11441 7329 
3 11411 11419 8191 
3 7407 11461 6226 
3 9318 11379 3536 
3 9916 11407 1611 
3 6326 11411 8191 
3 9799 11399 4175 
3 10293 11391 10292 
3 6735 11383 7606 
3 5177 11397 10119 
3 6207 11390 5945 
3 8877 11451 450 
3 10453 11435 9819 
3 7628 11515 7627 
3 4749 11392 5186 
3 10086 11418 11416 
3 6726 11362 11333 
3 7066 11534 11528 
3 11233 11295 6176 
3 6724 11405 6725 
3 11334 11384 1573 
3 7343 11384 11334 
3 9645 11395 9256 
3 6226 11412 6181 
3 7993 11393 7667 
3 7199 11377 6183 
3 6201 11403 7863 
3 11291 11328 7570 
3 5196 11386 6195 
3 1573 11384 10484 
3 6192 11389 6724 
3 11392 11405 6724 
3 11485 11488 6743 
3 6692 11344 11307 
3 6718 11409 6719 
3 6938 11396 6209 
3 11333 11362 3830 
3 5702 11416 8946 
3 10383 11366 11321 
3 6746 11524 10319 
3 4191 11401 9444 
3 48 11414 47 
3 11440 11447 7546 
3 6191 11415 7256 
3 7146 11410 6189 
3 4171 11400 9799 
3 2394 11413 759 
3 62 11417 61 
3 6728 11417 11406 
3 6728 11406 6193 
3 11412 11414 8621 
3 9526 11473 1438 
3 3839 11404 9162 
3 11500 11513 420 
3 36 11491 35 
3 520 11414 11412 
3 11395 11421 5202 
3 11402 11431 508 
3 8191 11419 8190 
3 11322 11323 3954 
3 11373 11420 4132 
3 6393 11422 6009 
3 8036 11385 10613 
3 8554 11538 11529 
3 7810 11552 11509 
3 11377 11387 1416 
3 6715 11354 11349 
3 7093 11558 7092 
3 11403 11430 7863 
3 1438 11465 9159 
3 7546 11449 7545 
3 1675 11423 9360 
3 6917 11436 6918 
3 9096 11425 521 
3 9444 11408 10531 
3 4132 11420 9997 
3 18 11488 17 
3 11316 11329 6714 
3 11416 11437 8946 
3 9799 11400 11386 
3 4363 11295 11233 
3 6211 11494 6742 
3 2342 11445 11434 
3 7612 11424 7613 
3 6742 11486 6222 
3 7668 11437 11416 
3 3853 11492 9526 
3 2343 11523 11520 
3 11401 11408 9444 
3 6818 11408 11401 
3 11506 11511 6746 
3 2534 11496 589 
3 7338 11519 7339 
3 3100 11509 583 
3 1369 11427 9407 
3 7066 11528 6229 
3 6221 11467 6214 
3 7863 11430 7865 
3 11464 11517 6744 
3 9020 11421 9645 
3 7810 11514 6218 
3 8687 11511 8686 
3 11386 11400 6195 
3 3850 11426 3992 
3 6726 11333 11315 
3 8138 11434 8139 
3 9075 11428 401 
3 428 11510 23 
3 3599 11471 8955 
3 10857 11451 11448 
3 11095 11452 8470 
3 6707 11487 11479 
3 4348 11432 5189 
3 1369 11437 11427 
3 3591 11393 11364 
3 6738 11498 6739 
3 6721 11433 6723 
3 6822 11436 11350 
3 11355 11385 8036 
3 9645 11421 11395 
3 7199 11387 11377 
3 8946 11437 1369 
3 508 11431 8732 
3 11321 11366 454 
3 6942 11429 7493 
3 4743 11378 11373 
3 11364 11393 7993 
3 11424 11428 7613 
3 11557 11559 6246 
3 7740 11438 7739 
3 11432 11440 5189 
3 2383 11439 2260 
3 11212 11402 508 
3 8235 11443 3524 
3 6189 11410 11366 
3 11503 11510 7628 
3 6184 11444 7842 
3 11535 11539 7475 
3 6224 11513 6228 
3 5186 11392 11389 
3 401 11428 11424 
3 7406 11463 7407 
3 22 11503 21 
3 11416 11418 7668 
3 11389 11392 6724 
3 1519 11508 1517 
3 1438 11473 11465 
3 1581 11442 9116 
3 4761 11516 4760 
3 6743 11489 6240 
3 8456 11522 8457 
3 6223 11525 7093 
3 7606 11369 11347 
3 11378 11444 6184 
3 5189 11440 7546 
3 11386 11399 9799 
3 6219 11495 7628 
3 7745 11539 11535 
3 8457 11462 11442 
3 7324 11361 11348 
3 6232 11541 6748 
3 11451 11457 450 
3 7745 11535 2385 
3 2262 11445 2264 
3 7407 11463 11461 
3 11526 11527 7477 
3 7476 11523 7474 
3 10553 11538 5349 
3 7475 11539 7833 
3 6938 11413 11396 
3 11360 11365 6727 
3 11439 11453 8139 
3 11396 11413 2394 
3 8096 11444 11378 
3 7405 11559 11557 
3 8855 11470 541 
3 8457 11522 11516 
3 406 11468 8855 
3 11478 11536 6747 
3 2190 11526 2343 
3 2383 11458 11453 
3 11522 11534 6198 
3 9077 11446 9076 
3 11453 11458 8140 
3 7477 11535 7475 
3 3566 11447 9472 
3 1675 11433 11423 
3 11350 11436 6917 
3 8137 11453 8140 
3 3365 11450 9858 
3 2186 11527 2188 
3 11397 11398 8472 
3 7809 11551 7810 
3 1362 11454 8884 
3 9526 11492 11473 
3 6215 11475 10157 
3 9 11549 8 
3 7744 11547 11544 
3 7557 11483 6215 
3 11423 11433 6721 
3 6217 11477 7557 
3 6748 11499 6216 
3 6 11531 5 
3 11404 11409 6718 
3 11477 11483 7557 
3 5177 11398 11397 
3 6233 11482 11481 
3 11468 11470 8855 
3 10857 11448 7614 
3 450 11455 49 
3 7416 11482 6233 
3 6884 11537 6255 
3 9436 11547 7744 
3 11407 11441 7327 
3 3839 11409 11404 
3 8619 11451 10857 
3 11511 11524 6746 
3 6215 11483 11475 
3 593 11542 2099 
3 6231 11554 3623 
3 8554 11529 8553 
3 8338 11456 3727 
3 8140 11458 9541 
3 8 11532 7 
3 585 11552 587 
3 6198 11534 7066 
3 29 11517 28 
3 8743 11502 11501 
3 450 11457 11455 
3 11442 11462 6739 
3 11544 11547 6243 
3 10054 11544 6243 
3 6233 11481 6217 
3 7294 11459 7295 
3 8620 11457 8619 
3 6419 11484 7416 
3 8805 11458 2383 
3 6217 11481 11477 
3 8470 11530 10154 
3 11442 11498 9116 
3 520 11461 9074 
3 6739 11498 11442 
3 34 11466 478 
3 10188 11462 4761 
3 6206 11521 11472 
3 3363 11469 8805 
3 9074 11463 406 
3 4719 11452 11095 
3 11434 11445 8139 
3 11501 11505 516 
3 11320 11540 6740 
3 11458 11469 9541 
3 28 11464 27 
3 597 11533 599 
3 6214 11465 6227 
3 11480 11493 7506 
3 7416 11484 11482 
3 9159 11467 3599 
3 1362 11474 11454 
3 9541 11469 7507 
3 11461 11463 9074 
3 11435 11446 9819 
3 6213 11468 7406 
3 11299 11487 6707 
3 10553 11545 11529 
3 478 11502 8743 
3 479 11472 8688 
3 7526 11505 11501 
3 8805 11469 11458 
3 7739 11438 11431 
3 9329 11500 420 
3 459 11483 11477 
3 9076 11446 11435 
3 11431 11438 8732 
3 11481 11482 534 
3 4769 11540 11320 
3 7014 11471 6221 
3 10157 11470 6213 
3 541 11475 8916 
3 8619 11457 11451 
3 6234 11507 11495 
3 8955 11474 1362 
3 3363 11480 11469 
3 8349 11493 11480 
3 11494 11502 478 
3 7331 11476 7333 
3 504 11485 11479 
3 9916 11441 11407 
3 11447 11449 7546 
3 459 11477 8854 
3 6742 11491 11486 
3 6707 11479 6743 
3 8349 11480 3363 
3 11469 11480 7507 
3 11425 11448 521 
3 8854 11481 534 
3 6213 11470 11468 
3 7507 11480 7506 
3 436 11497 11489 
3 11489 11497 6238 
3 7614 11448 11425 
3 6212 11536 7800 
3 8743 11501 516 
3 2099 11478 595 
3 11549 11558 7093 
3 11477 11481 8854 
3 11465 11473 6227 
3 534 11482 8698 
3 6742 11494 11466 
3 5307 11521 5211 
3 8916 11483 459 
3 7506 11493 7508 
3 7406 11468 11463 
3 11463 11468 406 
3 6216 11499 10538 
3 6227 11473 10959 
3 8698 11484 414 
3 11493 11504 7508 
3 7509 11512 7807 
3 17 11485 16 
3 11495 11507 533 
3 6222 11486 6419 
3 11501 11502 6220 
3 414 11491 36 
3 5397 11556 11209 
3 11475 11483 8916 
3 2383 11453 11439 
3 6240 11489 6238 
3 11551 11552 7810 
3 6745 11506 6746 
3 11482 11484 8698 
3 7335 11490 7338 
3 436 11488 18 
3 3566 11449 11447 
3 1517 11508 1612 
3 2384 11493 8349 
3 7508 11504 7509 
3 21 11503 533 
3 6236 11507 6234 
3 7526 11501 6220 
3 6238 11497 6236 
3 420 11517 29 
3 11509 11514 7810 
3 8714 11497 436 
3 6234 11495 6219 
3 11209 11556 11278 
3 11512 11518 7807 
3 2384 11504 11493 
3 7773 11494 6211 
3 6419 11486 11484 
3 589 11496 591 
3 10959 11492 6738 
3 3560 11518 11512 
3 11484 11486 414 
3 3100 11514 11509 
3 9116 11498 3853 
3 11473 11492 10959 
3 11488 11489 6743 
3 7994 11555 11553 
3 11497 11507 6236 
3 6751 11545 10553 
3 11141 11505 7526 
3 516 11505 9329 
3 8688 11511 8687 
3 8815 11504 2384 
3 8686 11506 428 
3 11504 11512 7509 
3 11499 11551 10538 
3 2534 11499 11496 
3 10213 11487 11299 
3 583 11509 585 
3 6220 11502 7773 
3 8815 11512 11504 
3 7627 11515 6745 
3 7773 11502 11494 
3 6218 11514 6244 
3 8714 11507 11497 
3 533 11507 8714 
3 6744 11513 6224 
3 6214 11467 11465 
3 8347 11518 3560 
3 23 11510 22 
3 11465 11467 9159 
3 9375 11548 559 
3 3560 11512 8815 
3 11548 11555 559 
3 7405 11557 3100 
3 6246 11559 6248 
3 11506 11515 428 
3 11471 11474 8955 
3 7014 11474 11471 
3 7807 11518 9954 
3 11528 11534 1878 
3 10154 11530 1519 
3 11495 11503 7628 
3 6228 11500 11141 
3 4719 11460 11452 
3 7339 11519 7342 
3 6745 11515 11506 
3 10213 11538 11487 
3 11496 11542 591 
3 7 11532 496 
3 559 11555 7994 
3 9954 11520 7476 
3 2534 11551 11499 
3 11456 11476 7331 
3 8338 11476 11456 
3 4760 11516 6198 
3 6748 11542 11496 
3 8455 11522 8456 
3 599 11533 1878 
3 7994 11553 475 
3 11518 11520 9954 
3 11496 11499 6748 
3 2343 11520 8347 
3 11466 11494 478 
3 11531 11537 6884 
3 9329 11505 11500 
3 8455 11534 11522 
3 10319 11524 5307 
3 11487 11538 8554 
3 2188 11526 2190 
3 7474 11523 7477 
3 11525 11537 496 
3 11529 11545 445 
3 11500 11505 11141 
3 6241 11537 11525 
3 6241 11525 6223 
3 8347 11520 11518 
3 2385 11527 2186 
3 2343 11526 11523 
3 11486 11491 414 
3 5217 11546 11544 
3 11527 11535 7477 
3 6229 11528 6747 
3 8553 11529 445 
3 11516 11522 6198 
3 496 11531 6 
3 11514 11557 6244 
3 5349 11538 10213 
3 3100 11557 11514 
3 6255 11537 6241 
3 11479 11485 6743 
3 11525 11532 7093 
3 1878 11534 8455 
3 11543 11546 9918 
3 5216 11543 9918 
3 11544 11546 7744 
3 7800 11541 6232 
3 7833 11539 5216 
3 11553 11558 475 
3 11553 11555 6750 
3 591 11542 593 
3 9918 11546 5217 
3 11521 11524 8688 
3 2386 11550 11547 
3 7743 11546 11543 
3 7744 11546 7743 
3 5217 11544 10054 
3 5307 11524 11521 
3 7743 11543 7745 
3 6749 11548 6751 
3 11547 11550 6243 
3 475 11549 9 
3 436 11489 11488 
3 9219 11550 2386 
3 445 11545 9375 
3 11539 11543 5216 
3 6749 11555 11548 
3 8688 11524 11511 
3 7745 11543 11539 
3 6243 11550 6230 
3 2386 11547 9436 
3 7091 11553 6750 
3 6740 11540 11209 
3 1612 11508 11490 
3 587 11552 2534 
3 533 11503 11495 
3 3623 11554 9219 
3 9219 11554 11550 
3 10538 11551 7809 
3 6750 11555 6749 
3 11513 11517 420 
3 11550 11554 6230 
3 6244 11557 6246 
3 7092 11558 7091 
3 11490 11508 7338 
3 11472 11521 8688 
3 3904 11559 7405 
3 6744 11517 11513 
3 11278 11556 6231 
3 7091 11558 11553 
3 1519 11530 11519 
3 2534 11552 11551 
3 496 11532 11525 
3 2099 11536 11478 
3 496 11537 11531 
3 11536 11541 7800 
3 1878 11533 11528 
3 6751 11548 11545 
3 11545 11548 9375 
3 11519 11530 7342 
3 2099 11541 11536 
3 11523 11526 7477 
3 475 11558 11549 
3 2385 11535 11527 
3 11528 11533 6747 
3 6833 11592 6845 
3 6890 11696 472 
3 7857 11561 4295 
3 6850 11560 7857 
3 4295 11561 575 
3 577 11561 3904 
3 6248 11560 6850 
3 3904 11560 11559 
3 7530 11562 5243 
3 4807 11562 5427 
3 6918 11689 424 
3 575 11561 577 
3 11559 11560 6248 
3 11625 11822 430 
3 6895 11578 6859 
3 6922 11695 332 
3 509 11580 6895 
3 11627 11823 6785 
3 11298 11824 11626 
3 5243 11562 4807 
3 11562 11563 5427 
3 6872 11566 6870 
3 6846 11612 8795 
3 7531 11563 11562 
3 7248 11822 11625 
3 182 11564 181 
3 383 11565 382 
3 9248 11566 10424 
3 6870 11566 6868 
3 11024 11567 5888 
3 6865 11567 6371 
3 6957 11701 484 
3 546 11658 6885 
3 11604 11817 6909 
3 347 11568 346 
3 10006 11570 4794 
3 10028 11570 10029 
3 5982 11571 7471 
3 5239 11571 10451 
3 373 11572 372 
3 11606 11818 6819 
3 5 11573 4 
3 300 11574 299 
3 9873 11575 6863 
3 102 11575 101 
3 6884 11573 11531 
3 6820 11657 8699 
3 488 11651 8744 
3 9106 11652 536 
3 413 11653 6922 
3 9676 11582 6874 
3 5427 11563 7868 
3 127 11577 126 
3 6853 11656 9115 
3 6893 11812 429 
3 373 11624 11572 
3 434 11564 182 
3 6895 11585 11578 
3 411 11648 9103 
3 7128 11654 469 
3 472 11655 6894 
3 532 11565 383 
3 10424 11581 3872 
3 6818 11820 11608 
3 7134 11579 4814 
3 6278 11578 6281 
3 6859 11578 6276 
3 4792 11579 6781 
3 4814 11579 4312 
3 6868 11566 9248 
3 6371 11567 11024 
3 517 11646 8578 
3 8385 11647 544 
3 309 11580 509 
3 446 11580 310 
3 9676 11615 6254 
3 5923 11582 9676 
3 3872 11582 9998 
3 347 11628 11568 
3 6254 11583 6253 
3 346 11568 452 
3 203 11576 202 
3 444 11644 7531 
3 160 11584 159 
3 11565 11630 382 
3 440 11645 9331 
3 8795 11569 8796 
3 8796 11569 423 
3 11564 11634 181 
3 8746 11587 8745 
3 9086 11589 457 
3 537 11642 8943 
3 510 11643 8410 
3 6293 11588 6906 
3 4794 11570 10028 
3 5888 11590 5885 
3 10451 11571 5982 
3 372 11572 483 
3 161 11591 160 
3 492 11714 6889 
3 6874 11615 9676 
3 8748 11641 442 
3 489 11817 11604 
3 471 11593 10272 
3 6892 11593 6901 
3 8703 11595 500 
3 6841 11603 6257 
3 6825 11821 11611 
3 6411 11605 6256 
3 6911 11604 6909 
3 6886 11769 546 
3 458 11640 8658 
3 10752 11606 6819 
3 5239 11809 11571 
3 6875 11812 6893 
3 7879 11620 7131 
3 10006 11810 11570 
3 6303 11607 7022 
3 6818 11608 11408 
3 469 11799 7129 
3 6898 11649 407 
3 484 11717 6958 
3 11531 11573 5 
3 101 11575 9873 
3 299 11574 9832 
3 6318 11611 6959 
3 6825 11611 6286 
3 5245 11612 4834 
3 5299 11612 6846 
3 407 11801 6899 
3 6821 11613 6822 
3 424 11716 6919 
3 9783 11798 9946 
3 6845 11614 7938 
3 6772 11614 6897 
3 433 11818 11606 
3 11572 11624 7698 
3 128 11616 127 
3 7486 11617 7485 
3 6773 11617 6821 
3 6846 11618 6296 
3 8703 11632 6626 
3 8412 11639 502 
3 10493 11619 7615 
3 6831 11594 6307 
3 11568 11628 6797 
3 6295 11621 6847 
3 6873 11615 6874 
3 7022 11623 6403 
3 11567 11813 5888 
3 467 11638 8721 
3 426 11624 374 
3 6804 11630 11565 
3 6900 11704 416 
3 494 11620 7879 
3 7180 11625 6411 
3 6920 11604 6913 
3 6910 11634 11564 
3 6842 11626 6841 
3 529 11628 348 
3 6849 11629 6247 
3 10997 11596 6815 
3 6843 11597 6766 
3 6960 11606 6306 
3 126 11577 487 
3 11563 11588 7868 
3 381 11630 433 
3 7470 11631 6831 
3 180 11634 489 
3 6815 11635 6332 
3 6844 11636 6843 
3 6830 11638 6829 
3 6249 11639 8220 
3 6855 11640 6292 
3 6802 11641 6298 
3 6300 11642 6801 
3 6291 11643 5291 
3 512 11644 114 
3 113 11644 444 
3 8212 11645 8214 
3 8524 11635 415 
3 9105 11636 507 
3 7019 11646 6828 
3 8098 11647 6301 
3 6322 11648 7685 
3 142 11649 561 
3 407 11649 143 
3 9782 11650 9114 
3 7161 11652 6305 
3 6304 11651 6798 
3 6903 11633 8577 
3 6922 11653 6921 
3 6824 11653 6823 
3 11566 11581 10424 
3 194 11654 551 
3 469 11654 195 
3 509 11655 308 
3 307 11655 472 
3 9115 11656 325 
3 324 11656 482 
3 462 11631 8779 
3 449 11632 8702 
3 8699 11657 124 
3 123 11657 429 
3 151 11658 546 
3 402 11658 152 
3 405 11660 8232 
3 5263 11662 9325 
3 9071 11661 7716 
3 8234 11659 8399 
3 417 11664 8791 
3 233 11665 232 
3 7236 11668 6755 
3 7398 11663 7966 
3 6808 11667 6754 
3 206 11672 205 
3 223 11670 222 
3 215 11671 214 
3 220 11673 219 
3 7032 11669 7034 
3 6806 11666 6753 
3 249 11674 248 
3 260 11676 259 
3 271 11677 270 
3 286 11681 285 
3 278 11680 277 
3 281 11679 280 
3 10632 11675 5263 
3 7059 11685 6836 
3 8642 11683 501 
3 5267 11678 9059 
3 6765 11688 10223 
3 6764 11687 6812 
3 8115 11686 7367 
3 8402 11683 8400 
3 10000 11682 6741 
3 6807 11682 5275 
3 6760 11684 6950 
3 542 11637 6871 
3 175 11689 549 
3 424 11689 176 
3 10532 11690 6788 
3 6778 11691 8224 
3 397 11692 493 
3 492 11693 105 
3 565 11692 398 
3 104 11693 564 
3 170 11694 416 
3 331 11695 477 
3 8421 11697 6816 
3 542 11698 119 
3 118 11698 438 
3 111 11699 562 
3 444 11699 112 
3 338 11700 449 
3 502 11700 339 
3 6265 11599 7275 
3 6829 11598 6259 
3 6786 11702 6768 
3 9872 11703 7699 
3 168 11704 513 
3 416 11704 169 
3 10413 11705 6770 
3 7011 11706 7012 
3 6792 11707 6795 
3 6803 11708 8215 
3 7233 11709 6771 
3 9249 11710 7248 
3 6800 11711 11298 
3 6785 11712 6775 
3 8667 11713 7555 
3 106 11714 492 
3 9337 11714 107 
3 472 11696 306 
3 8220 11600 6261 
3 11571 11809 8746 
3 177 11716 424 
3 562 11629 8011 
3 11570 11810 9086 
3 11608 11820 529 
3 378 11717 484 
3 9946 11798 6291 
3 6906 11819 116 
3 546 11769 150 
3 149 11769 8577 
3 7188 11779 7187 
3 8789 11771 556 
3 7968 11772 7967 
3 7717 11770 7715 
3 6779 11794 6839 
3 6834 11775 6782 
3 7617 11776 7616 
3 8753 11773 8752 
3 247 11778 451 
3 412 11780 234 
3 258 11782 518 
3 6835 11777 6784 
3 431 11785 221 
3 439 11783 216 
3 490 11784 224 
3 8788 11781 8789 
3 473 11787 207 
3 269 11786 417 
3 279 11789 491 
3 284 11790 539 
3 276 11792 425 
3 10736 11774 8039 
3 10480 11788 6806 
3 6757 11795 7060 
3 6756 11793 8116 
3 6780 11796 6838 
3 4769 11791 9790 
3 463 11626 8782 
3 9082 11627 446 
3 11569 11815 11020 
3 8255 11813 11567 
3 437 11798 9783 
3 8734 11609 456 
3 7879 11799 197 
3 196 11799 469 
3 6850 11610 6849 
3 6276 11578 6278 
3 6847 11633 6907 
3 6858 11695 6922 
3 8496 11625 430 
3 4312 11579 4792 
3 545 11801 145 
3 144 11801 407 
3 11020 11815 5245 
3 103 11802 1 
3 2 11803 201 
3 202 11803 2 
3 3 11805 300 
3 1 11802 102 
3 301 11805 3 
3 4 11804 0 
3 0 11804 399 
3 10664 11601 6855 
3 9332 11806 458 
3 116 11819 115 
3 507 11808 9085 
3 8779 11811 548 
3 122 11812 121 
3 310 11580 309 
3 6874 11581 6872 
3 6891 11715 493 
3 484 11701 377 
3 10825 11602 6802 
3 9998 11582 5923 
3 8778 11623 547 
3 8777 11621 545 
3 8882 11622 8733 
3 6801 11602 10825 
3 6872 11581 11566 
3 423 11800 9115 
3 6253 11583 6820 
3 8214 11601 10664 
3 9292 11619 421 
3 477 11618 8794 
3 159 11584 517 
3 9945 11650 9783 
3 11611 11821 426 
3 6261 11600 8098 
3 120 11637 542 
3 6281 11585 7937 
3 6259 11598 9730 
3 7685 11599 6265 
3 8745 11587 409 
3 549 11613 8780 
3 7868 11588 6293 
3 457 11589 9104 
3 5885 11590 5886 
3 456 11609 9102 
3 6798 11596 10997 
3 6766 11597 7161 
3 474 11610 9337 
3 8495 11607 402 
3 9101 11608 529 
3 409 11591 161 
3 6307 11594 6848 
3 6823 11595 6769 
3 9944 11592 567 
3 482 11605 8384 
3 551 11603 8783 
3 11154 11593 6892 
3 513 11594 8747 
3 500 11595 8099 
3 8689 11596 8690 
3 8883 11597 418 
3 8577 11633 460 
3 561 11598 8700 
3 531 11599 9084 
3 9092 11600 404 
3 505 11601 9087 
3 9525 11602 8781 
3 6257 11603 7304 
3 8733 11622 8734 
3 493 11715 396 
3 6913 11604 6911 
3 6256 11605 6851 
3 6306 11606 10752 
3 11585 11627 7937 
3 11571 11811 7471 
3 121 11637 120 
3 6904 11610 6850 
3 11570 11808 10029 
3 10754 11607 6303 
3 11408 11608 10532 
3 8224 11609 7630 
3 6286 11611 6318 
3 4834 11612 5299 
3 7486 11694 171 
3 6822 11613 11436 
3 7938 11614 6772 
3 6865 11806 11567 
3 116 11797 6906 
3 6893 11615 6873 
3 421 11616 128 
3 7485 11617 6773 
3 6296 11618 6856 
3 7615 11619 6786 
3 395 11715 6901 
3 305 11696 6897 
3 376 11701 6959 
3 6860 11621 6295 
3 5293 11622 10413 
3 6403 11623 7011 
3 117 11797 116 
3 11585 11814 11627 
3 374 11624 373 
3 7248 11625 7180 
3 11020 11800 11569 
3 8702 11632 8703 
3 6905 11797 438 
3 11298 11626 6842 
3 7937 11627 6785 
3 438 11797 117 
3 348 11628 347 
3 6247 11629 6861 
3 6907 11633 6903 
3 6854 11800 11020 
3 382 11630 381 
3 7471 11631 7470 
3 6626 11632 6862 
3 181 11634 180 
3 6871 11637 6875 
3 6332 11635 8667 
3 10029 11636 6844 
3 8746 11811 11571 
3 9086 11808 11570 
3 7554 11638 6830 
3 6776 11650 9945 
3 6864 11639 6249 
3 396 11715 395 
3 11567 11806 8255 
3 6839 11794 11670 
3 451 11778 11661 
3 518 11782 11663 
3 8789 11781 11662 
3 8039 11774 11660 
3 8116 11793 11665 
3 417 11786 11666 
3 491 11789 11668 
3 539 11790 11667 
3 6806 11788 11664 
3 7060 11795 11671 
3 425 11792 11669 
3 11680 11779 7188 
3 6838 11796 11673 
3 11676 11772 7968 
3 11675 11771 8789 
3 11674 11770 7717 
3 11677 11775 6834 
3 11681 11776 7617 
3 11678 11773 8753 
3 11679 11777 6835 
3 11685 11783 439 
3 11684 11785 431 
3 11686 11780 412 
3 11688 11787 473 
3 11687 11784 490 
3 9790 11791 11659 
3 6292 11640 6865 
3 6298 11641 6799 
3 7814 11642 6300 
3 5291 11643 6866 
3 114 11644 113 
3 8213 11645 8212 
3 6960 11717 379 
3 7018 11646 7019 
3 6301 11647 6791 
3 8049 11648 6322 
3 6920 11716 178 
3 143 11649 142 
3 9783 11650 9782 
3 10005 11651 6304 
3 6305 11652 6790 
3 6921 11653 6824 
3 6880 11694 7486 
3 195 11654 194 
3 308 11655 307 
3 377 11701 376 
3 325 11656 324 
3 124 11657 123 
3 152 11658 151 
3 8399 11659 8401 
3 8232 11660 8233 
3 7716 11661 7717 
3 9325 11662 7399 
3 7966 11663 7968 
3 8791 11664 8754 
3 232 11665 476 
3 6753 11666 6834 
3 6754 11667 7617 
3 6755 11668 6835 
3 222 11670 431 
3 7034 11669 7188 
3 205 11672 497 
3 214 11671 552 
3 219 11673 519 
3 555 11674 249 
3 7797 11675 10632 
3 410 11676 260 
3 486 11677 271 
3 9629 11678 5267 
3 435 11679 281 
3 491 11680 278 
3 443 11681 286 
3 8400 11683 8642 
3 5275 11682 10000 
3 6838 11684 6760 
3 7060 11685 7059 
3 8116 11686 8115 
3 6840 11688 6765 
3 6839 11687 6764 
3 306 11696 305 
3 176 11689 175 
3 6788 11690 6787 
3 6787 11691 6778 
3 398 11692 397 
3 105 11693 104 
3 171 11694 170 
3 332 11695 331 
3 6897 11696 6890 
3 6789 11697 8421 
3 119 11698 118 
3 112 11699 111 
3 339 11700 338 
3 11588 11819 6906 
3 6959 11701 6957 
3 6768 11702 10005 
3 6790 11703 9872 
3 6958 11717 6960 
3 169 11704 168 
3 6770 11705 8049 
3 7012 11706 7018 
3 6791 11707 6792 
3 8215 11708 8213 
3 6771 11709 7814 
3 6866 11710 9249 
3 6919 11716 6920 
3 6799 11711 6800 
3 6775 11712 6776 
3 7555 11713 7554 
3 107 11714 106 
3 6901 11715 6891 
3 178 11716 177 
3 379 11717 378 
3 476 11793 11757 
3 8401 11791 11751 
3 8233 11774 11719 
3 7399 11781 11726 
3 11723 11770 555 
3 11725 11771 7797 
3 8754 11788 11732 
3 11740 11776 443 
3 519 11796 11754 
3 552 11795 11756 
3 11728 11772 410 
3 11735 11775 486 
3 11746 11777 435 
3 11731 11773 9629 
3 11752 11753 7999 
3 6761 11753 11752 
3 553 11760 11759 
3 11759 11760 7584 
3 11737 11738 9222 
3 11767 11768 7898 
3 6763 11768 11767 
3 9259 11750 11749 
3 6752 11738 11737 
3 11749 11750 7193 
3 11135 11763 11756 
3 11756 11763 8749 
3 7245 11730 11729 
3 11745 11746 8701 
3 6837 11755 11754 
3 6810 11746 11745 
3 11729 11730 557 
3 11754 11755 8310 
3 8579 11727 11726 
3 11726 11727 7397 
3 8648 11747 11743 
3 11743 11747 7030 
3 8792 11741 11735 
3 11735 11741 7026 
3 8233 11719 8234 
3 8539 11718 405 
3 8040 11721 8041 
3 8041 11722 9071 
3 7719 11724 7796 
3 8539 11720 11718 
3 554 11720 8539 
3 11724 11725 7796 
3 11721 11722 8041 
3 7796 11725 7797 
3 8787 11723 555 
3 8790 11731 11729 
3 9844 11744 11738 
3 7880 11737 9222 
3 7399 11726 7397 
3 518 11727 8579 
3 7244 11728 7243 
3 7243 11730 7245 
3 465 11731 8790 
3 6758 11742 7194 
3 11733 11734 495 
3 11742 11749 7194 
3 495 11734 7880 
3 8754 11732 8753 
3 8790 11729 557 
3 9844 11738 6752 
3 7194 11749 7193 
3 9832 11733 495 
3 11728 11730 7243 
3 7521 11746 6810 
3 8252 11748 563 
3 6759 11744 9844 
3 563 11750 9259 
3 7390 11739 6758 
3 501 11752 7999 
3 8755 11740 443 
3 7367 11753 6761 
3 539 11745 8701 
3 515 11736 8755 
3 7838 11759 7584 
3 11748 11750 563 
3 8401 11751 8402 
3 6805 11735 7026 
3 11736 11740 8755 
3 7028 11743 7030 
3 558 11741 8792 
3 425 11747 8648 
3 11739 11742 6758 
3 7582 11757 7581 
3 8786 11760 553 
3 8784 11766 11765 
3 8785 11761 11758 
3 11734 11737 7880 
3 9208 11764 490 
3 9790 11719 5258 
3 8039 11718 8038 
3 7837 11762 7838 
3 6836 11755 6837 
3 447 11766 8784 
3 7838 11762 11759 
3 422 11761 8785 
3 8038 11720 8040 
3 11718 11720 8038 
3 8784 11765 538 
3 8274 11721 554 
3 8785 11758 9208 
3 538 11767 7898 
3 451 11722 8274 
3 552 11756 8749 
3 519 11754 8310 
3 11765 11767 538 
3 403 11725 11724 
3 8274 11722 11721 
3 10223 11768 6763 
3 7718 11723 7719 
3 403 11724 8787 
3 8750 11725 403 
3 6813 11763 11135 
3 8579 11726 464 
3 11758 11764 9208 
3 7397 11727 7398 
3 7246 11731 9629 
3 11729 11731 7246 
3 8751 11728 410 
3 7245 11729 7246 
3 557 11730 8751 
3 11738 11744 468 
3 6832 11734 11733 
3 8751 11730 11728 
3 8792 11735 486 
3 6832 11733 6833 
3 466 11749 11742 
3 9059 11732 5268 
3 7391 11736 7390 
3 7026 11741 7028 
3 9222 11738 468 
3 8793 11739 515 
3 8648 11743 558 
3 10713 11734 6832 
3 468 11744 8252 
3 8701 11746 435 
3 10312 11740 7391 
3 7030 11747 7032 
3 466 11742 8793 
3 6810 11745 6808 
3 6811 11748 6759 
3 6752 11737 10713 
3 9259 11749 466 
3 7391 11740 11736 
3 7193 11750 6811 
3 8793 11742 11739 
3 6811 11750 11748 
3 10713 11737 11734 
3 7999 11753 412 
3 6761 11752 6807 
3 11758 11761 7836 
3 8310 11755 439 
3 476 11757 8786 
3 553 11759 9336 
3 11765 11766 6762 
3 8749 11763 447 
3 11759 11762 9336 
3 6837 11754 10981 
3 6741 11751 11320 
3 7584 11760 7582 
3 9336 11762 422 
3 7836 11761 7837 
3 10821 11758 7836 
3 6762 11766 6813 
3 7536 11765 6762 
3 6763 11767 7536 
3 7898 11768 473 
3 7536 11767 11765 
3 11135 11756 6814 
3 6812 11764 10821 
3 10821 11764 11758 
3 554 11721 11720 
3 11720 11721 8040 
3 8787 11724 11723 
3 11723 11724 7719 
3 558 11743 11741 
3 11741 11743 7028 
3 515 11739 11736 
3 11736 11739 7390 
3 6759 11748 11744 
3 11744 11748 8252 
3 422 11762 11761 
3 11761 11762 7837 
3 11763 11766 447 
3 6813 11766 11763 
3 11757 11760 8786 
3 7582 11760 11757 
3 11757 11793 7581 
3 11751 11791 11320 
3 7718 11770 11723 
3 8750 11771 11725 
3 11719 11774 5258 
3 11726 11781 464 
3 10312 11776 11740 
3 11732 11788 5268 
3 11754 11796 10981 
3 11756 11795 6814 
3 7244 11772 11728 
3 6805 11775 11735 
3 465 11773 11731 
3 7521 11777 11746 
3 150 11769 149 
3 7715 11770 7718 
3 556 11771 8750 
3 7967 11772 7244 
3 8752 11773 465 
3 7187 11779 7236 
3 6782 11775 6805 
3 7616 11776 10312 
3 6784 11777 7521 
3 248 11778 247 
3 5258 11774 10736 
3 234 11780 233 
3 464 11781 8788 
3 259 11782 258 
3 216 11783 215 
3 224 11784 223 
3 221 11785 220 
3 270 11786 269 
3 207 11787 206 
3 5268 11788 10480 
3 285 11790 284 
3 280 11789 279 
3 6950 11794 6779 
3 277 11792 276 
3 11320 11791 4769 
3 7581 11793 6756 
3 6814 11795 6757 
3 10981 11796 6780 
3 6906 11797 6905 
3 11573 11804 4 
3 300 11805 11574 
3 102 11802 11575 
3 5245 11815 11612 
3 8411 11798 437 
3 197 11799 196 
3 5888 11813 11590 
3 6785 11823 11712 
3 11711 11824 11298 
3 7233 11825 11709 
3 6803 11826 11708 
3 11710 11822 7248 
3 9086 11810 11589 
3 8746 11809 11587 
3 145 11801 144 
3 564 11802 103 
3 567 11805 301 
3 201 11803 566 
3 399 11804 565 
3 11634 11817 489 
3 11630 11818 433 
3 529 11820 11628 
3 426 11821 11624 
3 8255 11806 9332 
3 9964 11807 494 
3 7698 11821 6825 
3 11576 11803 202 
3 11627 11814 446 
3 9085 11808 9086 
3 9771 11809 5239 
3 6294 11810 10006 
3 548 11811 8746 
3 11574 11816 9832 
3 446 11814 11580 
3 6797 11820 6818 
3 429 11812 122 
3 6819 11818 6804 
3 8254 11813 8255 
3 6909 11817 6910 
3 115 11819 512 
3 8782 11824 550 
3 527 11823 9082 
3 430 11822 9100 
3 565 11804 11573 
3 11574 11805 567 
3 11575 11802 564 
3 11569 11800 423 
3 512 11819 11588 
3 566 11803 11576 
3 494 11807 11620 
3 434 11825 11564 
3 532 11826 11565 
3 8795 11815 11569 
3 11580 11814 6895 
3 11590 11813 8254 
3 6895 11814 11585 
3 11589 11810 6294 
3 11587 11809 9771 
3 11612 11815 8795 
3 11659 11791 8401 
3 11660 11774 8233 
3 11661 11778 7717 
3 11662 11781 7399 
3 11663 11782 7968 
3 11664 11788 8754 
3 11666 11786 6834 
3 11667 11790 7617 
3 11668 11789 6835 
3 11665 11793 476 
3 11669 11792 7188 
3 11670 11794 431 
3 11671 11795 552 
3 11673 11796 519 
3 555 11770 11674 
3 7797 11771 11675 
3 410 11772 11676 
3 486 11775 11677 
3 9629 11773 11678 
3 435 11777 11679 
3 443 11776 11681 
3 491 11779 11680 
3 6838 11785 11684 
3 7060 11783 11685 
3 8116 11780 11686 
3 6839 11784 11687 
3 6840 11787 11688 
3 11733 11816 6833 
3 9832 11816 11733 
3 6833 11816 11592 
3 11624 11821 7698 
3 11628 11820 6797 
3 6804 11818 11630 
3 6910 11817 11634 
3 9100 11822 11710 
3 550 11824 11711 
3 11712 11823 527 
3 11708 11826 532 
3 11709 11825 434 

CELL_TYPES 23252
9
9
9
9
9
9
9
9
9
9
9
9
9
9
9
9
9
9
9
9
9
9
9
9
9
9
9
9
9
9
9
9
9
9
9
9
9
9
9
9
9
9
9
9
9
9
9
9
9
9
9
9
9
9
9
9
9
9
9
9
9
9
9
9
9
9
9
9
9
9
9
9
9
9
9
9
9
9
9
9
9
9
9
9
9
9
9
9
9
9
9
9
9
9
9
9
9
9
9
9
9
9
9
9
9
9
9
9
9
9
9
9
9
9
9
9
9
9
9
9
9
9
9
9
9
9
9
9
9
9
9
9
9
9
9
9
9
9
9
9
9
9
9
9
9
9
9
9
9
9
9
9
9
9
9
9
9
9
9
9
9
9
9
9
9
9
9
9
9
9
9
9
9
9
9
9
9
9
9
9
9
9
9
9
9
9
9
9
9
9
9
9
9
9
9
9
9
9
9
9
9
9
9
9
9
9
9
9
9
9
9
9
9
9
9
9
9
9
9
9
9
9
9
9
9
9
9
9
9
9
9
9
9
9
9
9
9
9
9
9
9
9
9
9
9
9
9
9
9
9
9
9
9
9
9
9
9
9
9
9
9
9
9
9
9
9
9
9
9
9
9
9
9
9
9
9
9
9
9
9
9
9
9
9
9
9
9
9
9
9
9
9
9
9
9
9
9
9
9
9
9
9
9
9
9
9
9
9
9
9
9
9
9
9
9
9
9
9
9
9
9
9
9
9
9
9
9
9
9
9
9
9
9
9
9
9
9
9
9
9
9
9
9
9
9
9
9
9
9
9
9
9
9
9
9
9
9
9
9
9
9
9
9
9
9
9
9
9
9
9
9
9
9
9
9
9
9
9
9
9
9
9
9
9
9
9
9
9
9
9
9
9
9
9
9
9
9
9
9
9
9
9
9
9
9
9
9
9
9
9
9
9
9
9
9
9
9
9
9
9
9
9
9
9
9
9
9
9
9
9
9
9
9
9
9
9
9
9
9
9
9
9
9
9
9
9
9
9
9
9
9
9
9
9
9
9
9
9
9
9
9
9
9
9
9
9
9
9
9
9
9
9
9
9
9
9
9
9
9
9
9
9
9
9
9
9
9
9
9
9
9
9
9
9
9
9
9
9
9
9
9
9
9
9
9
9
9
9
9
9
9
9
9
9
9
9
9
9
9
9
9
9
9
9
9
9
9
9
9
9
9
9
9
9
9
9
9
9
9
9
9
9
9
9
9
9
9
9
9
9
9
9
9
9
9
9
9
9
9
9
9
9
9
9
9
9
9
9
9
9
9
9
9
9
9
9
9
9
9
9
9
9
9
9
9
9
9
9
9
9
9
9
9
9
9
9
9
9
9
9
9
9
9
9
9
9
9
9
9
9
9
9
9
9
9
9
9
9
9
9
9
9
9
9
9
9
9
9
9
9
9
9
9
9
9
9
9
9
9
9
9
9
9
9
9
9
9
9
9
9
9
9
9
9
9
9
9
9
9
9
9
9
9
9
9
9
9
9
9
9
9
9
9
9
9
9
9
9
9
9
9
9
9
9
9
9
9
9
9
9
9
9
9
9
9
9
9
9
9
9
9
9
9
9
9
9
9
9
9
9
9
9
9
9
9
9
9
9
9
9
9
9
9
9
9
9
9
9
9
9
9
9
9
9
9
9
9
9
9
9
9
9
9
9
9
9
9
9
9
9
9
9
9
9
9
9
9
9
9
9
9
9
9
9
9
9
9
9
9
9
9
9
9
9
9
9
9
9
9
9
9
9
9
9
9
9
9
9
9
9
9
9
9
9
9
9
9
9
9
9
9
9
9
9
9
9
9
9
9
9
9
9
9
9
9
9
9
9
9
9
9
9
9
9
9
9
9
9
9
9
9
9
9
9
9
9
9
9
9
9
9
9
9
9
9
9
9
9
9
9
9
9
9
9
9
9
9
9
9
9
9
9
9
9
9
9
9
9
9
9
9
9
9
9
9
9
9
9
9
9
9
9
9
9
9
9
9
9
9
9
9
9
9
9
9
9
9
9
9
9
9
9
9
9
9
9
9
9
9
9
9
9
9
9
9
9
9
9
9
9
9
9
9
9
9
9
9
9
9
9
9
9
9
9
9
9
9
9
9
9
9
9
9
9
9
9
9
9
9
9
9
9
9
9
9
9
9
9
9
9
9
9
9
9
9
9
9
9
9
9
9
9
9
9
9
9
9
9
9
9
9
9
9
9
9
9
9
9
9
9
9
9
9
9
9
9
9
9
9
9
9
9
9
9
9
9
9
9
9
9
9
9
9
9
9
9
9
9
9
9
9
9
9
9
9
9
9
9
9
9
9
9
9
9
9
9
9
9
9
9
9
9
9
9
9
9
9
9
9
9
9
9
9
9
9
9
9
9
9
9
9
9
9
9
9
9
9
9
9
9
9
9
9
9
9
9
9
9
9
9
9
9
9
9
9
9
9
9
9
9
9
9
9
9
9
9
9
9
9
9
9
9
9
9
9
9
9
9
9
9
9
9
9
9
9
9
9
9
9
9
9
9
9
9
9
9
9
9
9
9
9
9
9
9
9
9
9
9
9
9
9
9
9
9
9
9
9
9
9
9
9
9
9
9
9
9
9
9
9
9
9
9
9
9
9
9
9
9
9
9
9
9
9
9
9
9
9
9
9
9
9
9
9
9
9
9
9
9
9
9
9
9
9
9
9
9
9
9
9
9
9
9
9
9
9
9
9
9
9
9
9
9
9
9
9
9
9
9
9
9
9
9
9
9
9
9
9
9
9
9
9
9
9
9
9
9
9
9
9
9
9
9
9
9
9
9
9
9
9
9
9
9
9
9
9
9
9
9
9
9
9
9
9
9
9
9
9
9
9
9
9
9
9
9
9
9
9
9
9
9
9
9
9
9
9
9
9
9
9
9
9
9
9
9
9
9
9
9
9
9
9
9
9
9
9
9
9
9
9
9
9
9
9
9
9
9
9
9
9
9
9
9
9
9
9
9
9
9
9
9
9
9
9
9
9
9
9
9
9
9
9
9
9
9
9
9
9
9
9
9
9
9
9
9
9
9
9
9
9
9
9
9
9
9
9
9
9
9
9
9
9
9
9
9
9
9
9
9
9
9
9
9
9
9
9
9
9
9
9
9
9
9
9
9
9
9
9
9
9
9
9
9
9
9
9
9
9
9
9
9
9
9
9
9
9
9
9
9
9
9
9
9
9
9
9
9
9
9
9
9
9
9
9
9
9
9
9
9
9
9
9
9
9
9
9
9
9
9
9
9
9
9
9
9
9
9
9
9
9
9
9
9
9
9
9
9
9
9
9
9
9
9
9
9
9
9
9
9
9
9
9
9
9
9
9
9
9
9
9
9
9
9
9
9
9
9
9
9
9
9
9
9
9
9
9
9
9
9
9
9
9
9
9
9
9
9
9
9
9
9
9
9
9
9
9
9
9
9
9
9
9
9
9
9
9
9
9
9
9
9
9
9
9
9
9
9
9
9
9
9
9
9
9
9
9
9
9
9
9
9
9
9
9
9
9
9
9
9
9
9
9
9
9
9
9
9
9
9
9
9
9
9
9
9
9
9
9
9
9
9
9
9
9
9
9
9
9
9
9
9
9
9
9
9
9
9
9
9
9
9
9
9
9
9
9
9
9
9
9
9
9
9
9
9
9
9
9
9
9
9
9
9
9
9
9
9
9
9
9
9
9
9
9
9
9
9
9
9
9
9
9
9
9
9
9
9
9
9
9
9
9
9
9
9
9
9
9
9
9
9
9
9
9
9
9
9
9
9
9
9
9
9
9
9
9
9
9
9
9
9
9
9
9
9
9
9
9
9
9
9
9
9
9
9
9
9
9
9
9
9
9
9
9
9
9
9
9
9
9
9
9
9
9
9
9
9
9
9
9
9
9
9
9
9
9
9
9
9
9
9
9
9
9
9
9
9
9
9
9
9
9
9
9
9
9
9
9
9
9
9
9
9
9
9
9
9
9
9
9
9
9
9
9
9
9
9
9
9
9
9
9
9
9
9
9
9
9
9
9
9
9
9
9
9
9
9
9
9
9
9
9
9
9
9
9
9
9
9
9
9
9
9
9
9
9
9
9
9
9
9
9
9
9
9
9
9
9
9
9
9
9
9
9
9
9
9
9
9
9
9
9
9
9
9
9
9
9
9
9
9
9
9
9
9
9
9
9
9
9
9
9
9
9
9
9
9
9
9
9
9
9
9
9
9
9
9
9
9
9
9
9
9
9
9
9
9
9
9
9
9
9
9
9
9
9
9
9
9
9
9
9
9
9
9
9
9
9
9
9
9
9
9
9
9
9
9
9
9
9
9
9
9
9
9
9
9
9
9
9
9
9
9
9
9
9
9
9
9
9
9
9
9
9
9
9
9
9
9
9
9
9
9
9
9
9
9
9
9
9
9
9
9
9
9
9
9
9
9
9
9
9
9
9
9
9
9
9
9
9
9
9
9
9
9
9
9
9
9
9
9
9
9
9
9
9
9
9
9
9
9
9
9
9
9
9
9
9
9
9
9
9
9
9
9
9
9
9
9
9
9
9
9
9
9
9
9
9
9
9
9
9
9
9
9
9
9
9
9
9
9
9
9
9
9
9
9
9
9
9
9
9
9
9
9
9
9
9
9
9
9
9
9
9
9
9
9
9
9
9
9
9
9
9
9
9
9
9
9
9
9
9
9
9
9
9
9
9
9
9
9
9
9
9
9
9
9
9
9
9
9
9
9
9
9
9
9
9
9
9
9
9
9
9
9
9
9
9
9
9
9
9
9
9
9
9
9
9
9
9
9
9
9
9
9
9
9
9
9
9
9
9
9
9
9
9
9
9
9
9
9
9
9
9
9
9
9
9
9
9
9
9
9
9
9
9
9
9
9
9
9
9
9
9
9
9
9
9
9
9
9
9
9
9
9
9
9
9
9
9
9
9
9
9
9
9
9
9
9
9
9
9
9
9
9
9
9
9
9
9
9
9
9
9
9
9
9
9
9
9
9
9
9
9
9
9
9
9
9
9
9
9
9
9
9
9
9
9
9
9
9
9
9
9
9
9
9
9
9
9
9
9
9
9
9
9
9
9
9
9
9
9
9
9
9
9
9
9
9
9
9
9
9
9
9
9
9
9
9
9
9
9
9
9
9
9
9
9
9
9
9
9
9
9
9
9
9
9
9
9
9
9
9
9
9
9
9
9
9
9
9
9
9
9
9
9
9
9
9
9
9
9
9
9
9
9
9
9
9
9
9
9
9
9
9
9
9
9
9
9
9
9
9
9
9
9
9
9
9
9
9
9
9
9
9
9
9
9
9
9
9
9
9
9
9
9
9
9
9
9
9
9
9
9
9
9
9
9
9
9
9
9
9
9
9
9
9
9
9
9
9
9
9
9
9
9
9
9
9
9
9
9
9
9
9
9
9
9
9
9
9
9
9
9
9
9
9
9
9
9
9
9
9
9
9
9
9
9
9
9
9
9
9
9
9
9
9
9
9
9
9
9
9
9
9
9
9
9
9
9
9
9
9
9
9
9
9
9
9
9
9
9
9
9
9
9
9
9
9
9
9
9
9
9
9
9
9
9
9
9
9
9
9
9
9
9
9
9
9
9
9
9
9
9
9
9
9
9
9
9
9
9
9
9
9
9
9
9
9
9
9
9
9
9
9
9
9
9
9
9
9
9
9
9
9
9
9
9
9
9
9
9
9
9
9
9
9
9
9
9
9
9
9
9
9
9
9
9
9
9
9
9
9
9
9
9
9
9
9
9
9
9
9
9
9
9
9
9
9
9
9
9
9
9
9
9
9
9
9
9
9
9
9
9
9
9
9
9
9
9
9
9
9
9
9
9
9
9
9
9
9
9
9
9
9
9
9
9
9
9
9
9
9
9
9
9
9
9
9
9
9
9
9
9
9
9
9
9
9
9
9
9
9
9
9
9
9
9
9
9
9
9
9
9
9
9
9
9
9
9
9
9
9
9
9
9
9
9
9
9
9
9
9
9
9
9
9
9
9
9
9
9
9
9
9
9
9
9
9
9
9
9
9
9
9
9
9
9
9
9
9
9
9
9
9
9
9
9
9
9
9
9
9
9
9
9
9
9
9
9
9
9
9
9
9
9
9
9
9
9
9
9
9
9
9
9
9
9
9
9
9
9
9
9
9
9
9
9
9
9
9
9
9
9
9
9
9
9
9
9
9
9
9
9
9
9
9
9
9
9
9
9
9
9
9
9
9
9
9
9
9
9
9
9
9
9
9
9
9
9
9
9
9
9
9
9
9
9
9
9
9
9
9
9
9
9
9
9
9
9
9
9
9
9
9
9
9
9
9
9
9
9
9
9
9
9
9
9
9
9
9
9
9
9
9
9
9
9
9
9
9
9
9
9
9
9
9
9
9
9
9
9
9
9
9
9
9
9
9
9
9
9
9
9
9
9
9
9
9
9
9
9
9
9
9
9
9
9
9
9
9
9
9
9
9
9
9
9
9
9
9
9
9
9
9
9
9
9
9
9
9
9
9
9
9
9
9
9
9
9
9
9
9
9
9
9
9
9
9
9
9
9
9
9
9
9
9
9
9
9
9
9
9
9
9
9
9
9
9
9
9
9
9
9
9
9
9
9
9
9
9
9
9
9
9
9
9
9
9
9
9
9
9
9
9
9
9
9
9
9
9
9
9
9
9
9
9
9
9
9
9
9
9
9
9
9
9
9
9
9
9
9
9
9
9
9
9
9
9
9
9
9
9
9
9
9
9
9
9
9
9
9
9
9
9
9
9
9
9
9
9
9
9
9
9
9
9
9
9
9
9
9
9
9
9
9
9
9
9
9
9
9
9
9
9
9
9
9
9
9
9
9
9
9
9
9
9
9
9
9
9
9
9
9
9
9
9
9
9
9
9
9
9
9
9
9
9
9
9
9
9
9
9
9
9
9
9
9
9
9
9
9
9
9
9
9
9
9
9
9
9
9
9
9
9
9
9
9
9
9
9
9
9
9
9
9
9
9
9
9
9
9
9
9
9
9
9
9
9
9
9
9
9
9
9
9
9
9
9
9
9
9
9
9
9
9
9
9
9
9
9
9
9
9
9
9
9
9
9
9
9
9
9
9
9
9
9
9
9
9
9
9
9
9
9
9
9
9
9
9
9
9
9
9
9
9
9
9
9
9
9
9
9
9
9
9
9
9
9
9
9
9
9
9
9
9
9
9
9
9
9
9
9
9
9
9
9
9
9
9
9
9
9
9
9
9
9
9
9
9
9
9
9
9
9
9
9
9
9
9
9
9
9
9
9
9
9
9
9
9
9
9
9
9
9
9
9
9
9
9
9
9
9
9
9
9
9
9
9
9
9
9
9
9
9
9
9
9
9
9
9
9
9
9
9
9
9
9
9
9
9
9
9
9
9
9
9
9
9
9
9
9
9
9
9
9
9
9
9
9
9
9
9
9
9
9
9
9
9
9
9
9
9
9
9
9
9
9
9
9
9
9
9
9
9
9
9
9
9
9
9
9
9
9
9
9
9
9
9
9
9
9
9
9
9
9
9
9
9
9
9
9
9
9
9
9
9
9
9
9
9
9
9
9
9
9
9
9
9
9
9
9
9
9
9
9
9
9
9
9
9
9
9
9
9
9
9
9
9
9
9
9
9
9
9
9
9
9
9
9
9
9
9
9
9
9
9
9
9
9
9
9
9
9
9
9
9
9
9
9
9
9
9
9
9
9
9
9
9
9
9
9
9
9
9
9
9
9
9
9
9
9
9
9
9
9
9
9
9
9
9
9
9
9
9
9
9
9
9
9
9
9
9
9
9
9
9
9
9
9
9
9
9
9
9
9
9
9
9
9
9
9
9
9
9
9
9
9
9
9
9
9
9
9
9
9
9
9
9
9
9
9
9
9
9
9
9
9
9
9
9
9
9
9
9
9
9
9
9
9
9
9
9
9
9
9
9
9
9
9
9
9
9
9
9
9
9
9
9
9
9
9
9
9
9
9
9
9
9
9
9
9
9
9
9
9
9
9
9
9
9
9
9
9
9
9
9
9
9
9
9
9
9
9
9
9
9
9
9
9
9
9
9
9
9
9
9
9
9
9
9
9
9
9
9
9
9
9
9
9
9
9
9
9
9
9
9
9
9
9
9
9
9
9
9
9
9
9
9
9
9
9
9
9
9
9
9
9
9
9
9
9
9
9
9
9
9
9
9
9
9
9
9
9
9
9
9
9
9
9
9
9
9
9
9
9
9
9
9
9
9
9
9
9
9
9
9
9
9
9
9
9
9
9
9
9
9
9
9
9
9
9
9
9
9
9
9
9
9
9
9
9
9
9
9
9
9
9
9
9
9
9
9
9
9
9
9
9
9
9
9
9
9
9
9
9
9
9
9
9
9
9
9
9
9
9
9
9
9
9
9
9
9
9
9
9
9
9
9
9
9
9
9
9
9
9
9
9
9
9
9
9
9
9
9
9
9
9
9
9
9
9
9
9
9
9
9
9
9
9
9
9
9
9
9
9
9
9
9
9
9
9
9
9
9
9
9
9
9
9
9
9
9
9
9
9
9
9
9
9
9
9
9
9
9
9
9
9
9
9
9
9
9
9
9
9
9
9
9
9
9
9
9
9
9
9
9
9
9
9
9
9
9
9
9
9
9
9
9
9
9
9
9
9
9
9
9
9
9
9
9
9
9
9
9
9
9
9
9
9
9
9
9
9
9
9
9
9
9
9
9
9
9
9
9
9
9
9
9
9
9
9
9
9
9
9
9
9
9
9
9
9
9
9
9
9
9
9
9
9
9
9
9
9
9
9
9
9
9
9
9
9
9
9
9
9
9
9
9
9
9
9
9
9
9
9
9
9
9
9
9
9
9
9
9
9
9
9
9
9
9
9
9
9
9
9
9
9
9
9
9
9
9
9
9
9
9
9
9
9
9
9
9
9
9
9
9
9
9
9
9
9
9
9
9
9
9
9
9
9
9
9
9
9
9
9
9
9
9
9
9
9
9
9
9
9
9
9
9
9
9
9
9
9
9
9
9
9
9
9
9
9
9
9
9
9
9
9
9
9
9
9
9
9
9
9
9
9
9
9
9
9
9
9
9
9
9
9
9
9
9
9
9
9
9
9
9
9
9
9
9
9
9
9
9
9
9
9
9
9
9
9
9
9
9
9
9
9
9
9
9
9
9
9
9
9
9
9
9
9
9
9
9
9
9
9
9
9
9
9
9
9
9
9
9
9
9
9
9
9
9
9
9
9
9
9
9
9
9
9
9
9
9
9
9
9
9
9
9
9
9
9
9
9
9
9
9
9
9
9
9
9
9
9
9
9
9
9
9
9
9
9
9
9
9
9
9
9
9
9
9
9
9
9
9
9
9
9
9
9
9
9
9
9
9
9
9
9
9
9
9
9
9
9
9
9
9
9
9
9
9
9
9
9
9
9
9
9
9
9
9
9
9
9
9
9
9
9
9
9
9
9
9
9
9
9
9
9
9
9
9
9
9
9
9
9
9
9
9
9
9
9
9
9
9
9
9
9
9
9
9
9
9
9
9
9
9
9
9
9
9
9
9
9
9
9
9
9
9
9
9
9
9
9
9
9
9
9
9
9
9
9
9
9
9
9
9
9
9
9
9
9
9
9
9
9
9
9
9
9
9
9
9
9
9
9
9
9
9
9
9
9
9
9
9
9
9
9
9
9
9
9
9
9
9
9
9
9
9
9
9
9
9
9
9
9
9
9
9
9
9
9
9
9
9
9
9
9
9
9
9
9
9
9
9
9
9
9
9
9
9
9
9
9
9
9
9
9
9
9
9
9
9
9
9
9
9
9
9
9
9
9
9
9
9
9
9
9
9
9
9
9
9
9
9
9
9
9
9
9
9
9
9
9
9
9
9
9
9
9
9
9
9
9
9
9
9
9
9
9
9
9
9
9
9
9
9
9
9
9
9
9
9
9
9
9
9
9
9
9
9
9
9
9
9
9
9
9
9
9
9
9
9
9
9
9
9
9
9
9
9
9
9
9
9
9
9
9
9
9
9
9
9
9
9
9
9
9
9
9
9
9
9
9
9
9
9
9
9
9
9
9
9
9
9
9
9
9
9
9
9
9
9
9
9
9
9
9
9
9
9
9
9
9
9
9
9
9
9
9
9
9
9
9
9
9
9
9
9
9
9
9
9
9
9
9
9
9
9
9
9
9
9
9
9
9
9
9
9
9
9
9
9
9
9
9
9
9
9
9
9
9
9
9
9
9
9
9
9
9
9
9
9
9
9
9
9
9
9
9
9
9
9
9
9
9
9
9
9
9
9
9
9
9
9
9
9
9
9
9
9
9
9
9
9
9
9
9
9
9
9
9
9
9
9
9
9
9
9
9
9
9
9
9
9
9
9
9
9
9
9
9
9
9
9
9
9
9
9
9
9
9
9
9
9
9
9
9
9
9
9
9
9
9
9
9
9
9
9
9
9
9
9
9
9
9
9
9
9
9
9
9
9
9
9
9
9
9
9
9
9
9
9
9
9
9
9
9
9
9
9
9
9
9
9
9
9
9
9
9
9
9
9
9
9
9
9
9
9
9
9
9
9
9
9
9
9
9
9
9
9
9
9
9
9
9
9
9
9
9
9
9
9
9
9
9
9
9
9
9
9
9
9
9
9
9
9
9
9
9
9
9
9
9
9
9
9
9
9
9
9
9
9
9
9
9
9
9
9
9
9
9
9
9
9
9
9
9
9
9
9
9
9
9
9
9
9
9
9
9
9
9
9
9
9
9
9
9
9
9
9
9
9
9
9
9
9
9
9
9
9
9
9
9
9
9
9
9
9
9
9
9
9
9
9
9
9
9
9
9
9
9
9
9
9
9
9
9
9
9
9
9
9
9
9
9
9
9
9
9
9
9
9
9
9
9
9
9
9
9
9
9
9
9
9
9
9
9
9
9
9
9
9
9
9
9
9
9
9
9
9
9
9
9
9
9
9
9
9
9
9
9
9
9
9
9
9
9
9
9
9
9
9
9
9
9
9
9
9
9
9
9
9
9
9
9
9
9
9
9
9
9
9
9
9
9
9
9
9
9
9
9
9
9
9
9
9
9
9
9
9
9
9
9
9
9
9
9
9
9
9
9
9
9
9
9
9
9
9
9
9
9
9
9
9
9
9
9
9
9
9
9
9
9
9
9
9
9
9
9
9
9
9
9
9
9
9
9
9
9
9
9
9
9
9
9
9
9
9
9
9
9
9
9
9
9
9
9
9
9
9
9
9
9
9
9
9
9
9
9
9
9
9
9
9
9
9
9
9
9
9
9
9
9
9
9
9
9
9
9
9
9
9
9
9
9
9
9
9
9
9
9
9
9
9
9
9
9
9
9
9
9
9
9
9
9
9
9
9
9
9
9
9
9
9
9
9
9
9
9
9
9
9
9
9
9
9
9
9
9
9
9
9
9
9
9
9
9
9
9
9
9
9
9
9
9
9
9
9
9
9
9
9
9
9
9
9
9
9
9
9
9
9
9
9
9
9
9
9
9
9
9
9
9
9
9
9
9
9
9
9
9
9
9
9
9
9
9
9
9
9
9
9
9
9
9
9
9
9
9
9
9
9
9
9
9
9
9
9
9
9
9
9
9
9
9
9
9
9
9
9
9
9
9
9
9
9
9
9
9
9
9
9
9
9
9
9
9
9
9
9
9
9
9
9
9
9
9
9
9
9
9
9
9
9
9
9
9
9
9
9
9
9
9
9
9
9
9
9
9
9
9
9
9
9
9
9
9
9
9
9
9
9
9
9
9
9
9
9
9
9
9
9
9
9
9
9
9
9
9
9
9
9
9
9
9
9
9
9
9
9
9
9
9
9
9
9
9
9
9
9
9
9
9
9
9
9
9
9
9
9
9
9
9
9
9
9
9
9
9
9
9
9
9
9
9
9
9
9
9
9
9
9
9
9
9
9
9
9
9
9
9
9
9
9
9
9
9
9
9
9
9
9
9
9
9
9
9
9
9
9
9
9
9
9
9
9
9
9
9
9
9
9
9
9
9
9
9
9
9
9
9
9
9
9
9
9
9
9
9
9
9
9
9
9
9
9
9
9
9
9
9
9
9
9
9
9
9
9
9
9
9
9
9
9
9
9
9
9
9
9
9
9
9
9
9
9
9
9
9
9
9
9
9
9
9
9
9
9
9
9
9
9
9
9
9
9
9
9
9
9
9
9
9
9
9
9
9
9
9
9
9
9
9
9
9
9
9
9
9
9
9
9
9
9
9
9
9
9
9
9
9
9
9
9
9
9
9
9
9
9
9
9
9
9
9
9
9
9
9
9
9
9
9
9
9
9
9
9
9
9
9
9
9
9
9
9
9
9
9
9
9
9
9
9
9
9
9
9
9
9
9
9
9
9
9
9
9
9
9
9
9
9
9
9
9
9
9
9
9
9
9
9
9
9
9
9
9
9
9
9
9
9
9
9
9
9
9
9
9
9
9
9
9
9
9
9
9
9
9
9
9
9
9
9
9
9
9
9
9
9
9
9
9
9
9
9
9
9
9
9
9
9
9
9
9
9
9
9
9
9
9
9
9
9
9
9
9
9
9
9
9
9
9
9
9
9
9
9
9
9
9
9
9
9
9
9
9
9
9
9
9
9
9
9
9
9
9
9
9
9
9
9
9
9
9
9
9
9
9
9
9
9
9
9
9
9
9
9
9
9
9
9
9
9
9
9
9
9
9
9
9
9
9
9
9
9
9
9
9
9
9
9
9
9
9
9
9
9
9
9
9
9
9
9
9
9
9
9
9
9
9
9
9
9
9
9
9
9
9
9
9
9
9
9
9
9
9
9
9
9
9
9
9
9
9
9
9
9
9
9
9
9
9
9
9
9
9
9
9
9
9
9
9
9
9
9
9
9
9
9
9
9
9
9
9
9
9
9
9
9
9
9
9
9
9
9
9
9
9
9
9
9
9
9
9
9
9
9
9
9
9
9
9
9
9
9
9
9
9
9
9
9
9
9
9
9
9
9
9
9
9
9
9
9
9
9
9
9
9
9
9
9
9
9
9
9
9
9
9
9
9
9
9
9
9
9
9
9
9
9
9
9
9
9
9
9
9
9
9
9
9
9
9
9
9
9
9
9
9
9
9
9
9
9
9
9
9
9
9
9
9
9
9
9
9
9
9
9
9
9
9
9
9
9
9
9
9
9
9
9
9
9
9
9
9
9
9
9
9
9
9
9
9
9
9
9
9
9
9
9
9
9
9
9
9
9
9
9
9
9
9
9
9
9
9
9
9
9
9
9
9
9
9
9
9
9
9
9
9
9
9
9
9
9
9
9
9
9
9
9
9
9
9
9
9
9
9
9
9
9
9
9
9
9
9
9
9
9
9
9
9
9
9
9
9
9
9
9
9
9
9
9
9
9
9
9
9
9
9
9
9
9
9
9
9
9
9
9
9
9
9
9
9
9
9
9
9
9
9
9
9
9
9
9
9
9
9
9
9
9
9
9
9
9
9
9
9
9
9
9
9
9
9
9
9
9
9
9
9
9
9
9
9
9
9
9
9
9
9
9
9
9
9
9
9
9
9
9
9
9
9
9
9
9
9
9
9
9
9
9
9
9
9
9
9
9
9
9
9
9
9
9
9
9
9
9
9
9
9
9
9
9
9
9
9
9
9
9
9
9
9
9
9
9
9
9
9
9
9
9
9
9
9
9
9
9
9
9
9
9
9
9
9
9
9
9
9
9
9
9
9
9
9
9
9
9
9
9
9
9
9
9
9
9
9
9
9
9
9
9
9
9
9
9
9
9
9
9
9
9
9
9
9
9
9
9
9
9
9
9
9
9
9
9
9
9
9
9
9
9
9
9
9
9
9
9
9
9
9
9
9
9
9
9
9
9
9
9
9
9
9
9
9
9
9
9
9
9
9
9
9
9
9
9
9
9
9
9
9
9
9
9
9
9
9
9
9
9
9
9
9
9
9
9
9
9
9
9
9
9
9
9
9
9
9
9
9
9
9
9
9
9
9
9
9
9
9
9
9
9
9
9
9
9
9
9
9
9
9
9
9
9
9
9
9
9
9
9
9
9
9
9
9
9
9
9
9
9
9
9
9
9
9
9
9
9
9
9
9
9
9
9
9
9
9
9
9
9
9
9
9
9
9
9
9
9
9
9
9
9
9
9
9
9
9
9
9
9
9
9
9
9
9
9
9
9
9
9
9
9
9
9
9
9
9
9
9
9
9
9
9
9
9
9
9
9
9
9
9
9
9
9
9
9
9
9
9
9
9
9
9
9
9
9
9
9
9
9
9
9
9
9
9
9
9
9
9
9
9
9
9
9
9
9
9
9
9
9
9
9
9
9
9
9
9
9
9
9
9
9
9
9
9
9
9
9
9
9
9
9
9
9
9
9
9
9
9
9
9
9
9
9
9
9
9
9
9
9
9
9
9
9
9
9
9
9
9
9
9
9
9
9
9
9
9
9
9
9
9
9
9
9
9
9
9
9
9
9
9
9
9
9
9
9
9
9
9
9
9
9
9
9
9
9
9
9
9
9
9
9
9
9
9
9
9
9
9
9
9
9
9
9
9
9
9
9
9
9
9
9
9
9
9
9
9
9
9
9
9
9
9
9
9
9
9
9
9
9
9
9
9
9
9
9
9
9
9
9
9
9
9
9
9
9
9
9
9
9
9
9
9
9
9
9
9
9
9
9
9
9
9
9
9
9
9
9
9
9
9
9
9
9
9
9
9
9
9
9
9
9
9
9
9
9
9
9
9
9
9
9
9
9
9
9
9
9
9
9
9
9
9
9
9
9
9
9
9
9
9
9
9
9
9
9
9
9
9
9
9
9
9
9
9
9
9
9
9
9
9
9
9
9
9
9
9
9
9
9
9
9
9
9
9
9
9
9
9
9
9
9
9
9
9
9
9
9
9
9
9
9
9
9
9
9
9
9
9
9
9
9
9
9
9
9
9
9
9
9
9
9
9
9
9
9
9
9
9
9
9
9
9
9
9
9
9
9
9
9
9
9
9
9
9
9
9
9
9
9
9
9
9
9
9
9
9
9
9
9
9
9
9
9
9
9
9
9
9
9
9
9
9
9
9
9
9
9
9
9
9
9
9
9
9
9
9
9
9
9
9
9
9
9
9
9
9
9
9
9
9
9
9
9
9
9
9
9
9
9
9
9
9
9
9
9
9
9
9
9
9
9
9
9
9
9
9
9
9
9
9
9
9
9
9
9
9
9
9
9
9
9
9
9
9
9
9
9
9
9
9
9
9
9
9
9
9
9
9
9
9
9
9
9
9
9
9
9
9
9
9
9
9
9
9
9
9
9
9
9
9
9
9
9
9
9
9
9
9
9
9
9
9
9
9
9
9
9
9
9
9
9
9
9
9
9
9
9
9
9
9
9
9
9
9
9
9
9
9
9
9
9
9
9
9
9
9
9
9
9
9
9
9
9
9
9
9
9
9
9
9
9
9
9
9
9
9
9
9
9
9
9
9
9
9
9
9
9
9
9
9
9
9
9
9
9
9
9
9
9
9
9
9
9
9
9
9
9
9
9
9
9
9
9
9
9
9
9
9
9
9
9
9
9
9
9
9
9
9
9
9
9
9
9
9
9
9
9
9
9
9
9
9
9
9
9
9
9
9
9
9
9
9
9
9
9
9
9
9
9
9
9
9
9
9
9
9
9
9
9
9
9
9
9
9
9
9
9
9
9
9
9
9
9
9
9
9
9
9
9
9
9
9
9
9
9
9
9
9
9
9
9
9
9
9
9
9
9
9
9
9
9
9
9
9
9
9
9
9
9
9
9
9
9
9
9
9
9
9
9
9
9
9
9
9
9
9
9
9
9
9
9
9
9
9
9
9
9
9
9
9
9
9
9
9
9
9
9
9
9
9
9
9
9
9
9
9
9
9
9
9
9
9
9
9
9
9
9
9
9
9
9
9
9
9
9
9
9
9
9
9
9
9
9
9
9
9
9
9
9
9
9
9
9
9
9
9
9
9
9
9
9
9
9
9
9
9
9
9
9
9
9
9
9
9
9
9
9
9
9
9
9
9
9
9
9
9
9
9
9
9
9
9
9
9
9
9
9
9
9
9
9
9
9
9
9
9
9
9
9
9
9
9
9
9
9
9
9
9
9
9
9
9
9
9
9
9
9
9
9
9
9
9
9
9
9
9
9
9
9
9
9
9
9
9
9
9
9
9
9
9
9
9
9
9
9
9
9
9
9
9
9
9
9
9
9
9
9
9
9
9
9
9
9
9
9
9
9
9
9
9
9
9
9
9
9
9
9
9
9
9
9
9
9
9
9
9
9
9
9
9
9
9
9
9
9
9
9
9
9
9
9
9
9
9
9
9
9
9
9
9
9
9
9
9
9
9
9
9
9
9
9
9
9
9
9
9
9
9
9
9
9
9
9
9
9
9
9
9
9
9
9
9
9
9
9
9
9
9
9
9
9
9
9
9
9
9
9
9
9
9
9
9
9
9
9
9
9
9
9
9
9
9
9
9
9
9
9
9
9
9
9
9
9
9
9
9
9
9
9
9
9
9
9
9
9
9
9
9
9
9
9
9
9
9
9
9
9
9
9
9
9
9
9
9
9
9
9
9
9
9
9
9
9
9
9
9
9
9
9
9
9
9
9
9
9
9
9
9
9
9
9
9
9
9
9
9
9
9
9
9
9
9
9
9
9
9
9
9
9
9
9
9
9
9
9
9
9
9
9
9
9
9
9
9
9
9
9
9
9
9
9
9
9
9
9
9
9
9
9
9
9
9
9
9
9
9
9
9
9
9
9
9
9
9
9
9
9
9
9
9
9
9
9
9
9
9
9
9
9
9
9
9
9
9
9
9
9
9
9
9
9
9
9
9
9
9
9
9
9
9
9
9
9
9
9
9
9
9
9
9
9
9
9
9
9
9
9
9
9
9
9
9
9
9
9
9
9
9
9
9
9
9
9
9
9
9
9
9
9
9
9
9
9
9
9
9
9
9
9
9
9
9
9
9
9
9
9
9
9
9
9
9
9
9
9
9
9
9
9
9
9
9
9
9
9
9
9
9
9
9
9
9
9
9
9
9
9
9
9
9
9
9
9
9
9
9
9
9
9
9
9
9
9
9
9
9
9
9
9
9
9
9
9
9
9
9
9
9
9
9
9
9
9
9
9
9
9
9
9
9
9
9
9
9
9
9
9
9
9
9
9
9
9
9
9
9
9
9
9
9
9
9
9
9
9
9
9
9
9
9
9
9
9
9
9
9
9
9
9
9
9
9
9
9
9
9
9
9
9
9
9
9
9
9
9
9
9
9
9
9
9
9
9
9
9
9
9
9
9
9
9
9
9
9
9
9
9
9
9
9
9
9
9
9
9
9
9
9
9
9
9
9
9
9
9
9
9
9
9
9
9
9
9
9
9
9
9
9
9
9
9
9
9
9
9
9
9
9
9
9
9
9
9
9
9
9
9
9
9
9
9
9
9
9
9
9
9
9
9
9
9
9
9
9
9
9
9
9
9
9
9
9
9
9
9
9
9
9
9
9
9
9
9
9
9
9
9
9
9
9
9
9
9
9
9
9
9
9
9
9
9
9
9
9
9
9
9
9
9
9
9
9
9
9
9
9
9
9
9
9
9
9
9
9
9
9
9
9
9
9
9
9
9
9
9
9
9
9
9
9
9
9
9
9
9
9
9
9
9
9
9
9
9
9
9
9
9
9
9
9
9
9
9
9
9
9
9
9
9
9
9
9
9
9
9
9
9
9
9
9
9
9
9
9
9
9
9
9
9
9
9
9
9
9
9
9
9
9
9
9
9
9
9
9
9
9
9
9
9
9
9
9
9
9
9
9
9
9
9
9
9
9
9
9
9
9
9
9
9
9
9
9
9
9
9
9
9
9
9
9
9
9
9
9
9
9
9
9
9
9
9
9
9
9
9
9
9
9
9
9
9
9
9
9
9
9
9
9
9
9
9
9
9
9
9
9
9
9
9
9
9
9
9
9
9
9
9
9
9
9
9
9
9
9
9
9
9
9
9
9
9
9
9
9
9
9
9
9
9
9
9
9
9
9
9
9
9
9
9
9
9
9
9
9
9
9
9
9
9
9
9
9
9
9
9
9
9
9
9
9
9
9
9
9
9
9
9
9
9
9
9
9
9
9
9
9
9
9
9
9
9
9
9
9
9
9
9
9
9
9
9
9
9
9
9
9
9
9
9
9
9
9
9
9
9
9
9
9
9
9
9
9
9
9
9
9
9
9
9
9
9
9
9
9
9
9
9
9
9
9
9
9
9
9
9
9
9
9
9
9
9
9
9
9
9
9
9
9
9
9
9
9
9
9
9
9
9
9
9
9
9
9
9
9
9
9
9
9
9
9
9
9
9
9
9
9
9
9
9
9
9
9
9
9
9
9
9
9
9
9
9
9
9
9
9
9
9
9
9
9
9
9
9
9
9
9
9
9
9
9
9
9
9
9
9
9
9
9
9
9
9
9
9
9
9
9
9
9
9
9
9
9
9
9
9
9
9
9
9
9
9
9
9
9
9
9
9
9
9
9
9
9
9
9
9
9
9
9
9
9
9
9
9
9
9
9
9
9
9
9
9
9
9
9
9
9
9
9
9
9
9
9
9
9
9
9
9
9
9
9
9
9
9
9
9
9
9
9
9
9
9
9
9
9
9
9
9
9
9
9
9
9
9
9
9
9
9
9
9
9
9
9
9
9
9
9
9
9
9
9
9
9
9
9
9
9
9
9
9
9
9
9
9
9
9
9
9
9
9
9
9
9
9
9
9
9
9
9
9
9
9
9
9
9
9
9
9
9
9
9
9
9
9
9
9
9
9
9
9
9
9
9
9
9
9
9
9
9
9
9
9
9
9
9
9
9
9
9
9
9
9
9
9
9
9
9
9
9
9
9
9
9
9
9
9
9
9
9
9
9
9
9
9
9
9
9
9
9
9
9
9
9
9
9
9
9
9
9
9
9
9
9
9
9
9
9
9
9
9
9
9
9
9
9
9
9
9
9
9
9
9
9
9
9
9
9
9
9
9
9
9
9
9
9
9
9
9
9
9
9
9
9
9
9
9
9
9
9
9
9
9
9
9
9
9
9
9
9
9
9
9
9
9
9
9
9
9
9
9
9
9
9
9
9
9
9
9
9
9
9
9
9
9
9
9
9
9
9
9
9
9
9
9
9
9
9
9
9
9
9
9
9
9
9
9
9
9
9
9
9
9
9
9
9
9
9
9
9
9
9
9
9
9
9
9
9
9
9
9
9
9
9
9
9
9
9
9
9
9
9
9
9
9
9
9
9
9
9
9
9
9
9
9
9
9
9
9
9
9
9
9
9
9
9
9
9
9
9
9
9
9
9
9
9
9
9
9
9
9
9
9
9
9
9
9
9
9
9
9
9
9
9
9
9
9
9
9
9
9
9
9
9
9
9
9
9
9
9
9
9
9
9
9
9
9
9
9
9
9
9
9
9
9
9
9
9
9
9
9
9
9
9
9
9
9
9
9
9
9
9
9
9
9
9
9
9
9
9
9
9
9
9
9
9
9
9
9
9
9
9
9
9
9
9
9
9
9
9
9
9
9
9
9
9
9
9
9
9
9
9
9
9
9
9
9
9
9
9
9
9
9
9
9
9
9
9
9
9
9
9
9
9
9
9
9
9
9
9
9
9
9
9
9
9
9
9
9
9
9
9
9
9
9
9
9
9
9
9
9
9
9
9
9
9
9
9
9
9
9
9
9
9
9
9
9
9
9
9
9
9
9
9
9
9
9
9
9
9
9
9
9
9
9
9
9
9
9
9
9
9
9
9
9
9
9
9
9
9
9
9
9
9
9
9
9
9
9
9
9
9
9
9
9
9
9
9
9
9
9
9
9
9
9
9
9
9
9
9
9
9
9
9
9
9
9
9
9
9
9
9
9
9
9
9
9
9
9
9
9
9
9
9
9
9
9
9
9
9
9
9
9
9
9
9
9
9
9
9
9
9
9
9
9
9
9
9
9
9
9
9
9
9
9
9
9
9
9
9
9
9
9
9
9
9
9
9
9
9
9
9
9
9
9
9
9
9
9
9
9
9
9
9
9
9
9
9
9
9
9
9
9
9
9
9
9
9
9
9
9
9
9
9
9
9
9
9
9
9
9
9
9
9
9
9
9
9
9
9
9
9
9
9
9
9
9
9
9
9
9
9
9
9
9
9
9
9
9
9
9
9
9
9
9
9
9
9
9
9
9
9
9
9
9
9
9
9
9
9
9
9
9
9
9
9
9
9
9
9
9
9
9
9
9
9
9
9
9
9
9
9
9
9
9
9
9
9
9
9
9
9
9
9
9
9
9
9
9
9
9
9
9
9
9
9
9
9
9
9
9
9
9
9
9
9
9
9
9
9
9
9
9
9
9
9
9
9
9
9
9
9
9
9
9
9
9
9
9
9
9
9
9
9
9
9
9
9
9
9
9
9
9
9
9
9
9
9
9
9
9
9
9
9
9
9
9
9
9
9
9
9
9
9
9
9
9
9
9
9
9
9
9
9
9
9
9
9
9
9
9
9
9
9
9
9
9
9
9
9
9
9
9
9
9
9
9
9
9
9
9
9
9
9
9
9
9
9
9
9
9
9
9
9
9
9
9
9
9
9
9
9
9
9
9
9
9
9
9
9
9
9
9
9
9
9
9
9
9
9
9
9
9
9
9
9
9
9
9
9
9
9
9
9
9
9
9
9
9
9
9
9
9
9
9
9
9
9
9
9
9
9
9
9
9
9
9
9
9
9
9
9
9
9
9
9
9
9
9
9
9
9
9
9
9
9
9
9
9
9
9
9
9
9
9
9
9
9
9
9
9
9
9
9
9
9
9
9
9
9
9
9
9
9
9
9
9
9
9
9
9
9
9
9
9
9
9
9
9
9
9
9
9
9
9
9
9
9
9
9
9
9
9
9
9
9
9
9
9
9
9
9
9
9
9
9
9
9
9
9
9
9
9
9
9
9
9
9
9
9
9
9
9
9
9
9
9
9
9
9
9
9
9
9
9
9
9
9
9
9
9
9
9
9
9
9
9
9
9
9
9
9
9
9
9
9
9
9
9
9
9
9
9
9
9
9
9
9
9
9
9
9
9
9
9
9
9
9
9
9
9
9
9
9
9
9
9
9
9
9
9
9
9
9
9
9
9
9
9
9
9
9
9
9
9
9
9
9
9
9
9
9
9
9
9
9
9
9
9
9
9
9
9
9
9
9
9
9
9
9
9
9
9
9
9
9
9
9
9
9
9
9
9
9
9
9
9
9
9
9
9
9
9
9
9
9
9
9
9
9
9
9
9
9
9
9
9
9
9
9
9
9
9
9
9
9
9
9
9
9
9
9
9
9
9
9
9
9
9
9
9
9
9
9
9
9
9
9
9
9
9
9
9
9
9
9
9
9
9
9
9
9
9
9
9
9
9
9
9
9
9
9
9
9
9
9
9
9
9
9
9
9
9
9
9
9
9
9
9
9
9
9
9
9
9
9
9
9
9
9
9
9
9
9
9
9
9
9
9
9
9
9
9
9
9
9
9
9
9
9
9
9
9
9
9
9
9
9
9
9
9
9
9
9
9
9
9
9
9
9
9
9
9
9
9
9
9
9
9
9
9
9
9
9
9
9
9
9
9
9
9
9
9
9
9
9
9
9
9
9
9
9
9
9
9
9
9
9
9
9
9
9
9
9
9
9
9
9
9
9
9
9
9
9
9
9
9
9
9
9
9
9
9
9
9
9
9
9
9
9
9
9
9
9
9
9
9
9
9
9
9
9
9
9
9
9
9
9
9
9
9
9
9
9
9
9
9
9
9
9
9
9
9
9
9
9
9
9
9
9
9
9
9
9
9
9
9
9
9
9
9
9
9
9
9
9
9
9
9
9
9
9
9
9
9
9
9
9
9
9
9
9
9
9
9
9
9
9
9
9
9
9
9
9
9
9
9
9
9
9
9
9
9
9
9
9
9
9
9
9
9
9
9
9
9
9
9
9
9
9
9
9
9
9
9
9
9
9
9
9
9
9
9
9
9
9
9
9
9
9
9
9
9
9
9
9
9
9
9
9
9
9
9
9
9
9
9
9
9
9
9
9
9
9
9
9
9
9
9
9
9
9
9
9
9
9
9
9
9
9
9
9
9
9
9
9
9
9
9
9
9
9
9
9
9
9
9
9
9
9
9
9
9
9
9
9
9
9
9
9
9
9
9
9
9
9
9
9
9
9
9
9
9
9
9
9
9
9
9
9
9
9
9
9
9
9
9
9
9
9
9
9
9
9
9
9
9
9
9
9
9
9
9
9
9
9
9
9
9
9
9
9
9
9
9
9
9
9
9
9
9
9
9
9
9
9
9
9
9
9
9
9
9
9
9
9
9
9
9
9
9
9
9
9
9
9
9
9
9
9
9
9
9
9
9
9
9
9
9
9
9
9
9
9
9
9
9
9
9
9
9
9
9
9
9
9
9
9
9
9
9
9
9
9
9
9
9
9
9
9
9
9
9
9
9
9
9
9
9
9
9
9
9
9
9
9
9
9
9
9
9
9
9
9
9
9
9
9
9
9
9
9
9
9
9
9
9
9
9
9
9
9
9
9
9
9
9
9
9
9
9
9
9
9
9
9
9
9
9
9
9
9
9
9
9
9
9
9
9
9
9
9
9
9
9
9
9
9
9
9
9
9
9
9
9
9
9
9
9
9
9
9
9
9
9
9
9
9
9
9
9
9
9
9
9
9
9
9
9
9
9
9
9
9
9
9
9
9
9
9
9
9
9
9
9
9
9
9
9
9
9
9
9
9
9
9
9
9
9
9
9
9
9
9
9
9
9
9
9
9
9
9
9
9
9
9
9
9
9
9
9
9
9
9
9
9
9
9
9
9
9
9
9
9
9
9
9
9
9
9
9
9
9
9
9
9
9
9
9
9
9
9
9
9
9
9
9
9
9
9
9
9
9
9
9
9
9
9
9
9
9
9
9
9
9
9
9
9
9
9
9
9
9
9
9
9
9
9
9
9
9
9
9
9
9
9
9
9
9
9
9
9
9
9
9
9
9
9
9
9
9
9
9
9
9
9
9
9
9
9
9
9
9
9
9
9
9
9
9
9
9
9
9
9
9
9
9
9
9
9
9
9
9
9
9
9
9
9
9
9
9
9
9
9
9
9
9
9
9
9
9
9
9
9
9
9
9
9
9
9
9
9
9
9
9
9
9
9
9
9
9
9
9
9
9
9
9
9
9
9
9
9
9
9
9
9
9
9
9
9
9
9
9
9
9
9
9
9
9
9
9
9
9
9
9
9
9
9
9
9
9
9
9
9
9
9
9
9
9
9
9
9
9
9
9
9
9
9
9
9
9
9
9
9
9
9
9
9
9
9
9
9
9
9
9
9
9
9
9
9
9
9
9
9
9
9
9
9
9
9
9
9
9
9
9
9
9
9
9
9
9
9
9
9
9
9
9
9
9
9
9
9
9
9
9
9
9
9
9
9
9
9
9
9
9
9
9
9
9
9
9
9
9
9
9
9
9
9
9
9
9
9
9
9
9
9
9
9
9
9
9
9
9
9
9
9
9
9
9
9
9
9
9
9
9
9
9
9
9
9
9
9
9
9
9
9
9
9
9
9
9
9
9
9
9
9
9
9
9
9
9
9
9
9
9
9
9
9
9
9
9
9
9
9
9
9
9
9
9
9
9
9
9
9
9
9
9
9
9
9
9
9
9
9
9
9
9
9
9
9
9
9
9
9
9
9
9
9
9
9
9
9
9
9
9
9
9
9
9
9
9
9
9
9
9
9
9
9
9
9
9
9
9
9
9
9
9
9
9
9
9
9
9
9
9
9
9
9
9
9
9
9
9
9
9
9
9
9
9
9
9
9
9
9
9
9
9
9
9
9
9
9
9
9
9
9
9
9
9
9
9
9
9
9
9
9
9
9
9
9
9
9
9
9
9
9
9
9
9
9
9
9
9
9
9
9
9
9
9
9
9
9
9
9
9
9
9
9
9
9
9
9
9
9
9
9
9
9
9
9
9
9
9
9
9
9
9
9
9
9
9
9
9
9
9
9
9
9
9
9
9
9
9
9
9
9
9
9
9
9
9
9
9
9
9
9
9
9
9
9
9
9
9
9
9
9
9
9
9
9
9
9
9
9
9
9
9
9
9
9
9
9
9
9
9
9
9
9
9
9
9
9
9
9
9
9
9
9
9
9
9
9
9
9
9
9
9
9
9
9
9
9
9
9
9
9
9
9
9
9
9
9
9
9
9
9
9
9
9
9
9
9
9
9
9
9
9
9
9
9
9
9
9
9
9
9
9
9
9
9
9
9
9
9
9
9
9
9
9
9
9
9
9
9
9
9
9
9
9
9
9
9
9
9
9
9
9
9
9
9
9
9
9
9
9
9
9
9
9
9
9
9
9
9
9
9
9
9
9
9
9
9
9
9
9
9
9
9
9
9
9
9
9
9
9
9
9
9
9
9
9
9
9
9
9
9
9
9
9
9
9
9
9
9
9
9
9
9
9
9
9
9
9
9
9
9
9
9
9
9
9
9
9
9
9
9
9
9
9
9
9
9
9
9
9
9
9
9
9
9
9
9
9
9
9
9
9
9
9
9
9
9
9
9
9
9
9
9
9
9
9
9
9
9
9
9
9
9
9
9
9
9
9
9
9
9
9
9
9
9
9
9
9
9
9
9
9
9
9
9
9
9
9
9
9
9
9
9
9
9
9
9
9
9
9
9
9
9
9
9
9
9
9
9
9
9
9
9
9
9
9
9
9
9
9
9
9
9
9
9
9
9
9
9
9
9
9
9
9
9
9
9
9
9
9
9
9
9
9
9
9
9
9
9
9
9
9
9
9
9
9
9
9
9
9
9
9
9
9
9
9
9
9
9
9
9
9
9
9
9
9
9
9
9
9
9
9
9
9
9
9
9
9
9
9
9
9
9
9
9
9
9
9
9
9
9
9
9
9
9
9
9
9
9
9
9
9
9
9
9
9
9
9
9
9
9
9
9
9
9
9
9
9
9
9
9
9
9
9
9
9
9
9
9
9
9
9
9
9
9
9
9
9
9
9
9
9
9
9
9
9
9
9
9
9
9
9
9
9
9
9
9
9
9
9
9
9
9
9
9
9
9
9
9
9
9
9
9
9
9
9
9
9
9
9
9
9
9
9
9
9
9
9
9
9
9
9
9
9
9
9
9
9
9
9
9
9
9
9
9
9
9
9
9
9
9
9
9
9
9
9
9
9
9
9
9
9
9
9
9
9
9
9
9
9
9
9
9
9
9
9
9
9
9
9
9
9
9
9
9
9
9
9
9
9
9
9
9
9
9
9
9
9
9
9
9
9
9
9
9
9
9
9
9
9
9
9
9
9
9
9
9
9
9
9
9
9
9
9
9
9
9
9
9
9
9
9
9
9
9
9
9
9
9
9
9
9
9
9
9
9
9
9
9
9
9
9
9
9
9
9
9
9
9
9
9
9
9
9
9
9
9
9
9
9
9
9
9
9
9
9
9
9
9
9
9
9
9
9
9
9
9
9
9
9
9
9
9
9
9
9
9
9
9
9
9
9
9
9
9
9
9
9
9
9
9
9
9
9
9
9
9
9
9
9
9
9
9
9
9
9
9
9
9
9
9
9
9
9
9
9
9
9
9
9
9
9
9
9
9
9
9
9
9
9
9
9
9
9
9
9
9
9
9
9
9
9
9
9
9
9
9
9
9
9
9
9
9
9
9
9
9
9
9
9
9
9
9
9
9
9
9
9
9
9
9
9
9
9
9
9
9
9
9
9
9
9
9
9
9
9
9
9
9
9
9
9
9
9
9
9
9
9
9
9
9
9
9
9
9
9
9
9
9
9
9
9
9
9
9
9
9
9
9
9
9
9
9
9
9
9
9
9
9
9
9
9
9
9
9
9
9
9
9
9
9
9
9
9
9
9
9
9
9
9
9
9
9
9
9
9
9
9
9
9
9
9
9
9
9
9
9
9
9
9
9
9
9
9
9
9
9
9
9
9
9
9
9
9
9
9
9
9
9
9
9
9
9
9
9
9
9
9
9
9
9
9
9
9
9
9
9
9
9
9
9
9
9
9
9
9
9
9
9
9
9
9
9
9
9
9
9
9
9
9
9
9
9
9
9
9
9
9
9
9
9
9
9
9
9
9
9
9
9
9
9
9
9
9
9
9
9
9
9
9
9
9
9
9
9
9
9
9
9
9
9
9
9
9
9
9
9
9
9
9
9
9
9
9
9
9
9
9
9
9
9
9
9
9
9
9
9
9
9
9
9
9
9
9
9
9
9
9
9
9
9
9
9
9
9
9
9
9
9
9
9
9
9
9
9
9
9
9
9
9
9
9
9
9
9
9
9
9
9
9
9
9
9
9
9
9
9
9
9
9
9
9
9
9
9
9
9
9
9
9
9
9
9
9
9
9
9
9
9
9
9
9
9
9
9
9
9
9
9
9
9
9
9
9
9
9
9
9
9
9
9
9
9
9
9
9
9
9
9
9
9
9
9
9
9
9
9
9
9
9
9
9
9
9
9
9
9
9
9
9
9
9
9
9
9
9
9
9
9
9
9
9
9
9
9
9
9
9
9
9
9
9
9
9
9
9
9
9
9
9
9
9
9
9
9
9
9
9
9
9
9
9
9
9
9
9
9
9
9
9
9
9
9
9
9
9
9
9
9
9
9
9
9
9
9
9
9
9
9
9
9
9
9
9
9
9
9
9
9
9
9
9
9
9
9
9
9
9
9
9
9
9
9
9
9
9
9
9
9
9
9
9
9
9
9
9
9
9
9
9
9
9
9
9
9
9
9
9
9
9
9
9
9
9
9
9
9
9
9
9
9
9
9
9
9
9
9
9
9
9
9
9
9
9
9
9
9
9
9
9
9
9
9
9
9
9
9
9
9
9
9
9
9
9
9
9
9
9
9
9
9
9
9
9
9
9
9
9
9
9
9
9
9
9
9
9
9
9
9
9
9
9
9
9
9
9
9
9
9
9
9
9
9
9
9
9
9
9
9
9
9
9
9
9
9
9
9
9
9
9
9
9
9
9
9
9
9
9
9
9
9
9
9
9
9
9
9
9
9
9
9
9
9
9
9
9
9
9
9
9
9
9
9
9
9
9
9
9
9
9
9
9
9
9
9
9
9
9
9
9
9
9
9
9
9
9
9
9
9
9
9
9
9
9
9
9
9
9
9
9
9
9
9
9
9
9
9
9
9
9
9
9
9
9
9
9
9
9
9
9
9
9
9
9
9
9
9
9
9
9
9
9
9
9
9
9
9
9
9
9
9
9
9
9
9
9
9
9
9
9
9
9
9
9
9
9
9
9
9
9
9
9
9
9
9
9
9
9
9
9
9
9
9
9
9
9
9
9
9
9
9
9
9
9
9
9
9
9
9
9
9
9
9
9
9
9
9
9
9
9
9
9
9
9
9
9
9
9
9
9
9
9
9
9
9
9
9
9
9
9
9
9
9
9
9
9
9
9
9
9
9
9
9
9
9
9
9
9
9
9
9
9
9
9
9
9
9
9
9
9
9
9
9
9
9
9
9
9
9
9
9
9
9
9
9
9
9
9
9
9
9
9
9
9
9
9
9
9
9
9
9
9
9
9
9
9
9
9
9
9
9
9
9
9
9
9
9
9
9
9
9
9
9
9
9
9
9
9
9
9
9
9
9
9
9
9
9
9
9
9
9
9
9
9
9
9
9
9
9
9
9
9
9
9
9
9
9
9
9
9
9
9
9
9
9
9
9
9
9
9
9
9
9
9
9
9
9
9
9
9
9
9
9
9
9
9
9
9
9
9
9
9
9
9
9
9
9
9
9
9
9
9
9
9
9
9
9
9
9
9
9
9
9
9
9
9
9
9
9
9
9
9
9
9
9
9
9
9
9
9
9
9
9
9
9
9
9
9
9
9
9
9
9
9
9
9
9
9
9
9
9
9
9
9
9
9
9
9
9
9
9
9
9
9
9
9
9
9
9
9
9
9
9
9
9
9
9
9
9
9
9
9
9
9
9
9
9
9
9
9
9
9
9
9
9
9
9
9
9
9
9
9
9
9
9
9
9
9
9
9
9
9
9
9
9
9
9
9
9
9
9
9
9
9
9
9
9
9
9
9
9
9
9
9
9
9
9
9
9
9
9
9
9
9
9
9
9
9
9
9
9
9
9
9
9
9
9
9
9
9
9
9
9
9
9
9
9
9
9
9
9
9
9
9
9
9
9
9
9
9
9
9
9
9
9
9
9
9
9
9
9
9
9
9
9
9
9
9
9
9
9
9
9
9
9
9
9
9
9
9
9
9
9
9
9
9
9
9
9
9
9
9
9
9
9
9
9
9
9
9
9
9
9
9
9
9
9
9
9
9
9
9
9
9
9
9
9
9
9
9
9
9
9
9
9
9
9
9
9
9
9
9
9
9
9
9
9
9
9
9
9
9
9
9
9
9
9
9
9
9
9
9
9
9
9
9
9
9
9
9
9
9
9
9
9
9
9
9
9
9
9
9
9
9
9
9
9
9
9
9
9
9
9
9
9
9
9
9
9
9
9
9
9
9
9
9
9
9
9
9
9
9
9
9
9
9
9
9
9
9
9
9
9
9
9
9
9
9
9
9
9
9
9
9
9
9
9
9
9
9
9
9
9
9
9
9
9
9
9
9
9
9
9
9
9
9
9
9
9
9
9
9
9
9
9
9
9
9
9
9
9
9
9
9
9
9
9
9
9
9
9
9
9
9
9
9
9
9
9
9
9
9
9
9
9
9
9
9
9
9
9
9
9
9
9
9
9
9
9
9
9
9
9
9
9
9
9
9
9
9
9
9
9
9
9
9
9
9
9
9
9
9
9
9
9
9
9
9
9
9
9
9
9
9
9
9
9
9
9
9
9
9
9
9
9
9
9
9
9
9
9
9
9
9
9
9
9
9
9
9
9
9
9
9
9
9
9
9
9
9
9
9
9
9
9
9
9
9
9
9
9
9
9
9
9
9
9
9
9
9
9
9
9
9
9
9
9
9
9
9
9
9
9
9
9
9
9
9
9
9
9
9
9
9
9
9
9
9
9
9
9
9
9
9
9
9
9
9
9
9
9
9
9
9
9
9
9
9
9
9
9
9
9
9
9
9
9
9
9
9
9
9
9
9
9
9
9
9
9
9
9
9
9
9
9
9
9
9
9
9
9
9
9
9
9
9
9
9
9
9
9
9
9
9
9
9
9
9
9
9
9
9
9
9
9
9
9
9
9
9
9
9
9
9
9
9
9
9
9
9
9
9
9
9
9
9
9
9
9
9
9
9
9
9
9
9
9
9
9
9
9
9
9
9
9
9
9
9
9
9
9
9
9
9
9
9
9
9
9
9
9
9
9
9
9
9
9
9
9
9
9
9
9
9
9
9
9
9
9
9
9
9
9
9
9
9
9
9
9
9
9
9
9
9
9
9
9
9
9
9
9
9
9
9
9
9
9
9
9
9
9
9
9
9
9
9
9
9
9
9
9
9
9
9
9
9
9
9
9
9
9
9
9
9
9
9
9
9
9
9
9
9
9
9
9
9
9
9
9
9
9
9
9
9
9
9
9
9
9
9
9
9
9
9
9
9
9
9
9
9
9
9
9
9
9
9
9
9
9
9
9
9
9
9
9
9
9
9
9
9
9
9
9
9
9
9
9
9
9
9
9
9
9
9
9
9
9
9
9
9
9
9
9
9
9
9
9
9
9
9
9
9
9
9
9
9
9
9
9
9
9
9
9
9
9
9
9
9
9
9
9
9
9
9
9
9
9
9
9
9
9
9
9
9
9
9
9
9
9
9
9
9
9
9
9
9
9
9
9
9
9
9
9
9
9
9
9
9
9
9
9
9
9
9
9
9
9
9
9
9
9
9
9
9
9
9
9
9
9
9
9
9
9
9
9
9
9
9
9
9
9
9
9
9
9
9
9
9
9
9
9
9
9
9
9
9
9
9
9
9
9
9
9
9
9
9
9
9
9
9
9
9
9
9
9
9
9
9
9
9
9
9
9
9
9
9
9
9
9
9
9
9
9
9
9
9
9
9
9
9
9
9
9
9
9
9
9
9
9
9
9
9
9
9
9
9
9
9
9
9
9
9
9
9
9
9
9
9
9
9
9
9
9
9
9
9
9
9
9
9
9
9
9
9
9
9
9
9
9
9
9
9
9
9
9
9
9
9
9
9
9
9
9
9
9
9
9
9
9
9
9
9
9
9
9
9
9
9
9
9
9
9
9
9
9
9
9
9
9
9
9
9
9
9
9
9
9
9
9
9
9
9
9
9
9
9
9
9
9
9
9
9
9
9
9
9
9
9
9
9
9
9
9
9
9
9
9
9
9
9
9
9
9
9
9
9
9
9
9
9
9
9
9
9
9
9
9
9
9
9
9
9
9
9
9
9
9
9
9
9
9
9
9
9
9
9
9
9
9
9
9
9
9
9
9
9
9
9
9
9
9
9
9
9
9
9
9
9
9
9
9
9
9
9
9
9
9
9
9
9
9
9
9
9
9
9
9
9
9
9
9
9
9
9
9
9
9
9
9
9
9
9
9
9
9
9
9
9
9
9
9
9
9
9
9
9
9
9
9
9
9
9
9
9
9
9
9
9
9
9
9
9
9
9
9
9
9
9
9
9
9
9
9
9
9
9
9
9
9
9
9
9
9
9
9
9
9
9
9
9
9
9
9
9
9
9
9
9
9
9
9
9
9
9
9
9
9
9
9
9
9
9
9
9
9
9
9
9
9
9
9
9
9
9
9
9
9
9
9
9
9
9
9
9
9
9
9
9
9
9
9
9
9
9
9
9
9
9
9
9
9
9
9
9
9
9
9
9
9
9
9
9
9
9
9
9
9
9
9
9
9
9
9
9
9
9
9
9
9
9
9
9
9
9
9
9
9
9
9
9
9
9
9
9
9
9
9
9
9
9
9
9
9
9
9
9
9
9
9
9
9
9
9
9
9
9
9
9
9
9
9
9
9
9
9
9
9
9
9
9
9
9
9
9
9
9
9
9
9
9
9
9
9
9
9
9
9
9
9
9
9
9
9
9
9
9
9
9
9
9
9
9
9
9
9
9
9
9
9
9
9
9
9
9
9
9
9
9
9
9
9
9
9
9
9
9
9
9
9
9
9
9
9
9
9
9
9
9
9
9
9
9
9
9
9
9
9
9
9
9
9
9
9
9
9
9
9
9
9
9
9
9
9
9
9
9
9
9
9
9
9
9
9
9
9
9
9
9
9
9
9
9
9
9
9
9
9
9
9
9
9
9
9
9
9
9
9
9
9
9
9
9
9
9
9
9
9
9
9
9
9
9
9
9
9
9
9
9
9
9
9
9
9
9
9
9
9
9
9
9
9
9
9
9
9
9
9
9
9
9
9
9
9
9
9
9
9
9
9
9
9
9
9
9
9
9
9
9
9
9
9
9
9
9
9
9
9
9
9
9
9
9
9
9
9
9
9
9
9
9
9
9
9
9
9
9
9
9
9
9
9
9
9
9
9
9
9
9
9
9
9
9
9
9
9
9
9
9
9
9
9
9
9
9
9
9
9
9
9
9
9
9
9
9
9
9
9
9
9
9
9
9
9
9
9
9
9
9
9
9
9
9
9
9
9
9
9
9
9
9
9
9
9
9
9
9
9
9
9
9
9
9
9
9
9
9
9
9
9
9
9
9
9
9
9
9
9
9
9
9
9
9
9
9
9
9
9
9
9
9
9
9
9
9
9
9
9
9
9
9
9
9
9
9
9
9
9
9
9
9
9
9
9
9
9
9
9
9
9
9
9
9
9
9
9
9
9
9
9
9
9
9
9
9
9
9
9
9
9
9
9
9
9
9
9
9
9
9
9
9
9
9
9
9
9
9
9
9
9
9
9
9
9
9
9
9
9
9
9
9
9
9
9
9
9
9
9
9
9
9
9
9
9
9
9
9
9
9
9
9
9
9
9
9
9
9
9
9
9
9
9
9
9
9
9
9
9
9
9
9
9
9
9
9
9
9
9
9
9
9
9
9
9
9
9
9
9
9
9
9
9
9
9
9
9
9
9
9
9
9
9
9
9
9
9
9
9
9
9
9
9
9
9
9
9
9
9
9
9
9
9
9
9
9
9
9
9
9
9
9
9
9
9
9
9
9
9
9
9
9
9
9
9
9
9
9
9
9
9
9
9
9
9
9
9
9
9
9
9
9
9
9
9
9
9
9
9
9
9
9
9
9
9
9
9
9
9
9
9
9
9
9
9
9
9
9
9
9
9
9
9
9
9
9
9
9
9
9
9
9
9
9
9
9
9
9
9
9
9
9
9
9
9
9
9
9
9
9
9
9
9
9
9
9
9
9
9
9
9
9
9
9
9
9
9
9
9
9
9
9
9
9
9
9
9
9
9
9
9
9
9
9
9
9
9
9
9
9
9
9
9
9
9
9
9
9
9
9
9
9
9
9
9
9
9
9
9
9
9
9
9
9
9
9
9
9
9
9
9
9
9
9
9
9
9
9
9
9
9
9
9
9
9
9
9
9
9
9
9
9
9
9
9
9
9
9
9
9
9
9
9
9
9
9
9
9
9
9
9
9
9
9
9
9
9
9
9
9
9
9
9
9
9
9
9
9
9
9
9
9
9
9
9
9
9
9
9
9
9
9
9
9
9
9
9
9
9
9
9
9
9
9
9
9
9
9
9
9
9
9
9
9
9
9
9
9
9
9
9
9
9
9
9
9
9
9
9
9
9
9
9
9
9
9
9
9
9
9
9
9
9
9
9
9
9
9
9
9
9
9
9
9
9
9
9
9
9
9
9
9
9
9
9
9
9
9
9
9
9
9
9
9
9
9
9
9
9
9
9
9
9
9
9
9
9
9
9
9
9
9
9
9
9
9
9
9
9
9
9
9
9
9
9
9
9
9
9
9
9
9
9
9
9
9
9
9
9
9
9
9
9
9
9
9
9
9
9
9
9
9
9
9
9
9
9
9
9
9
9
9
9
9
9
9
9
9
9
9
9
9
9
9
9
9
9
9
9
9
9
9
9
9
9
9
9
9
9
9
9
9
9
9
9
9
9
9
9
9
9
9
9
9
9
9
9
9
9
9
9
9
9
9
9
9
9
9
9
9
9
9
9
9
9
9
9
9
9
9
9
9
9
9
9
9
9
9
9
9
9
9
9
9
9
9
9
9
9
9
9
9
9
9
9
9
9
9
9
9
9
9
9
9
9
9
9
9
9
9
9
9
9
9
9
9
9
9
9
9
9
9
9
9
9
9
9
9
9
9
9
9
9
9
9
9
9
9
9
9
9
9
9
9
9
9
9
9
9
9
9
9
9
9
9
9
9
9
9
9
9
9
9
9
9
9
9
9
9
9
9
9
9
9
9
9
9
9
9
9
9
9
9
9
9
9
9
9
9
9
9
9
9
9
9
9
9
9
9
9
9
9
9
9
9
9
9
9
9
9
9
9
9
9
9
9
9
9
9
9
9
9
9
9
9
9
9
9
9
9
9
9
9
9
9
9
9
9
9
9
9
9
9
9
9
9
9
9
9
9
9
9
9
9
9
9
9
9
9
9
9
9
9
9
9
9
9
9
9
9
9
9
9
9
9
9
9
9
9
9
9
9
9
9
9
9
9
9
9
9
9
9
9
9
9
9
9
9
9
9
9
9
9
9
9
9
9
9
9
9
9
9
9
9
9
9
9
9
9
9
9
9
9
9
9
9
9
9
9
9
9
9
9
9
9
9
9
9
9
9
9
9
9
9
9
9
9
9
9
9
9
9
9
9
9
9
9
9
9
9
9
9
9
9
9
9
9
9
9
9
9
9
9
9
9
9
9
9
9
9
9
9
9
9
9
9
9
9
9
9
9
9
9
9
9
9
9
9
9
9
9
9
9
9
9
9
9
9
9
9
9
9
9
9
9
9
9
9
9
9
9
9
9
9
9
9
9
9
9
9
9
9
9
9
9
9
9
9
9
9
9
9
9
9
9
9
9
9
9
9
9
9
9
9
9
9
9
9
9
9
9
9
9
9
9
9
9
9
9
9
9
9
9
9
9
9
9
9
9
9
9
9
9
9
9
9
9
9
9
9
9
9
9
9
9
9
9
9
9
9
9
9
9
9
9
9
9
9
9
9
9
9
9
9
9
9
9
9
9
9
9
9
9
9
9
9
9
9
9
9
9
9
9
9
9
9
9
9
9
9
9
9
9
9
9
9
9
9
9
9
9
9
9
9
9
9
9
9
9
9
9
9
9
9
9
9
9
9
9
9
9
9
9
9
9
9
9
9
9
9
9
9
9
9
9
9
9
9
9
9
9
9
9
9
9
9
9
9
9
9
9
9
9
9
9
9
9
9
9
9
9
9
9
9
9
9
9
9
9
9
9
9
9
9
9
9
9
9
9
9
9
9
9
9
9
9
9
9
9
9
9
9
9
9
9
9
9
9
9
9
9
9
9
9
9
9
9
9
9
9
9
9
9
9
9
9
9
9
9
9
9
9
9
9
9
9
9
9
9
9
9
9
9
9
9
9
9
9
9
9
9
9
9
9
9
9
9
9
9
9
9
9
9
9
9
9
9
9
9
9
9
9
9
9
9
9
9
9
9
9
9
9
9
9
9
9
9
9
9
9
9
9
9
9
9
9
9
9
9
9
9
9
9
9
9
9
9
9
9
9
9
9
9
9
9
9
9
9
9
9
9
9
9
9
9
9
9
9
9
9
9
9
9
9
9
9
9
9
9
9
9
9
9
9
9
9
9
9
9
9
9
9
9
9
9
9
9
9
9
9
9
9
9
9
9
9
9
9
9
9
9
9
9
9
9
9
9
9
9
9
9
9
9
9
9
9
9
9
9
9
9
9
9
9
9
9
9
9
9
9
9
9
9
9
9
9
9
9
9
9
9
9
9
9
9
9
9
9
9
9
9
9
9
9
9
9
9
9
9
9
9
9
9
9
9
9
9
9
9
9
9
9
9
9
9
9
9
9
9
9
9
9
9
9
9
9
9
9
9
9
9
9
9
9
9
9
9
9
9
9
9
9
9
9
9
9
9
9
9
9
9
9
9
9
9
9
9
9
9
9
9
9
9
9
9
9
9
9
9
9
9
9
9
9
9
9
9
9
9
9
9
9
9
9
9
9
9
9
9
9
9
9
9
9
9
9
9
9
9
9
9
9
9
9
9
9
9
9
9
9
9
9
9
9
9
9
9
9
9
9
9
9
9
9
9
9
9
9
9
9
9
9
9
9
9
9
9
9
9
9
9
9
9
9
9
9
9
9
9
9
9
9
9
9
9
9
9
9
9
9
9
9
9
9
9
9
9
9
9
9
9
9
9
9
9
9
9
9
9
9
9
9
9
9
9
9
9
9
9
9
9
9
9
9
9
9
9
9
9
9
9
9
9
9
9
9
9
9
9
9
9
9
9
9
9
9
9
9
9
9
9
9
9
9
9
9
9
9
9
9
9
9
9
9
9
9
9
9
9
9
9
9
9
9
9
9
9
9
9
9
9
9
9
9
9
9
9
9
9
9
9
9
9
9
9
9
9
9
9
9
9
9
9
9
9
9
9
9
9
9
9
9
9
9
9
9
9
9
9
9
9
9
9
9
9
9
9
9
9
9
9
9
9
9
9
9
9
9
9
9
9
9
9
9
9
9
9
9
9
9
9
9
9
9
9
9
9
9
9
9
9
9
9
9
9
9
9
9
9
9
9
9
9
9
9
9
9
9
9
9
9
9
9
9
9
9
9
9
9
9
9
9
9
9
9
9
9
9
9
9
9
9
9
9
9
9
9
9
9
9
9
9
9
9
9
9
9
9
9
9
9
9
9
9
9
9
9
9
9
9
9
9
9
9
9
9
9
9
9
9
9
9
9
9
9
9
9
9
9
9
9
9
9
9
9
9
9
9
9
9
9
9
9
9
9
9
9
9
9
9
9
9
9
9
9
9
9
9
9
9
9
9
9
9
9
9
9
9
9
9
9
9
9
9
9
9
9
9
9
9
9
9
9
9
9
9
9
9
9
9
9
9
9
9
9
9
9
9
9
9
9
9
9
9
9
9
9
9
9
9
9
9
9
9
9
9
9
9
9
9
9
9
9
9
9
9
9
9
9
9
9
9
9
9
9
9
9
9
9
9
9
9
9
9
9
9
9
9
9
9
9
9
9
9
9
9
9
9
9
9
9
9
9
9
9
9
9
9
9
9
9
9
9
9
9
9
9
9
9
9
9
9
9
9
9
9
9
9
9
9
9
9
9
9
9
9
9
9
9
9
9
9
9
9
9
9
9
9
9
9
9
9
9
9
9
9
9
9
9
9
9
9
9
9
9
9
9
9
9
9
9
9
9
9
9
9
9
9
9
9
9
9
9
9
9
9
9
9
9
9
9
9
9
9
9
9
9
9
9
9
9
9
9
9
9
9
9
9
9
9
9
9
9
9
9
9
9
9
9
9
9
9
9
9
9
9
9
9
9
9
9
9
9
9
9
9
9
9
9
9
9
9
9
9
9
9
9
9
9
9
9
9
9
9
9
9
9
9
9
9
9
9
9
9
9
9
9
9
9
9
9
9
9
9
9
9
9
9
9
9
9
9
9
9
9
9
9
9
9
9
9
9
9
9
9
9
9
9
9
9
9
9
9
9
9
9
9
9
9
9
9
9
9
9
9
9
9
9
9
9
9
9
9
9
9
9
9
9
9
9
9
9
9
9
9
9
9
9
9
9
9
9
9
9
9
9
9
9
9
9
9
9
9
9
9
9
9
9
9
9
9
9
9
9
9
9
9
9
9
9
9
9
9
9
9
9
9
9
9
9
9
9
9
9
9
9
9
9
9
9
9
9
9
9
9
9
9
9
9
9
9
9
9
9
9
9
9
9
9
9
9
9
9
9
9
9
9
9
9
9
9
9
9
9
9
9
9
9
9
9
9
9
9
9
9
9
9
9
9
9
9
9
9
9
9
9
9
9
9
9
9
9
9
9
9
9
9
9
9
9
9
9
9
9
9
9
9
9
9
9
9
9
9
9
9
9
9
9
9
9
9
9
9
9
9
9
9
9
9
9
9
9
9
9
9
9
9
9
9
9
9
9
9
9
9
9
9
9
9
9
9
9
9
9
9
9
9
9
9
9
9
9
9
9
9
9
9
9
9
9
9
9
9
9
9
9
9
9
9
9
9
9
9
9
9
9
9
9
9
9
9
9
9
9
9
9
9
9
9
9
9
9
9
9
9
9
9
9
9
9
9
9
9
9
9
9
9
9
9
9
9
9
9
9
9
9
9
9
9
9
9
9
9
9
9
9
9
9
9
9
9
9
9
9
9
9
9
9
9
9
9
9
9
9
9
9
9
9
9
9
9
9
9
9
9
9
9
9
9
9
9
9
9
9
9
9
9
9
9
9
9
9
9
9
9
9
9
9
9
9
9
9
9
9
9
9
9
9
9
9
9
9
9
9
9
9
9
9
9
9
9
9
9
9
9
9
9
9
9
9
9
9
9
9
9
9
9
9
9
9
9
9
9
9
9
9
9
9
9
9
9
9
9
9
9
9
9
9
9
9
9
9
9
9
9
9
9
9
9
9
9
9
9
9
9
9
9
9
9
9
9
9
9
9
9
9
9
9
9
9
9
9
9
9
9
9
9
9
9
9
9
9
9
9
9
9
9
9
9
9
9
9
9
9
9
9
9
9
9
9
9
9
9
9
9
9
9
9
9
9
9
9
9
9
9
9
9
9
9
9
9
9
9
9
9
9
9
9
9
9
9
9
9
9
9
9
9
9
9
9
9
9
9
9
9
9
9
9
9
9
9
9
9
9
9
9
9
9
9
9
9
9
9
9
9
9
9
9
9
9
9
9
9
9
9
9
9
9
9
9
9
9
9
9
9
9
9
9
9
9
9
9
9
9
9
9
9
9
9
9
9
9
9
9
9
9
9
9
9
9
9
9
9
9
9
9
9
9
9
9
9
9
9
9
9
9
9
9
9
9
9
9
9
9
9
9
9
9
9
9
9
9
9
9
9
9
9
9
9
9
9
9
9
9
9
9
9
9
9
9
9
9
9
9
9
9
9
9
9
9
9
9
9
9
9
9
9
9
9
9
9
9
9
9
9
9
9
9
9
9
9
9
9
9
9
9
9
9
9
9
9
9
9
9
9
9
9
9
9
9
9
9
9
9
9
9
9
9
9
9
9
9
9
9
9
9
9
9
9
9
9
9
9
9
9
9
9
9
9
9
9
9
9
9
9
9
9
9
9
9
9
9
9
9
9
9
9
9
9
9
9
9
9
9
9
9
9
9
9
9
9
9
9
9
9
9
9
9
9
9
9
9
9
9
9
9
9
9
9
9
9
9
9
9
9
9
9
9
9
9
9
9
9
9
9
9
9
9
9
9
9
9
9
9
9
9
9
9
9
9
9
9
9
9
9
9
9
9
9
9
9
9
9
9
9
9
9
9
9
9
9
9
9
9
9
9
9
9
9
9
9
9
9
9
9
9
9
9
9
9
9
9
9
9
9
9
9
9
9
9
9
9
9
9
9
9
9
9
9
9
9
9
9
9
9
9
9
9
9
9
9
9
9
9
9
9
9
9
9
9
9
9
9
9
9
9
9
9
9
9
9
9
9
9
9
9
9
9
9
9
9
9
9
9
9
9
9
9
9
9
9
9
9
9
9
9
9
9
9
9
9
9
9
9
9
9
9
9
9
9
9
9
9
9
9
9
9
9
9
9
9
9
9
9
9
9
9
9
9
9
9
9
9
9
9
9
9
9
9
9
9
9
9
9
9
9
9
9
9
9
9
9
9
9
9
9
9
9
9
9
9
9
9
9
9
9
9
9
9
9
9
9
9
9
9
9
9
9
9
9
9
9
9
9
9
9
9
9
9
9
9
9
9
9
9
9
9
9
9
9
9
9
9
9
9
9
9
9
9
9
9
9
9
9
9
9
9
9
9
9
9
9
9
9
9
9
9
9
9
9
9
9
9
9
9
9
9
9
9
9
9
9
9
9
9
9
9
9
9
9
9
9
9
9
9
9
9
9
9
9
9
9
9
9
9
9
9
9
9
9
9
9
9
9
9
9
9
9
9
9
9
9
9
9
9
9
9
9
9
9
9
9
9
9
9
9
9
9
9
9
9
9
9
9
9
9
9
9
9
9
9
9
9
9
9
9
9
9
9
9
9
9
9
9
9
9
9
9
9
9
9
9
9
9
9
9
9
9
9
9
9
9
9
9
9
9
9
9
9
9
9
9
9
9
9
9
9
9
9
9
9
9
9
9
9
9
9
9
9
9
9
9
9
9
9
9
9
9
9
9
9
9
9
9
9
9
9
9
9
9
9
9
9
9
9
9
9
9
9
9
9
9
9
9
9
9
9
9
9
9
9
9
9
9
9
9
9
9
9
9
9
9
9
9
9
9
9
9
9
9
9
9
9
9
9
9
9
9
9
9
9
9
9
9
9
9
9
9
9
9
9
9
9
9
9
9
9
9
9
9
9
9
9
9
9
9
9
9
9
9
9
9
9
9
9
9
9
9
9
9
9
9
9
9
9
9
9
9
9
9
9
9
9
9
9
9
9
9
9
9
9
9
9
9
9
9
9
9
9
9
9
9
9
9
9
9
9
9
9
9
9
9
9
9
9
9
9
9
9
9
9
9
9
9
9
9
9
9
9
9
9
9
9
9
9
9
9
9
9
9
9
9
9
9
9
9
9
9
9
9
9
9
9
9
9
9
9
9
9
9
9
9
9
9
9
9
9
9
9
9
9
9
9
9
9
9
9
9
9
9
9
9
9
9
9
9
9
9
9
9
9
9
9
9
9
9
9
9
9
9
9
9
9
9
9
9
9
9
9
9
9
9
9
9
9
9
9
9
9
9
9
9
9
9
9
9
9
9
9
9
9
9
9
9
9
9
9
9
9
9
9
9
9
9
9
9
9
9
9
9
9
9
9
9
9
9
9
9
9
9
9
9
9
9
9
9
9
9
9
9
9
9
9
9
9
9
9
9
9
9
9
9
9
9
9
9
9
9
9
9
9
9
9
9
9
9
9
9
9
9
9
9
9
9
9
9
9
9
9
9
9
9
9
9
9
9
9
9
9
9
9
9
9
9
9
9
9
9
9
9
9
9
9
9
9
9
9
9
9
9
9
9
9
9
9
9
9
9
9
9
9
9
9
9
9
9
9
9
9
9
9
9
9
9
9
9
9
9
9
9
9
9
9
9
9
9
9
9
9
9
9
9
9
9
9
9
9
9
9
9
9
9
9
9
9
9
9
9
9
9
9
9
9
9
9
9
9
9
9
9
9
9
9
9
9
9
9
9
9
9
9
9
9
9
9
9
9
9
9
9
9
9
9
9
9
9
9
9
9
9
9
9
9
9
9
9
9
9
9
9
9
9
9
9
9
9
9
9
9
9
9
9
9
9
9
9
9
9
9
9
9
9
9
9
9
9
9
9
9
9
9
9
9
9
9
9
9
9
9
9
9
9
9
9
9
9
9
9
9
9
9
9
9
9
9
9
9
9
9
9
9
9
9
9
9
9
9
9
9
9
9
9
9
9
9
9
9
9
9
9
9
9
9
9
9
9
9
9
9
9
9
9
9
9
9
9
9
9
9
9
9
9
9
9
9
9
9
9
9
9
9
9
9
9
9
9
9
9
9
9
9
9
9
9
9
9
9
9
9
9
9
9
9
9
9
9
9
9
9
9
9
9
9
9
9
9
9
9
9
9
9
9
9
9
9
9
9
9
9
9
9
9
9
9
9
9
9
9
9
9
9
9
9
9
9
9
9
9
9
9
9
9
9
9
9
9
9
9
9
9
9
9
9
9
9
9
9
9
9
9
9
9
9
9
9
9
9
9
9
9
9
9
9
9
9
9
9
9
9
9
9
9
9
9
9
9
9
9
9
9
9
9
9
9
9
9
9
9
9
9
9
9
9
9
9
9
9
9
9
9
9
9
9
9
9
9
9
9
9
9
9
9
9
9
9
9
9
9
9
9
9
9
9
9
9
9
9
9
9
9
9
9
9
9
9
9
9
9
9
9
9
9
9
9
9
9
9
9
9
9
9
9
9
9
9
9
9
9
9
9
9
9
9
9
9
9
9
9
9
9
9
9
9
9
9
9
9
9
9
9
9
9
9
9
9
9
9
9
9
9
9
9
9
9
9
9
9
9
9
9
9
9
9
9
9
9
9
9
9
9
9
9
9
9
9
9
9
9
9
9
9
9
9
9
9
9
9
9
9
9
9
9
9
9
9
9
9
9
9
9
9
9
9
9
9
9
9
9
9
9
9
9
9
9
9
9
9
9
9
9
9
9
9
9
9
9
9
9
9
9
9
9
9
9
9
9
9
9
9
9
9
9
9
9
9
9
9
9
9
9
9
9
9
9
9
9
9
9
9
9
9
9
9
9
9
9
9
9
9
9
9
9
9
9
9
9
9
9
9
9
9
9
9
9
9
9
9
9
9
9
9
9
9
9
9
9
9
9
9
9
9
9
9
9
9
9
9
9
9
9
9
9
9
9
9
9
9
9
9
9
9
9
9
9
9
9
9
9
9
9
9
9
9
9
9
9
9
9
9
9
9
9
9
9
9
9
9
9
9
9
9
9
9
9
9
9
9
9
9
9
9
9
9
9
9
9
9
9
9
9
9
9
9
9
9
9
9
9
9
9
9
9
9
9
9
9
9
9
9
9
9
9
9
9
9
9
9
9
9
9
9
9
9
9
9
9
9
9
9
9
9
9
9
9
9
9
9
9
9
9
9
9
9
9
9
9
9
9
9
9
9
9
9
9
9
9
9
9
9
9
9
9
9
9
9
9
9
9
9
9
9
9
9
9
9
9
9
9
9
9
9
9
9
9
9
9
9
9
9
9
9
9
9
9
9
9
9
9
9
9
9
9
9
9
9
9
9
9
9
9
9
9
9
9
9
9
9
9
9
9
9
9
9
9
9
9
9
9
9
9
9
9
9
9
9
9
9
9
9
9
9
9
9
9
9
9
9
9
9
9
9
9
9
9
9
9
9
9
9
9
9
9
9
9
9
9
9
9
9
9
9
9
9
9
9
9
9
9
9
9
9
9
9
9
9
9
9
9
9
9
9
9
9
9
9
9
9
9
9
9
9
9
9
9
9
9
9
9
9
9
9
9
9
9
9
9
9
9
9
9
9
9
9
9
9
9
9
9
9
9
9
9
9
9
9
9
9
9
9
9
9
9
9
9
9
9
9
9
9
9
9
9
9
9
9
9
9
9
9
9
9
9
9
9
9
9
9
9
9
9
9
9
9
9
9
9
9
9
9
9
9
9
9
9
9
9
9
9
9
9
9
9
9
9
9
9
9
9
9
9
9
9
9
9
9
9
9
9
9
9
9
9
9
9
9
9
9
9
9
9
9
9
9
9
9
9
9
9
9
9
9
9
9
9
9
9
9
9
9
9
9
9
9
9
9
9
9
9
9
9
9
9
9
9
9
9
9
9
9
9
9
9
9
9
9
9
9
9
9
9
9
9
9
9
9
9
9
9
9
9
9
9
9
9
9
9
9
9
9
9
9
9
9
9
9
9
9
9
9
9
9
9
9
9
9
9
9
9
9
9
9
9
9
9
9
9
9
9
9
9
9
9
9
9
9
9
9
9
9
9
9
9
9
9
9
9
9
9
9
9
9
9
9
9
9
9
9
9
9
9
9
9
9
9
9
9
9
9
9
9
9
9
9
9
9
9
9
9
9
9
9
9
9
9
9
9
9
9
9
9
9
9
9
9
9
9
9
9
9
9
9
9
9
9
9
9
9
9
9
9
9
9
9
9
9
9
9
9
9
9
9
9
9
9
9
9
9
9
9
9
9
9
9
9
9
9
9
9
9
9
9
9
9
9
9
9
9
9
9
9
9
9
9
9
9
9
9
9
9
9
9
9
9
9
9
9
9
9
9
9
9
9
9
9
9
9
9
9
9
9
9
9
9
9
9
9
9
9
9
9
9
9
9
9
9
9
9
9
9
9
9
9
9
9
9
9
9
9
9
9
9
9
9
9
9
9
9
9
9
9
9
9
9
9
9
9
9
9
9
9
9
9
9
9
9
9
9
9
9
9
9
9
9
9
9
9
9
9
9
9
9
9
9
9
9
9
9
9
9
9
9
9
9
9
9
9
9
9
9
9
9
9
9
9
9
9
9
9
9
9
9
9
9
9
9
9
9
9
9
9
9
9
9
9
9
9
9
9
9
9
9
9
9
9
9
9
9
9
9
9
9
9
9
9
9
9
9
9
9
9
9
9
9
9
9
9
9
9
9
9
9
9
9
9
9
9
9
9
9
9
9
9
9
9
9
9
9
9
9
9
9
9
9
9
9
9
9
9
9
9
9
9
9
9
9
9
9
9
9
9
9
9
9
9
9
9
9
9
9
9
9
9
9
9
9
9
9
9
9
9
9
9
9
9
9
9
9
9
9
9
9
9
9
9
9
9
9
9
9
9
9
9
9
9
9
9
9
9
9
9
9
9
9
9
9
9
9
9
9
9
9
9
9
9
9
9
9
9
9
9
9
9
9
9
9
9
9
9
9
9
9
9
9
9
9
9
9
9
9
9
9
9
9
9
9
9
9
9
9
9
9
9
9
9
9
9
9
9
9
9
9
9
9
9
9
9
9
9
9
9
9
9
9
9
9
9
9
9
9
9
9
9
9
9
9
9
9
9
9
9
9
9
9
9
9
9
9
9
9
9
9
9
9
9
9
9
9
9
9
9
9
9
9
9
9
9
9
9
9
9
9
9
9
9
9
9
9
9
9
9
9
9
9
9
9
9
9
9
9
9
9
9
9
9
9
9
9
9
9
9
9
9
9
9
9
9
9
9
9
9
9
9
9
9
9
9
9
9
9
9
9
9
9
9
9
9
9
9
9
9
9
9
9
9
9
9
9
9
9
9
9
9
9
9
9
9
9
9
9
9
9
9
9
9
9
9
9
9
9
9
9
9
9
9
9
9
9
9
9
9
9
9
9
9
9
9
9
9
9
9
9
9
9
9
9
9
9
9
9
9
9
9
9
9
9
9
9
9
9
9
9
9
9
9
9
9
9
9
9
9
9
9
9
9
9
9
9
9
9
9
9
9
9
9
9
9
9
9
9
9
9
9
9
9
9
9
9
9
9
9
9
9
9
9
9
9
9
9
9
9
9
9
9
9
9
9
9
9
9
9
9
9
9
9
9
9
9
9
9
9
9
9
9
9
9
9
9
9
9
9
9
9
9
9
9
9
9
9
9
9
9
9
9
9
9
9
9
9
9
9
9
9
9
9
9
9
9
9
9
9
9
9
9
9
9
9
9
9
9
9
9
9
9
9
9
9
9
9
9
9
9
9
9
9
9
9
9
9
9
9
9
9
9
9
9
9
9
9
9
9
9
9
9
9
9
9
9
9
9
9
9
9
9
9
9
9
9
9
9
9
9
9
9
9
9
9
9
9
9
9
9
9
9
9
9
9
9
9
9
9
9
9
9
9
9
9
9
9
9
9
9
9
9
9
9
9
9
9
9
9
9
9
9
9
9
9
9
9
9
9
9
9
9
9
9
9
9
9
9
9
9
9
9
9
9
9
9
9
9
9
9
9
9
9
9
9
9
9
9
9
9
9
9
9
9
9
9
9
9
9
9
9
9
9
9
9
9
9
9
9
9
9
9
9
9
9
9
9
9
9
9
9
9
9
9
9
9
9
9
9
9
9
9
9
9
9
9
9
9
9
9
9
9
9
9
9
9
9
9
9
9
9
9
9
9
9
9
9
9
9
9
9
9
9
9
9
9
9
9
9
9
9
9
9
9
9
9
9
9
9
9
9
9
9
9
9
9
9
9
9
9
9
9
9
9
9
9
9
9
9
9
9
9
9
9
9
9
9
9
9
9
9
9
9
9
9
9
9
9
9
9
9
9
9
9
9
9
9
9
9
9
9
9
9
9
9
9
9
9
9
9
9
9
9
9
9
9
9
9
9
9
9
9
9
9
9
9
9
9
9
9
9
9
9
9
9
9
9
9
9
9
9
9
9
9
9
9
9
9
9
9
9
9
9
9
9
9
9
9
9
9
9
9
9
9
9
9
9
9
9
9
9
9
9
9
9
9
9
9
9
9
9
9
9
9
9
9
9
9
9
9
9
9
9
9
9
9
9
9
9
9
9
9
9
9
9
9
9
9
9
9
9
9
9
9
9
9
9
9
9
9
9
9
9
9
9
9
9
9
9
9
9
9
9
9
9
9
9
9
9
9
9
9
9
9
9
9
9
9
9
9
9
9
9
9
9
9
9
9
9
9
9
9
9
9
9
9
9
9
9
9
9
9
9
9
9
9
9
9
9
9
9
9
9
9
9
9
9
9
9
9
9
9
9
9
9
9
9
9
9
9
9
9
9
9
9
9
9
9
9
9
9
9
9
9
9
9
9
9
9
9
9
9
9
9
9
9
9
9
9
9
9
9
9
9
9
9
9
9
9
9
9
9
9
9
9
9
9
9
9
9
9
9
9
9
9
9
9
9
9
9
9
9
9
9
9
9
9
9
9
9
9
9
9
9
9
9
9
9
9
9
9
9
9
9
9
9
9
9
9
9
9
9
9
9
9
9
9
9
9
9
9
9
9
9
9
9
9
9
9
9
9
9
9
9
9
9
9
9
9
9
9
9
9
9
9
9
9
9
9
9
9
9
9
9
9
9
9
9
9
9
9
9
9
9
9
9
9
9
9
9
9
9
9
9
9
9
9
9
9
9
9
9
9
9
9
9
9
9
9
9
9
9
9
9
9
9
9
9
9
9
9
9
9
9
9
9
9
9
9
9
9
9
9
9
9
9
9
9
9
9
9
9
9
9
9
9
9
9
9
9
9
9
9
9
9
9
9
9
9
9
9
9
9
9
9
9
9
9
9
9
9
9
9
9
9
9
9
9
9
9
9
9
9
9
9
9
9
9
9
9
9
9
9
9
9
9
9
9
9
9
9
9
9
9
9
9
9
9
9
9
9
9
9
9
9
9
9
9
9
9
9
9
9
9
9
9
9
9
9
9
9
9
9
9
9
9
9
9
9
9
9
9
9
9
9
9
9
9
9
9
9
9
9
9
9
9
9
9
9
9
9
9
9
9
9
9
9
9
9
9
9
9
9
9
9
9
9
9
9
9
9
9
9
9
9
9
9
9
9
9
9
9
9
9
9
9
9
9
9
9
9
9
9
9
9
9
9
9
9
9
9
9
9
9
9
9
9
9
9
9
9
9
9
9
9
9
9
9
9
9
9
9
9
9
9
9
9
9
9
9
9
9
9
9
9
9
9
9
9
9
9
9
9
9
9
9
9
9
9
9
9
9
9
9
9
9
9
9
9
9
9
9
9
9
9
9
9
9
9
9
9
9
9
9
9
9
9
9
9
9
9
9
9
9
9
9
9
9
9
9
9
9
9
9
9
9
9
9
9
9
9
9
9
9
9
9
9
9
9
9
9
9
9
9
9
9
9
9
9
9
9
9
9
9
9
9
9
9
9
9
9
9
9
9
9
9
9
9
9
9
9
9
9
9
9
9
9
9
9
9
9
9
9
9
9
9
9
9
9
9
9
9
9
9
9
9
9
9
9
9
9
9
9
9
9
9
9
9
9
9
9
9
9
9
9
9
9
9
9
9
9
9
9
9
9
9
9
9
9
9
9
9
9
9
9
9
9
9
9
9
9
9
9
9
9
9
9
9
9
9
9
9
9
9
9
9
9
9
9
9
9
9
9
9
9
9
9
9
9
9
9
9
9
9
9
9
9
9
9
9
9
9
9
9
9
9
9
9
9
9
9
9
9
9
9
9
9
9
9
9
9
9
9
9
9
9
9
9
9
9
9
9
9
9
9
9
9
9
9
9
9
9
9
9
9
9
9
9
9
9
9
9
9
9
9
9
9
9
9
9
9
9
9
9
9
9
9
9
9
9
9
9
9
9
9
9
9
9
9
9
9
9
9
9
9
9
9
9
9
9
9
9
9
9
9
9
9
9
9
9
9
9
9
9
9
9
9
9
9
9
9
9
9
9
9
9
9
9
9
9
9
9
9
9
9
9
9
9
9
9
9
9
9
9
9
9
9
9
9
9
9
9
9
9
9
9
9
9
9
9
9
9
9
9
9
9
9
9
9
9
9
9
9
9
9
9
9
9
9
9
9
9
9
9
9
9
9
9
9
9
9
9
9
9
9
9
9
9
9
9
9
9
9
9
9
9
9
9
9
9
9
9
9
9
9
9
9
9
9
9
9
9
9
9
9
9
9
9
9
9
9
9
9
9
9
9
9
9
9
9
9
9
9
9
9
9
9
9
9
9
9
9
9
9
9
9
9
9
9
9
9
9
9
9
9
9
9
9
9
9
9
9
9
9
9
9
9
9
9
9
9
9
9
9
9
9
9
9
9
9
9
9
9
9
9
9
9
9
9
9
9
9
9
9
9
9
9
9
9
9
9
9
9
9
9
9
9
9
9
9
9
9
9
9
9
9
9
9
9
9
9
9
9
9
9
9
9
9
9
9
9
9
9
9
9
9
9
9
9
9
9
9
9
9
9
9
9
9
9
9
9
9
9
9
9
9
9
9
9
9
9
9
9
9
9
9
9
9
9
9
9
9
9
9
9
9
9
9
9
9
9
9
9
9
9
9
9
9
9
9
9
9
9
9
9
9
9
9
9
9
9
9
9
9
9
9
9
9
9
9
9
9
9
9
9
9
9
9
9
9
9
9
9
9
9
9
9
9
9
9
9
9
9
9
9
9
9
9
9
9
9
9
9
9
9
9
9
9
9
9
9
9
9
9
9
9
9
9
9
9
9
9
9
9
9
9
9
9
9
9
9
9
9
9
9
9
9
9
9
9
9
9
9
9
9
9
9
9
9
9
9
9
9
9
9
9
9
9
9
9
9
9
9
9
9
9
9
9
9
9
9
9
9
9
9
9
9
9
9
9
9
9
9
9
9
9
9
9
9
9
9
9
9
9
9
9
9
9
9
9
9
9
9
9
9
9
9
9
9
9
9
9
9
9
9
9
9
9
9
9
9
9
9
9
9
9
9
9
9
9
9
9
9
9
9
9
9
9
9
9
9
9
9
9
9
9
9
9
9
9
9
9
9
9
9
9
9
9
9
9
9
9
9
9
9
9
9
9
9
9
9
9
9
9
9
9
9
9
9
9
9
9
9
9
9
9
9
9
9
9
9
9
9
9
9
9
9
9
9
9
9
9
9
9
9
9
9
9
9
9
9
9
9
9
9
9
9
9
9
9
9
9
9
9
9
9
9
9
9
9
9
9
9
9
9
9
9
9
9
9
9
9
9
9
9
9
9
9
9
9
9
9
9
9
9
9
9
9
9
9
9
9
9
9
9
9
9
9
9
9
9
9
9
9
9
9
9
9
9
9
9
9
9
9
9
9
9
9
9
9
9
9
9
9
9
9
9
9
9
9
9
9
9
9
9
9
9
9
9
9
9
9
9
9
9
9
9
9
9
9
9
9
9
9
9
9
9
9
9
9
9
9
9
9
9
9
9
9
9
9
9
9
9
9
9
9
9
9
9
9
9
9
9
9
9
9
9
9
9
9
9
9
9
9
9
9
9
9
9
9
9
9
9
9
9
9
9
9
9
9
9
9
9
9
9
9
9
9
9
9
9
9
9
9
9
9
9
9
9
9
9
9
9
9
9
9
9
9
9
9
9
9
9
9
9
9
9
9
9
9
9
9
9
9
9
9
9
9
9
9
9
9
9
9
9
9
9
9
9
9
9
9
9
9
9
9
9
9
9
9
9
9
9
9
9
9
9
9
9
9
9
9
9
9
9
9
9
9
9
9
9
9
9
9
9
9
9
9
9
9
9
9
9
9
9
9
9
9
9
9
9
9
9
9
9
9
9
9
9
9
9
9
9
9
9
9
9
9
9
9
9
9
9
9
9
9
9
9
9
9
9
9
9
9
9
9
9
9
9
9
9
9
9
9
9
9
9
9
9
9
9
9
9
9
9
9
9
9
9
9
9
9
9
9
9
9
9
9
9
9
9
9
9
9
9
9
9
9
9
9
9
9
9
9
9
9
9
9
9
9
9
9
9
9
9
9
9
9
9
9
9
9
9
9
9
9
9
9
9
9
9
9
9
9
9
9
9
9
9
9
9
9
9
9
9
9
9
9
9
9
9
9
9
9
9
9
9
9
9
9
9
9
9
9
9
9
9
9
9
9
9
9
9
9
9
9
9
9
9
9
9
9
9
9
9
9
9
9
9
9
9
9
9
9
9
9
9
9
9
9
9
9
9
9
9
9
9
9
9
9
9
9
9
9
9
9
9
9
9
9
9
9
9
9
9
9
9
9
9
9
9
9
9
9
9
9
9
9
9
9
9
9
9
9
9
9
9
9
9
9
9
9
9
9
9
9
9
9
9
9
9
9
9
9
9
9
9
9
9
9
9
9
9
9
9
9
9
9
9
9
9
9
9
9
9
9
9
9
9
9
9
9
9
9
9
9
9
9
9
9
9
9
9
9
9
9
9
9
9
9
9
9
9
9
9
9
9
9
9
9
9
9
9
9
9
9
9
9
9
9
9
9
9
9
9
9
9
9
9
9
9
9
9
9
9
9
9
9
9
9
9
9
9
9
9
9
9
9
9
9
9
9
9
9
9
9
9
9
9
9
9
9
9
9
9
9
9
9
9
9
9
9
9
9
9
9
9
9
9
9
9
9
9
9
9
9
9
9
9
9
9
9
9
9
9
9
9
9
9
9
9
9
9
9
9
9
9
9
9
9
9
9
9
9
9
9
9
9
9
9
9
9
9
9
9
9
9
9
9
9
9
9
9
9
9
9
9
9
9
9
9
9
9
9
9
9
9
9
9
9
9
9
9
9
9
9
9
9
9
9
9
9
9
9
9
9
9
9
9
9
9
9
9
9
9
9
9
9
9
9
9
9
9
9
9
9
9
9
9
9
9
9
9
9
9
9
9
9
9
9
9
9
9
9
9
9
9
9
9
9
9
9
9
9
9
9
9
9
9
9
9
9
9
9
9
9
9
9
9
9
9
9
9
9
9
9
9
9
9
9
9
9
9
9
9
9
9
9
9
9
9
9
9
9
9
9
9
9
9
9
9
9
9
9
9
9
9
9
9
9
9
9
9
9
9
9
9
9
9
9
9
9
9
9
9
9
9
9
9
9
9
9
9
9
9
9
9
9
9
9
9
9
9
9
9
9
9
9
9
9
9
9
9
9
9
9
9
9
9
9
9
9
9
9
9
9
9
9
9
9
9
9
9
9
9
9
9
9
9
9
9
9
9
9
9
9
9
9
9
9
9
9
9
9
9
9
9
9
9
9
9
9
9
9
9
9
9
9
9
9
9
9
9
9
9
9
9
9
9
9
9
9
9
9
9
9
9
9
9
9
9
9
9
9
9
9
9
9
9
9
9
9
9
9
9
9
9
9
9
9
9
9
9
9
9
9
9
9
9
9
9
9
9
9
9
9
9
9
9
9
9
9
9
9
9
9
9
9
9
9
9
9
9
9
9
9
9
9
9
9
9
9
9
9
9
9
9
9
9
9
9
9
9
9
9
9
9
9
9
9
9
9
9
9
9
9
9
9
9
9
9
9
9
9
9
9
9
9
9
9
9
9
9
9
9
9
9
9
9
9
9
9
9
9
9
9
9
9
9
9
9
9
9
9
9
9
9
9
9
9
9
9
9
9
9
9
9
9
9
9
9
9
9
9
9
9
9
9
9
9
9
9
9
9
9
9
9
9
9
9
9
9
9
9
9
9
9
9
9
9
9
9
9
9
9
9
9
9
9
9
9
9
9
9
9
9
9
9
9
9
9
9
9
9
9
9
9
9
9
9
9
9
9
9
9
9
9
9
9
9
9
9
9
9
9
9
9
9
9
9
9
9
9
9
9
9
9
9
9
9
9
9
9
9
9
9
9
9
9
9
9
9
9
9
9
9
9
9
9
9
9
9
9
9
9
9
9
9
9
9
9
9
9
9
9
9
9
9
9
9
9
9
9
9
9
9
9
9
9
9
9
9
9
9
9
9
9
9
9
9
9
9
9
9
9
9
9
9
9
9
9
9
9
9
9
9
9
9
9
9
9
9
9
9
9
9
9
9
9
9
9
9
9
9
9
9
9
9
9
9
9
9
9
9
9
9
9
9
9
9
9
9
9
9
9
9
9
9
9
9
9
9
9
9
9
9
9
9
9
9
9
9
9
9
9
9
9
9
9
9
9
9
9
9
9
9
9
9
9
9
9
9
9
9
9
9
9
9
9
9
9
9
9
9
9
9
9
9
9
9
9
9
9
9
9
9
9
9
9
9
9
9
9
9
9
9
9
9
9
9
9
9
9
9
9
9
9
9
9
9
9
9
9
9
9
9
9
9
9
9
9
9
9
9
9
9
9
9
9
9
9
9
9
9
9
9
9
9
9
9
9
9
9
9
9
9
9
9
9
9
9
9
9
9
9
9
9
9
9
9
9
9
9
9
9
9
9
9
9
9
9
9
9
9
9
9
9
9
9
9
9
9
9
9
9
9
9
9
9
9
9
9
9
9
9
9
9
9
9
9
9
9
9
9
9
9
9
9
9
9
9
9
9
9
9
9
9
9
9
9
9
9
9
9
9
9
9
9
9
9
9
9
9
9
9
9
9
9
9
9
9
9
9
9
9
9
9
9
9
9
9
9
9
9
9
9
9
9
9
9
9
9
9
9
9
9
9
9
9
9
9
9
9
9
9
9
9
9
9
9
9
9
9
9
9
9
9
9
9
9
9
9
9
9
9
9
9
9
9
9
9
9
9
9
9
9
9
9
9
9
9
9
9
9
9
9
9
9
9
9
9
9
9
9
9
9
9
9
9
9
9
9
9
9
9
9
9
9
9
9
9
9
9
9
9
9
9
9
9
9
9
9
9
9
9
9
9
9
9
9
9
9
9
9
9
9
9
9
9
9
9
9
9
9
9
9
9
9
9
9
9
9
9
9
9
9
9
9
9
9
9
9
9
9
9
9
9
9
9
9
9
9
9
9
9
9
9
9
9
9
9
9
9
9
9
9
9
9
9
9
9
9
9
9
9
9
9
9
9
9
9
9
9
9
9
9
9
9
9
9
9
9
9
9
9
9
9
9
9
9
9
9
9
9
9
9
9
9
9
9
9
9
9
9
9
9
9
9
9
9
9
9
9
9
9
9
9
9
9
9
9
9
9
9
9
9
9
9
9
9
9
9
9
9
9
9
9
9
9
9
9
9
9
9
9
9
9
9
9
9
9
9
9
9
9
9
9
9
9
9
9
9
9
9
9
9
9
9
9
9
9
9
9
9
9
9
9
9
9
9
9

POINT_DATA 11827
VECTORS displacement float
0.000000 0.000000 0.000000
0.014202 0.000000 0.000000
0.007154 -0.024902 0.000000
0.007048 -0.024902 0.000000
0.000143 0.000000 0.000000
0.000286 0.000000 0.000000
0.000430 0.000000 0.000000
0.000575 0.000000 0.000000
0.000719 0.000000 0.000000
0.000864 0.000000 0.000000
0.001008 0.000000 0.000000
0.001153 0.000000 0.000000
0.001298 0.000000 0.000000
0.001442 0.000000 0.000000
0.001587 0.000000 0.000000
0.001731 0.000000 0.000000
0.001875 0.000000 0.000000
0.002019 0.000000 0.000000
0.002163 0.000000 0.000000
0.002306 0.000000 0.000000
0.002450 0.000000 0.000000
0.002593 0.000000 0.000000
0.002736 0.000000 0.000000
0.002879 0.000000 0.000000
0.003022 0.000000 0.000000
0.003164 0.000000 0.000000
0.003307 0.000000 0.000000
0.003449 0.000000 0.000000
0.003591 0.000000 0.000000
0.003733 0.000000 0.000000
0.003874 0.000000 0.000000
0.004016 0.000000 0.000000
0.004157 0.000000 0.000000
0.004299 0.000000 0.000000
0.004440 0.000000 0.000000
0.004580 0.000000 0.000000
0.004721 0.000000 0.000000
0.004862 0.000000 0.000000
0.005002 0.000000 0.000000
0.005143 0.000000 0.000000
0.005283 0.000000 0.000000
0.005423 0.000000 0.000000
0.005563 0.000000 0.000000
0.005703 0.000000 0.000000
0.005843 0.000000 0.000000
0.005983 0.000000 0.000000
0.006123 0.000000 0.000000
0.006263 0.000000 0.000000
0.006403 0.000000 0.000000
0.006542 0.000000 0.000000
0.006682 0.000000 0.000000
0.006822 0.000000 0.000000
0.006961 0.000000 0.000000
0.007101 0.000000 0.000000
0.007240 0.000000 0.000000
0.007380 0.000000 0.000000
0.007520 0.000000 0.000000
0.007659 0.000000 0.000000
0.007799 0.000000 0.000000
0.007939 0.000000 0.000000
0.008078 0.000000 0.000000
0.008218 0.000000 0.000000
0.008358 0.000000 0.000000
0.008498 0.000000 0.000000
0.008638 0.000000 0.000000
0.008778 0.000000 0.000000
0.008918 0.000000 0.000000
0.009059 0.000000 0.000000
0.009199 0.000000 0.000000
0.009340 0.000000 0.000000
0.009480 0.000000 0.000000
0.009621 0.000000 0.000000
0.009762 0.000000 0.000000
0.009903 0.000000 0.000000
0.010044 0.000000 0.000000
0.010186 0.000000 0.000000
0.010327 0.000000 0.000000
0.010469 0.000000 0.000000
0.010611 0.000000 0.000000
0.010753 0.000000 0.000000
0.010895 0.000000 0.000000
0.011037 0.000000 0.000000
0.011180 0.000000 0.000000
0.011322 0.000000 0.000000
0.011465 0.000000 0.000000
0.011608 0.000000 0.000000
0.011752 0.000000 0.000000
0.011895 0.000000 0.000000
0.012039 0.000000 0.000000
0.012183 0.000000 0.000000
0.012327 0.000000 0.000000
0.012471 0.000000 0.000000
0.012615 0.000000 0.000000
0.012759 0.000000 0.000000
0.012904 0.000000 0.000000
0.013049 0.000000 0.000000
0.013193 0.000000 0.000000
0.013338 0.000000 0.000000
0.013482 0.000000 0.000000
0.013627 0.000000 0.000000
0.013771 0.000000 0.000000
0.013915 0.000000 0.000000
0.014059 0.000000 0.000000
0.014196 -0.000471 0.000000
0.014184 -0.000938 0.000000
0.014166 -0.001401 0.000000
0.014143 -0.001860 0.000000
0.014115 -0.002315 0.000000
0.014084 -0.002767 0.000000
0.014049 -0.003215 0.000000
0.014011 -0.003659 0.000000
0.013970 -0.004099 0.000000
0.013926 -0.004535 0.000000
0.013879 -0.004967 0.000000
0.013830 -0.005395 0.000000
0.013779 -0.005820 0.000000
0.013726 -0.006240 0.000000
0.013671 -0.006656 0.000000
0.013614 -0.007068 0.000000
0.013555 -0.007475 0.000000
0.013495 -0.007879 0.000000
0.013433 -0.008278 0.000000
0.013370 -0.008673 0.000000
0.013306 -0.009064 0.000000
0.013240 -0.009451 0.000000
0.013174 -0.009833 0.000000
0.013106 -0.010211 0.000000
0.013037 -0.010585 0.000000
0.012968 -0.010954 0.000000
0.012897 -0.011319 0.000000
0.012826 -0.011679 0.000000
0.012754 -0.012035 0.000000
0.012681 -0.012387 0.000000
0.012607 -0.012733 0.000000
0.012533 -0.013076 0.000000
0.012459 -0.013414 0.000000
0.012383 -0.013747 0.000000
0.012308 -0.014076 0.000000
0.012232 -0.014400 0.000000
0.012155 -0.014719 0.000000
0.012078 -0.015034 0.000000
0.012001 -0.015344 0.000000
0.011923 -0.015649 0.000000
0.011845 -0.015950 0.000000
0.011767 -0.016246 0.000000
0.011688 -0.016537 0.000000
0.011609 -0.016824 0.000000
0.011530 -0.017106 0.000000
0.011451 -0.017383 0.000000
0.011372 -0.017655 0.000000
0.011292 -0.017922 0.000000
0.011212 -0.018184 0.000000
0.011133 -0.018442 0.000000
0.011053 -0.018695 0.000000
0.010973 -0.018943 0.000000
0.010893 -0.019186 0.000000
0.010812 -0.019424 0.000000
0.010732 -0.019657 0.000000
0.010652 -0.019885 0.000000
0.010571 -0.020108 0.000000
0.010491 -0.020327 0.000000
0.010411 -0.020540 0.000000
0.010330 -0.020748 0.000000
0.010250 -0.020951 0.000000
0.010169 -0.021150 0.000000
0.010089 -0.021343 0.000000
0.010009 -0.021531 0.000000
0.009928 -0.021715 0.000000
0.009848 -0.021893 0.000000
0.009768 -0.022066 0.000000
0.009687 -0.022234 0.000000
0.009607 -0.022397 0.000000
0.009527 -0.022555 0.000000
0.009447 -0.022708 0.000000
0.009366 -0.022856 0.000000
0.009286 -0.022998 0.000000
0.009207 -0.023136 0.000000
0.009126 -0.023269 0.000000
0.009047 -0.023396 0.000000
0.008967 -0.023518 0.000000
0.008887 -0.023636 0.000000
0.008808 -0.023747 0.000000
0.008728 -0.023854 0.000000
0.008649 -0.023956 0.000000
0.008569 -0.024053 0.000000
0.008490 -0.024144 0.000000
0.008411 -0.024230 0.000000
0.008332 -0.024311 0.000000
0.008253 -0.024387 0.000000
0.008174 -0.024458 0.000000
0.008095 -0.024523 0.000000
0.008016 -0.024584 0.000000
0.007937 -0.024639 0.000000
0.007859 -0.024688 0.000000
0.007780 -0.024733 0.000000
0.007702 -0.024772 0.000000
0.007623 -0.024806 0.000000
0.007545 -0.024835 0.000000
0.007466 -0.024859 0.000000
0.007388 -0.024878 0.000000
0.007310 -0.024891 0.000000
0.007232 -0.024899 0.000000
0.007154 -0.024978 0.000000
0.007154 -0.025055 0.000000
0.007153 -0.025129 0.000000
0.007153 -0.025202 0.000000
0.007153 -0.025273 0.000000
0.007153 -0.025343 0.000000
0.007153 -0.025411 0.000000
0.007153 -0.025477 0.000000
0.007153 -0.025542 0.000000
0.007153 -0.025605 0.000000
0.007153 -0.025666 0.000000
0.007153 -0.025726 0.000000
0.007153 -0.025784 0.000000
0.007153 -0.025841 0.000000
0.007153 -0.025896 0.000000
0.007153 -0.025949 0.000000
0.007153 -0.026001 0.000000
0.007152 -0.026051 0.000000
0.007152 -0.026099 0.000000
0.007151 -0.026146 0.000000
0.007151 -0.026191 0.000000
0.007150 -0.026235 0.000000
0.007150 -0.026276 0.000000
0.007149 -0.026317 0.000000
0.007148 -0.026355 0.000000
0.007147 -0.026393 0.000000
0.007146 -0.026428 0.000000
0.007145 -0.026462 0.000000
0.007143 -0.026494 0.000000
0.007142 -0.026525 0.000000
0.007140 -0.026555 0.000000
0.007139 -0.026582 0.000000
0.007137 -0.026609 0.000000
0.007136 -0.026633 0.000000
0.007134 -0.026656 0.000000
0.007132 -0.026678 0.000000
0.007130 -0.026698 0.000000
0.007128 -0.026717 0.000000
0.007126 -0.026734 0.000000
0.007124 -0.026749 0.000000
0.007122 -0.026763 0.000000
0.007120 -0.026776 0.000000
0.007117 -0.026787 0.000000
0.007115 -0.026797 0.000000
0.007113 -0.026805 0.000000
0.007110 -0.026811 0.000000
0.007108 -0.026817 0.000000
0.007106 -0.026820 0.000000
0.007103 -0.026822 0.000000
0.007101 -0.026823 0.000000
0.007098 -0.026822 0.000000
0.007096 -0.026820 0.000000
0.007094 -0.026817 0.000000
0.007091 -0.026811 0.000000
0.007089 -0.026805 0.000000
0.007086 -0.026797 0.000000
0.007084 -0.026787 0.000000
0.007082 -0.026776 0.000000
0.007080 -0.026763 0.000000
0.007078 -0.026749 0.000000
0.007075 -0.026734 0.000000
0.007073 -0.026717 0.000000
0.007071 -0.026698 0.000000
0.007069 -0.026678 0.000000
0.007068 -0.026656 0.000000
0.007066 -0.026633 0.000000
0.007064 -0.026609 0.000000
0.007062 -0.026582 0.000000
0.007061 -0.026555 0.000000
0.007060 -0.026525 0.000000
0.007058 -0.026494 0.000000
0.007057 -0.026462 0.000000
0.007056 -0.026428 0.000000
0.007055 -0.026393 0.000000
0.007054 -0.026355 0.000000
0.007053 -0.026317 0.000000
0.007052 -0.026276 0.000000
0.007051 -0.026235 0.000000
0.007051 -0.026191 0.000000
0.007050 -0.026146 0.000000
0.007050 -0.026099 0.000000
0.007049 -0.026051 0.000000
0.007049 -0.026001 0.000000
0.007049 -0.025949 0.000000
0.007049 -0.025896 0.000000
0.007048 -0.025841 0.000000
0.007048 -0.025784 0.000000
0.007048 -0.025726 0.000000
0.007048 -0.025666 0.000000
0.007048 -0.025605 0.000000
0.007048 -0.025542 0.000000
0.007048 -0.025477 0.000000
0.007048 -0.025411 0.000000
0.007048 -0.025343 0.000000
0.007048 -0.025273 0.000000
0.007048 -0.025202 0.000000
0.007048 -0.025129 0.000000
0.007048 -0.025055 0.000000
0.007048 -0.024979 0.000000
0.006970 -0.024899 0.000000
0.006892 -0.024891 0.000000
0.006813 -0.024878 0.000000
0.006735 -0.024859 0.000000
0.006657 -0.024835 0.000000
0.006579 -0.024806 0.000000
0.006500 -0.024772 0.000000
0.006422 -0.024733 0.000000
0.006343 -0.024688 0.000000
0.006264 -0.024639 0.000000
0.006186 -0.024583 0.000000
0.006107 -0.024523 0.000000
0.006028 -0.024458 0.000000
0.005949 -0.024387 0.000000
0.005870 -0.024311 0.000000
0.005791 -0.024230 0.000000
0.005712 -0.024144 0.000000
0.005632 -0.024053 0.000000
0.005553 -0.023956 0.000000
0.005474 -0.023854 0.000000
0.005394 -0.023747 0.000000
0.005314 -0.023635 0.000000
0.005235 -0.023518 0.000000
0.005155 -0.023396 0.000000
0.005075 -0.023269 0.000000
0.004995 -0.023136 0.000000
0.004915 -0.022999 0.000000
0.004835 -0.022856 0.000000
0.004755 -0.022708 0.000000
0.004675 -0.022555 0.000000
0.004595 -0.022397 0.000000
0.004515 -0.022234 0.000000
0.004434 -0.022066 0.000000
0.004354 -0.021893 0.000000
0.004273 -0.021715 0.000000
0.004193 -0.021531 0.000000
0.004113 -0.021343 0.000000
0.004032 -0.021150 0.000000
0.003952 -0.020951 0.000000
0.003871 -0.020748 0.000000
0.003791 -0.020540 0.000000
0.003710 -0.020327 0.000000
0.003630 -0.020108 0.000000
0.003550 -0.019885 0.000000
0.003469 -0.019657 0.000000
0.003389 -0.019424 0.000000
0.003309 -0.019186 0.000000
0.003229 -0.018943 0.000000
0.003149 -0.018695 0.000000
0.003069 -0.018442 0.000000
0.002989 -0.018185 0.000000
0.002909 -0.017922 0.000000
0.002830 -0.017655 0.000000
0.002750 -0.017383 0.000000
0.002671 -0.017106 0.000000
0.002592 -0.016824 0.000000
0.002513 -0.016538 0.000000
0.002435 -0.016246 0.000000
0.002357 -0.015950 0.000000
0.002279 -0.015650 0.000000
0.002201 -0.015344 0.000000
0.002124 -0.015034 0.000000
0.002047 -0.014719 0.000000
0.001970 -0.014400 0.000000
0.001894 -0.014076 0.000000
0.001818 -0.013747 0.000000
0.001743 -0.013414 0.000000
0.001668 -0.013076 0.000000
0.001594 -0.012733 0.000000
0.001521 -0.012387 0.000000
0.001448 -0.012035 0.000000
0.001376 -0.011679 0.000000
0.001305 -0.011319 0.000000
0.001234 -0.010954 0.000000
0.001164 -0.010585 0.000000
0.001096 -0.010211 0.000000
0.001028 -0.009833 0.000000
0.000961 -0.009451 0.000000
0.000896 -0.009064 0.000000
0.000831 -0.008673 0.000000
0.000768 -0.008278 0.000000
0.000706 -0.007879 0.000000
0.000646 -0.007475 0.000000
0.000588 -0.007068 0.000000
0.000531 -0.006656 0.000000
0.000476 -0.006240 0.000000
0.000423 -0.005820 0.000000
0.000371 -0.005396 0.000000
0.000322 -0.004968 0.000000
0.000276 -0.004535 0.000000
0.000232 -0.004099 0.000000
0.000191 -0.003659 0.000000
0.000152 -0.003215 0.000000
0.000117 -0.002767 0.000000
0.000086 -0.002315 0.000000
0.000059 -0.001860 0.000000
0.000036 -0.001400 0.000000
0.000018 -0.000938 0.000000
0.000005 -0.000471 0.000000
0.003105 -0.018406 0.000000
0.007171 -0.000459 0.000000
0.011030 -0.018612 0.000000
0.007099 -0.026820 0.000000
0.003806 -0.020503 0.000000
0.007131 -0.026767 0.000000
0.005914 -0.000459 0.000000
0.011726 -0.016174 0.000000
0.008428 -0.000459 0.000000
0.010315 -0.020715 0.000000
0.007067 -0.026754 0.000000
0.002394 -0.015851 0.000000
0.007156 -0.026619 0.000000
0.004437 -0.022043 0.000000
0.004792 -0.000457 0.000000
0.012334 -0.013634 0.000000
0.009680 -0.022226 0.000000
0.007041 -0.026593 0.000000
0.001793 -0.013309 0.000000
0.009550 -0.000456 0.000000
0.003804 -0.000454 0.000000
0.012835 -0.011200 0.000000
0.007177 -0.026408 0.000000
0.004987 -0.023130 0.000000
0.009132 -0.023272 0.000000
0.007026 -0.026372 0.000000
0.001286 -0.010819 0.000000
0.010539 -0.000453 0.000000
0.002951 -0.000450 0.000000
0.013226 -0.008963 0.000000
0.005458 -0.023862 0.000000
0.007183 -0.026165 0.000000
0.011393 -0.000449 0.000000
0.000895 -0.008532 0.000000
0.008668 -0.023963 0.000000
0.007010 -0.026120 0.000000
0.002236 -0.000445 0.000000
0.005850 -0.024336 0.000000
0.013529 -0.006927 0.000000
0.007194 -0.025920 0.000000
0.000612 -0.006473 0.000000
0.012109 -0.000444 0.000000
0.008276 -0.024416 0.000000
0.007002 -0.025866 0.000000
0.013786 -0.004776 0.000000
0.001516 -0.000439 0.000000
0.006240 -0.024674 0.000000
0.007207 -0.025634 0.000000
0.007145 -0.026705 0.000000
0.004122 -0.021309 0.000000
0.006612 -0.000459 0.000000
0.007117 -0.026806 0.000000
0.003484 -0.019588 0.000000
0.007729 -0.000459 0.000000
0.008988 -0.000458 0.000000
0.012686 -0.000439 0.000000
0.002781 -0.017309 0.000000
0.002090 -0.014624 0.000000
0.000427 -0.004785 0.000000
0.005354 -0.000458 0.000000
0.011419 -0.017313 0.000000
0.010718 -0.019587 0.000000
0.009995 -0.021516 0.000000
0.007959 -0.024683 0.000000
0.007084 -0.026806 0.000000
0.007053 -0.026686 0.000000
0.006995 -0.025634 0.000000
0.012028 -0.014959 0.000000
0.006989 -0.025375 0.000000
0.007652 -0.024860 0.000000
0.013264 -0.000431 0.000000
0.000250 -0.002997 0.000000
0.006549 -0.024861 0.000000
0.007206 -0.025374 0.000000
0.013950 -0.003020 0.000000
0.000938 -0.000431 0.000000
0.007166 -0.026538 0.000000
0.004672 -0.022536 0.000000
0.004370 -0.000456 0.000000
0.003379 -0.000452 0.000000
0.010114 -0.000455 0.000000
0.010965 -0.000451 0.000000
0.005219 -0.023517 0.000000
0.001501 -0.011887 0.000000
0.001096 -0.009701 0.000000
0.009447 -0.022701 0.000000
0.007033 -0.026508 0.000000
0.013033 -0.010112 0.000000
0.012546 -0.012648 0.000000
0.008901 -0.023638 0.000000
0.007180 -0.026294 0.000000
0.007022 -0.026252 0.000000
0.014032 -0.001645 0.000000
0.000170 -0.001642 0.000000
0.007421 -0.024932 0.000000
0.006985 -0.025164 0.000000
0.000505 -0.000424 0.000000
0.007221 -0.025154 0.000000
0.013697 -0.000424 0.000000
0.006779 -0.024936 0.000000
0.004280 -0.021691 0.000000
0.007151 -0.026666 0.000000
0.003975 -0.020939 0.000000
0.007139 -0.026739 0.000000
0.001804 -0.000442 0.000000
0.000507 -0.005651 0.000000
0.009269 -0.000457 0.000000
0.001957 -0.013998 0.000000
0.008008 -0.000459 0.000000
0.006403 -0.024790 0.000000
0.005619 -0.024081 0.000000
0.002561 -0.016493 0.000000
0.013695 -0.005612 0.000000
0.009826 -0.021905 0.000000
0.007047 -0.026643 0.000000
0.006998 -0.025754 0.000000
0.004087 -0.000455 0.000000
0.010548 -0.020078 0.000000
0.007078 -0.026790 0.000000
0.007195 -0.026024 0.000000
0.006193 -0.000459 0.000000
0.006891 -0.000459 0.000000
0.007450 -0.000459 0.000000
0.008708 -0.000458 0.000000
0.011822 -0.000446 0.000000
0.012397 -0.000442 0.000000
0.012975 -0.000435 0.000000
0.006088 -0.024558 0.000000
0.004837 -0.022857 0.000000
0.003246 -0.018883 0.000000
0.002935 -0.017837 0.000000
0.002243 -0.015256 0.000000
0.000717 -0.007339 0.000000
0.002523 -0.000447 0.000000
0.005073 -0.000457 0.000000
0.009832 -0.000456 0.000000
0.001656 -0.012648 0.000000
0.008501 -0.024174 0.000000
0.007209 -0.025508 0.000000
0.007011 -0.026023 0.000000
0.012700 -0.011885 0.000000
0.005634 -0.000458 0.000000
0.013418 -0.007702 0.000000
0.000326 -0.003914 0.000000
0.003655 -0.020082 0.000000
0.011577 -0.016724 0.000000
0.011182 -0.018124 0.000000
0.010869 -0.019130 0.000000
0.010163 -0.021109 0.000000
0.009277 -0.023020 0.000000
0.008114 -0.024558 0.000000
0.007796 -0.024791 0.000000
0.007202 -0.025753 0.000000
0.007172 -0.026476 0.000000
0.007125 -0.026790 0.000000
0.007106 -0.026819 0.000000
0.007092 -0.026816 0.000000
0.007059 -0.026723 0.000000
0.007027 -0.026443 0.000000
0.001227 -0.000435 0.000000
0.012202 -0.014297 0.000000
0.011863 -0.015616 0.000000
0.013861 -0.003953 0.000000
0.006992 -0.025508 0.000000
0.014062 -0.000757 0.000000
0.000139 -0.000757 0.000000
0.007268 -0.024961 0.000000
0.006932 -0.024960 0.000000
0.013553 -0.000427 0.000000
0.013619 -0.000847 0.000000
0.013762 -0.000841 0.000000
0.013680 -0.001260 0.000000
0.013537 -0.001269 0.000000
0.013595 -0.001679 0.000000
0.013453 -0.001690 0.000000
0.013507 -0.002096 0.000000
0.013366 -0.002109 0.000000
0.013417 -0.002512 0.000000
0.013277 -0.002526 0.000000
0.013326 -0.002926 0.000000
0.013186 -0.002942 0.000000
0.013232 -0.003338 0.000000
0.013093 -0.003356 0.000000
0.013137 -0.003748 0.000000
0.012999 -0.003767 0.000000
0.013041 -0.004157 0.000000
0.012904 -0.004176 0.000000
0.012944 -0.004563 0.000000
0.012808 -0.004583 0.000000
0.012846 -0.004966 0.000000
0.012711 -0.004988 0.000000
0.012747 -0.005367 0.000000
0.012613 -0.005390 0.000000
0.012648 -0.005766 0.000000
0.012514 -0.005789 0.000000
0.012548 -0.006162 0.000000
0.012415 -0.006186 0.000000
0.012447 -0.006555 0.000000
0.012316 -0.006579 0.000000
0.012347 -0.006945 0.000000
0.012216 -0.006970 0.000000
0.012246 -0.007333 0.000000
0.012116 -0.007359 0.000000
0.012144 -0.007718 0.000000
0.012016 -0.007744 0.000000
0.012043 -0.008099 0.000000
0.011916 -0.008126 0.000000
0.011942 -0.008478 0.000000
0.011816 -0.008505 0.000000
0.011841 -0.008854 0.000000
0.011716 -0.008881 0.000000
0.011740 -0.009226 0.000000
0.011616 -0.009253 0.000000
0.011640 -0.009595 0.000000
0.011516 -0.009623 0.000000
0.011539 -0.009961 0.000000
0.011417 -0.009989 0.000000
0.011439 -0.010324 0.000000
0.011318 -0.010352 0.000000
0.011340 -0.010683 0.000000
0.011220 -0.010711 0.000000
0.011240 -0.011039 0.000000
0.011122 -0.011067 0.000000
0.011142 -0.011392 0.000000
0.011024 -0.011420 0.000000
0.011044 -0.011741 0.000000
0.010927 -0.011769 0.000000
0.010946 -0.012086 0.000000
0.010831 -0.012115 0.000000
0.010850 -0.012429 0.000000
0.010735 -0.012457 0.000000
0.010754 -0.012767 0.000000
0.010640 -0.012795 0.000000
0.010621 -0.012484 0.000000
0.010527 -0.012822 0.000000
0.010546 -0.013130 0.000000
0.010434 -0.013157 0.000000
0.010453 -0.013462 0.000000
0.010342 -0.013488 0.000000
0.010360 -0.013789 0.000000
0.010250 -0.013816 0.000000
0.010269 -0.014113 0.000000
0.010160 -0.014140 0.000000
0.010178 -0.014434 0.000000
0.010070 -0.014460 0.000000
0.010088 -0.014750 0.000000
0.009982 -0.014777 0.000000
0.009999 -0.015063 0.000000
0.009894 -0.015089 0.000000
0.009911 -0.015372 0.000000
0.009808 -0.015398 0.000000
0.009825 -0.015677 0.000000
0.009722 -0.015703 0.000000
0.009739 -0.015979 0.000000
0.009637 -0.016004 0.000000
0.009654 -0.016276 0.000000
0.009554 -0.016302 0.000000
0.009570 -0.016570 0.000000
0.009472 -0.016595 0.000000
0.009488 -0.016860 0.000000
0.009390 -0.016885 0.000000
0.009372 -0.016619 0.000000
0.009292 -0.016908 0.000000
0.009310 -0.017170 0.000000
0.009214 -0.017194 0.000000
0.009231 -0.017452 0.000000
0.009136 -0.017475 0.000000
0.009154 -0.017730 0.000000
0.009060 -0.017752 0.000000
0.009077 -0.018003 0.000000
0.008984 -0.018026 0.000000
0.008965 -0.017774 0.000000
0.008891 -0.018047 0.000000
0.008871 -0.017794 0.000000
0.008798 -0.018067 0.000000
0.008776 -0.017813 0.000000
0.008705 -0.018086 0.000000
0.008681 -0.017831 0.000000
0.008611 -0.018103 0.000000
0.008586 -0.017848 0.000000
0.008518 -0.018120 0.000000
0.008491 -0.017863 0.000000
0.008424 -0.018135 0.000000
0.008396 -0.017878 0.000000
0.008330 -0.018149 0.000000
0.008301 -0.017891 0.000000
0.008236 -0.018162 0.000000
0.008205 -0.017903 0.000000
0.008142 -0.018174 0.000000
0.008109 -0.017914 0.000000
0.008047 -0.018184 0.000000
0.008014 -0.017924 0.000000
0.007953 -0.018194 0.000000
0.007918 -0.017933 0.000000
0.007859 -0.018203 0.000000
0.007822 -0.017941 0.000000
0.007764 -0.018210 0.000000
0.007726 -0.017948 0.000000
0.007669 -0.018217 0.000000
0.007630 -0.017954 0.000000
0.007575 -0.018223 0.000000
0.007534 -0.017959 0.000000
0.007480 -0.018227 0.000000
0.007438 -0.017963 0.000000
0.007385 -0.018231 0.000000
0.007341 -0.017966 0.000000
0.007428 -0.018491 0.000000
0.007334 -0.018494 0.000000
0.008173 -0.018428 0.000000
0.008819 -0.018316 0.000000
0.007377 -0.018750 0.000000
0.007285 -0.018752 0.000000
0.007327 -0.019005 0.000000
0.007237 -0.019007 0.000000
0.007279 -0.019255 0.000000
0.007190 -0.019257 0.000000
0.007232 -0.019502 0.000000
0.007145 -0.019503 0.000000
0.007187 -0.019744 0.000000
0.007101 -0.019744 0.000000
0.007143 -0.019981 0.000000
0.007058 -0.019981 0.000000
0.007014 -0.019744 0.000000
0.006974 -0.019980 0.000000
0.006928 -0.019742 0.000000
0.006889 -0.019978 0.000000
0.006842 -0.019739 0.000000
0.007017 -0.020214 0.000000
0.006804 -0.019974 0.000000
0.006756 -0.019735 0.000000
0.006719 -0.019970 0.000000
0.006670 -0.019730 0.000000
0.006634 -0.019964 0.000000
0.006583 -0.019724 0.000000
0.006550 -0.019958 0.000000
0.006497 -0.019717 0.000000
0.006465 -0.019950 0.000000
0.006411 -0.019709 0.000000
0.006381 -0.019941 0.000000
0.006434 -0.020178 0.000000
0.006325 -0.019699 0.000000
0.006351 -0.020168 0.000000
0.006405 -0.020402 0.000000
0.006323 -0.020391 0.000000
0.006377 -0.020621 0.000000
0.006297 -0.020610 0.000000
0.006351 -0.020836 0.000000
0.006272 -0.020824 0.000000
0.006326 -0.021046 0.000000
0.006249 -0.021034 0.000000
0.006303 -0.021252 0.000000
0.007881 -0.017668 0.000000
0.006227 -0.021239 0.000000
0.006281 -0.021453 0.000000
0.006172 -0.021020 0.000000
0.006207 -0.021439 0.000000
0.006261 -0.021650 0.000000
0.010140 -0.013841 0.000000
0.006188 -0.021635 0.000000
0.006242 -0.021842 0.000000
0.006170 -0.021827 0.000000
0.006224 -0.022030 0.000000
0.006155 -0.022014 0.000000
0.006208 -0.022213 0.000000
0.006140 -0.022196 0.000000
0.006194 -0.022392 0.000000
0.006261 -0.022409 0.000000
0.006246 -0.022584 0.000000
0.006311 -0.022600 0.000000
0.006297 -0.022772 0.000000
0.006361 -0.022787 0.000000
0.006233 -0.022755 0.000000
0.006346 -0.022955 0.000000
0.006409 -0.022970 0.000000
0.006394 -0.023134 0.000000
0.006455 -0.023149 0.000000
0.006441 -0.023309 0.000000
0.006500 -0.023323 0.000000
0.006486 -0.023479 0.000000
0.006544 -0.023493 0.000000
0.006529 -0.023646 0.000000
0.006586 -0.023659 0.000000
0.006572 -0.023808 0.000000
0.006627 -0.023820 0.000000
0.006516 -0.023794 0.000000
0.006558 -0.023953 0.000000
0.006504 -0.023938 0.000000
0.006546 -0.024093 0.000000
0.006494 -0.024078 0.000000
0.006536 -0.024229 0.000000
0.006485 -0.024213 0.000000
0.006527 -0.024360 0.000000
0.006477 -0.024344 0.000000
0.007394 -0.017695 0.000000
0.011099 -0.010737 0.000000
0.006085 -0.021996 0.000000
0.006520 -0.024487 0.000000
0.006471 -0.024470 0.000000
0.006568 -0.024503 0.000000
0.008366 -0.017616 0.000000
0.006513 -0.024610 0.000000
0.006467 -0.024592 0.000000
0.006509 -0.024728 0.000000
0.006463 -0.024709 0.000000
0.009585 -0.016834 0.000000
0.006505 -0.024842 0.000000
0.006462 -0.024822 0.000000
0.006418 -0.024689 0.000000
0.006418 -0.024801 0.000000
0.006373 -0.024667 0.000000
0.006374 -0.024778 0.000000
0.006328 -0.024643 0.000000
0.006331 -0.024754 0.000000
0.006283 -0.024618 0.000000
0.006287 -0.024728 0.000000
0.006238 -0.024592 0.000000
0.006244 -0.024701 0.000000
0.006194 -0.024564 0.000000
0.006201 -0.024672 0.000000
0.006149 -0.024535 0.000000
0.006157 -0.024642 0.000000
0.006105 -0.024504 0.000000
0.006114 -0.024610 0.000000
0.006060 -0.024471 0.000000
0.006071 -0.024577 0.000000
0.006016 -0.024437 0.000000
0.006028 -0.024542 0.000000
0.005972 -0.024402 0.000000
0.005986 -0.024505 0.000000
0.007296 -0.017697 0.000000
0.007348 -0.017422 0.000000
0.007249 -0.017424 0.000000
0.007302 -0.017145 0.000000
0.007201 -0.017147 0.000000
0.007253 -0.016864 0.000000
0.007152 -0.016865 0.000000
0.007204 -0.016578 0.000000
0.007101 -0.016578 0.000000
0.007153 -0.016288 0.000000
0.007049 -0.016288 0.000000
0.007101 -0.015993 0.000000
0.006995 -0.015993 0.000000
0.007047 -0.015694 0.000000
0.006940 -0.015694 0.000000
0.006992 -0.015391 0.000000
0.006884 -0.015390 0.000000
0.006936 -0.015084 0.000000
0.006826 -0.015082 0.000000
0.006879 -0.014772 0.000000
0.006768 -0.014770 0.000000
0.006820 -0.014456 0.000000
0.006708 -0.014454 0.000000
0.006932 -0.014458 0.000000
0.006874 -0.014138 0.000000
0.006987 -0.014139 0.000000
0.006929 -0.013815 0.000000
0.007043 -0.013816 0.000000
0.006985 -0.013489 0.000000
0.007101 -0.013489 0.000000
0.007042 -0.013157 0.000000
0.007159 -0.013157 0.000000
0.007101 -0.012822 0.000000
0.007219 -0.012822 0.000000
0.006982 -0.012822 0.000000
0.007041 -0.012482 0.000000
0.006921 -0.012482 0.000000
0.006980 -0.012138 0.000000
0.006859 -0.012138 0.000000
0.006293 -0.024833 0.000000
0.005927 -0.024365 0.000000
0.006042 -0.024642 0.000000
0.006001 -0.024604 0.000000
0.006503 -0.024951 0.000000
0.006918 -0.011790 0.000000
0.006796 -0.011789 0.000000
0.011590 -0.008906 0.000000
0.006058 -0.024737 0.000000
0.006018 -0.024699 0.000000
0.006855 -0.011438 0.000000
0.006732 -0.011437 0.000000
0.010015 -0.015345 0.000000
0.006074 -0.024829 0.000000
0.006036 -0.024789 0.000000
0.006791 -0.011082 0.000000
0.006667 -0.011080 0.000000
0.006915 -0.011083 0.000000
0.006092 -0.024915 0.000000
0.006055 -0.024875 0.000000
0.005913 -0.024257 0.000000
0.005868 -0.024220 0.000000
0.005854 -0.024109 0.000000
0.005807 -0.024070 0.000000
0.005792 -0.023956 0.000000
0.005744 -0.023917 0.000000
0.005730 -0.023799 0.000000
0.005680 -0.023759 0.000000
0.005666 -0.023638 0.000000
0.005615 -0.023597 0.000000
0.005601 -0.023473 0.000000
0.006851 -0.010723 0.000000
0.006976 -0.010724 0.000000
0.005549 -0.023431 0.000000
0.005534 -0.023303 0.000000
0.006657 -0.014768 0.000000
0.006112 -0.024998 0.000000
0.006076 -0.024957 0.000000
0.005481 -0.023261 0.000000
0.005466 -0.023129 0.000000
0.005565 -0.023555 0.000000
0.006912 -0.010360 0.000000
0.007038 -0.010360 0.000000
0.006643 -0.023670 0.000000
0.006683 -0.023831 0.000000
0.006700 -0.023680 0.000000
0.006738 -0.023840 0.000000
0.006758 -0.023689 0.000000
0.006794 -0.023848 0.000000
0.006815 -0.023696 0.000000
0.006850 -0.023855 0.000000
0.006872 -0.023702 0.000000
0.006906 -0.023860 0.000000
0.006929 -0.023707 0.000000
0.006961 -0.023864 0.000000
0.006986 -0.023710 0.000000
0.007017 -0.023867 0.000000
0.007044 -0.023712 0.000000
0.007073 -0.023868 0.000000
0.007101 -0.023713 0.000000
0.007129 -0.023868 0.000000
0.007101 -0.024020 0.000000
0.007155 -0.024020 0.000000
0.007127 -0.024168 0.000000
0.007180 -0.024166 0.000000
0.007209 -0.024018 0.000000
0.007233 -0.024164 0.000000
0.007264 -0.024014 0.000000
0.007286 -0.024160 0.000000
0.007318 -0.024009 0.000000
0.007339 -0.024154 0.000000
0.007372 -0.024003 0.000000
0.007392 -0.024147 0.000000
0.007427 -0.023996 0.000000
0.007444 -0.024139 0.000000
0.007481 -0.023987 0.000000
0.007497 -0.024130 0.000000
0.007535 -0.023977 0.000000
0.007550 -0.024119 0.000000
0.007589 -0.023965 0.000000
0.007602 -0.024107 0.000000
0.007643 -0.023953 0.000000
0.007655 -0.024093 0.000000
0.007697 -0.023938 0.000000
0.007708 -0.024078 0.000000
0.007751 -0.023923 0.000000
0.007760 -0.024061 0.000000
0.007805 -0.023905 0.000000
0.007812 -0.024043 0.000000
0.007859 -0.023887 0.000000
0.007865 -0.024024 0.000000
0.007912 -0.023867 0.000000
0.007917 -0.024003 0.000000
0.007966 -0.023846 0.000000
0.007969 -0.023981 0.000000
0.008020 -0.023823 0.000000
0.008021 -0.023958 0.000000
0.008073 -0.023799 0.000000
0.008073 -0.023932 0.000000
0.008126 -0.023773 0.000000
0.008125 -0.023906 0.000000
0.008179 -0.023746 0.000000
0.008177 -0.023878 0.000000
0.008233 -0.023717 0.000000
0.007255 -0.024306 0.000000
0.008021 -0.024088 0.000000
0.007614 -0.024243 0.000000
0.008228 -0.023848 0.000000
0.008286 -0.023687 0.000000
0.008280 -0.023817 0.000000
0.008338 -0.023655 0.000000
0.008331 -0.023784 0.000000
0.008273 -0.023943 0.000000
0.008323 -0.023909 0.000000
0.008264 -0.024064 0.000000
0.008391 -0.023622 0.000000
0.008313 -0.024030 0.000000
0.008254 -0.024181 0.000000
0.008301 -0.024146 0.000000
0.008243 -0.024294 0.000000
0.008288 -0.024257 0.000000
0.008230 -0.024402 0.000000
0.008274 -0.024365 0.000000
0.008216 -0.024505 0.000000
0.008259 -0.024467 0.000000
0.008201 -0.024604 0.000000
0.008334 -0.024220 0.000000
0.008242 -0.024565 0.000000
0.008184 -0.024699 0.000000
0.008398 -0.023489 0.000000
0.008453 -0.023455 0.000000
0.008224 -0.024659 0.000000
0.008166 -0.024789 0.000000
0.008127 -0.024829 0.000000
0.008460 -0.023318 0.000000
0.008515 -0.023283 0.000000
0.007907 -0.023726 0.000000
0.008204 -0.024749 0.000000
0.008523 -0.023143 0.000000
0.008580 -0.023108 0.000000
0.008146 -0.024875 0.000000
0.008183 -0.024834 0.000000
0.007630 -0.023808 0.000000
0.008242 -0.024706 0.000000
0.008587 -0.022964 0.000000
0.008645 -0.022929 0.000000
0.008125 -0.024957 0.000000
0.008161 -0.024914 0.000000
0.008653 -0.022781 0.000000
0.008712 -0.022745 0.000000
0.005411 -0.023087 0.000000
0.005396 -0.022951 0.000000
0.008103 -0.025034 0.000000
0.008137 -0.024990 0.000000
0.006133 -0.025076 0.000000
0.006098 -0.025034 0.000000
0.008720 -0.022594 0.000000
0.008781 -0.022557 0.000000
0.006974 -0.009992 0.000000
0.007101 -0.009992 0.000000
0.005340 -0.022908 0.000000
0.005325 -0.022769 0.000000
0.008788 -0.022403 0.000000
0.008850 -0.022365 0.000000
0.008841 -0.022518 0.000000
0.008912 -0.022326 0.000000
0.008902 -0.022478 0.000000
0.008974 -0.022285 0.000000
0.008985 -0.022129 0.000000
0.009048 -0.022088 0.000000
0.009058 -0.021928 0.000000
0.008962 -0.022436 0.000000
0.009123 -0.021886 0.000000
0.009134 -0.021723 0.000000
0.008726 -0.022439 0.000000
0.006155 -0.025149 0.000000
0.006122 -0.025106 0.000000
0.008080 -0.025106 0.000000
0.008112 -0.025062 0.000000
0.005268 -0.022725 0.000000
0.005253 -0.022583 0.000000
0.009199 -0.021680 0.000000
0.009210 -0.021514 0.000000
0.007037 -0.009620 0.000000
0.007165 -0.009620 0.000000
0.007228 -0.019980 0.000000
0.009277 -0.021471 0.000000
0.009288 -0.021301 0.000000
0.005195 -0.022539 0.000000
0.005180 -0.022393 0.000000
0.006178 -0.025218 0.000000
0.006210 -0.025260 0.000000
0.006147 -0.025175 0.000000
0.006089 -0.025062 0.000000
0.006115 -0.025130 0.000000
0.006056 -0.025016 0.000000
0.006084 -0.025083 0.000000
0.008055 -0.025175 0.000000
0.008024 -0.025218 0.000000
0.008086 -0.025130 0.000000
0.006024 -0.024969 0.000000
0.005211 -0.022680 0.000000
0.005120 -0.022347 0.000000
0.005105 -0.022198 0.000000
0.009356 -0.021257 0.000000
0.009367 -0.021084 0.000000
0.006909 -0.009620 0.000000
0.006546 -0.024970 0.000000
0.006544 -0.025076 0.000000
0.006585 -0.025094 0.000000
0.006583 -0.025196 0.000000
0.006622 -0.025214 0.000000
0.006620 -0.025313 0.000000
0.006659 -0.025330 0.000000
0.006656 -0.025425 0.000000
0.006693 -0.025441 0.000000
0.006691 -0.025532 0.000000
0.006727 -0.025548 0.000000
0.006724 -0.025636 0.000000
0.006758 -0.025651 0.000000
0.006756 -0.025735 0.000000
0.006789 -0.025749 0.000000
0.009265 -0.021636 0.000000
0.007818 -0.024177 0.000000
0.009789 -0.015114 0.000000
0.006595 -0.014451 0.000000
0.006546 -0.014764 0.000000
0.006483 -0.014447 0.000000
0.006435 -0.014760 0.000000
0.006371 -0.014443 0.000000
0.006324 -0.014755 0.000000
0.006259 -0.014437 0.000000
0.006213 -0.014749 0.000000
0.006147 -0.014431 0.000000
0.006102 -0.014742 0.000000
0.006035 -0.014424 0.000000
0.005992 -0.014734 0.000000
0.005923 -0.014416 0.000000
0.005881 -0.014726 0.000000
0.005811 -0.014408 0.000000
0.005770 -0.014717 0.000000
0.005699 -0.014398 0.000000
0.005660 -0.014707 0.000000
0.005588 -0.014388 0.000000
0.005550 -0.014696 0.000000
0.005476 -0.014377 0.000000
0.005440 -0.014684 0.000000
0.005365 -0.014365 0.000000
0.005330 -0.014671 0.000000
0.005253 -0.014352 0.000000
0.005220 -0.014657 0.000000
0.005142 -0.014338 0.000000
0.005110 -0.014642 0.000000
0.005031 -0.014323 0.000000
0.005000 -0.014627 0.000000
0.004921 -0.014307 0.000000
0.004891 -0.014610 0.000000
0.004810 -0.014290 0.000000
0.005064 -0.014015 0.000000
0.004782 -0.014592 0.000000
0.004700 -0.014272 0.000000
0.004673 -0.014573 0.000000
0.004589 -0.014253 0.000000
0.004564 -0.014553 0.000000
0.004479 -0.014233 0.000000
0.004505 -0.013930 0.000000
0.004455 -0.014531 0.000000
0.004394 -0.013909 0.000000
0.004419 -0.013602 0.000000
0.004307 -0.013582 0.000000
0.004333 -0.013271 0.000000
0.004540 -0.014848 0.000000
0.004433 -0.014825 0.000000
0.004518 -0.015138 0.000000
0.004220 -0.013251 0.000000
0.004246 -0.012936 0.000000
0.004413 -0.015114 0.000000
0.004498 -0.015423 0.000000
0.004394 -0.015398 0.000000
0.004480 -0.015703 0.000000
0.004131 -0.012916 0.000000
0.004158 -0.012598 0.000000
0.004042 -0.012577 0.000000
0.004069 -0.012255 0.000000
0.004377 -0.015677 0.000000
0.004463 -0.015979 0.000000
0.003952 -0.012235 0.000000
0.003980 -0.011909 0.000000
0.004362 -0.015952 0.000000
0.004447 -0.016250 0.000000
0.004348 -0.016222 0.000000
0.003862 -0.011889 0.000000
0.003890 -0.011560 0.000000
0.004434 -0.016516 0.000000
0.004336 -0.016486 0.000000
0.003771 -0.011539 0.000000
0.003799 -0.011206 0.000000
0.003920 -0.011225 0.000000
0.003744 -0.011868 0.000000
0.003679 -0.011186 0.000000
0.003708 -0.010850 0.000000
0.004422 -0.016777 0.000000
0.004325 -0.016746 0.000000
0.003586 -0.010830 0.000000
0.004238 -0.016456 0.000000
0.003616 -0.010489 0.000000
0.003493 -0.010469 0.000000
0.004229 -0.016714 0.000000
0.004412 -0.017033 0.000000
0.004140 -0.016423 0.000000
0.003524 -0.010125 0.000000
0.003400 -0.010106 0.000000
0.004132 -0.016681 0.000000
0.003431 -0.009758 0.000000
0.003306 -0.009738 0.000000
0.003276 -0.010085 0.000000
0.004043 -0.016390 0.000000
0.004037 -0.016646 0.000000
0.003181 -0.009718 0.000000
0.004507 -0.017064 0.000000
0.004497 -0.017316 0.000000
0.003212 -0.009368 0.000000
0.003086 -0.009347 0.000000
0.003153 -0.010063 0.000000
0.003945 -0.016354 0.000000
0.004591 -0.017346 0.000000
0.004581 -0.017596 0.000000
0.003941 -0.016609 0.000000
0.003117 -0.008994 0.000000
0.002991 -0.008974 0.000000
0.005514 -0.014065 0.000000
0.005296 -0.014972 0.000000
0.007407 -0.023848 0.000000
0.011986 -0.007382 0.000000
0.010506 -0.012509 0.000000
0.010377 -0.014086 0.000000
0.003556 -0.009776 0.000000
0.006724 -0.025719 0.000000
0.008145 -0.025016 0.000000
0.008118 -0.025083 0.000000
0.008178 -0.024969 0.000000
0.007101 -0.009245 0.000000
0.007230 -0.009245 0.000000
0.006203 -0.025283 0.000000
0.008059 -0.025193 0.000000
0.008089 -0.025145 0.000000
0.004674 -0.017625 0.000000
0.004664 -0.017871 0.000000
0.005043 -0.022152 0.000000
0.005028 -0.022000 0.000000
0.010866 -0.012738 0.000000
0.009437 -0.021039 0.000000
0.009448 -0.020862 0.000000
0.005091 -0.022044 0.000000
0.005015 -0.021842 0.000000
0.004951 -0.021797 0.000000
0.004937 -0.021636 0.000000
0.005002 -0.021680 0.000000
0.006053 -0.025034 0.000000
0.003849 -0.016317 0.000000
0.006787 -0.025829 0.000000
0.006818 -0.025843 0.000000
0.009297 -0.021126 0.000000
0.003023 -0.008616 0.000000
0.002895 -0.008596 0.000000
0.003846 -0.016570 0.000000
0.007166 -0.008865 0.000000
0.007296 -0.008864 0.000000
0.007359 -0.009244 0.000000
0.007425 -0.008864 0.000000
0.007488 -0.009243 0.000000
0.007555 -0.008862 0.000000
0.007617 -0.009241 0.000000
0.007685 -0.008861 0.000000
0.007745 -0.009239 0.000000
0.007815 -0.008859 0.000000
0.007874 -0.009237 0.000000
0.007945 -0.008856 0.000000
0.008003 -0.009234 0.000000
0.008075 -0.008853 0.000000
0.008132 -0.009231 0.000000
0.008204 -0.008850 0.000000
0.008261 -0.009227 0.000000
0.008334 -0.008846 0.000000
0.008390 -0.009223 0.000000
0.008464 -0.008842 0.000000
0.008519 -0.009218 0.000000
0.008594 -0.008837 0.000000
0.008648 -0.009213 0.000000
0.008724 -0.008832 0.000000
0.008573 -0.009590 0.000000
0.008700 -0.009584 0.000000
0.008625 -0.009957 0.000000
0.008752 -0.009951 0.000000
0.008676 -0.010320 0.000000
0.005991 -0.024919 0.000000
0.009518 -0.020817 0.000000
0.009529 -0.020637 0.000000
0.004872 -0.021590 0.000000
0.004858 -0.021426 0.000000
0.007277 -0.013157 0.000000
0.008030 -0.025251 0.000000
0.008058 -0.025203 0.000000
0.006816 -0.025920 0.000000
0.006845 -0.025933 0.000000
0.006849 -0.025855 0.000000
0.006875 -0.025944 0.000000
0.004755 -0.017900 0.000000
0.003752 -0.016278 0.000000
0.004791 -0.021379 0.000000
0.004777 -0.021211 0.000000
0.009601 -0.020591 0.000000
0.009612 -0.020407 0.000000
0.006022 -0.024984 0.000000
0.006083 -0.025095 0.000000
0.004745 -0.018142 0.000000
0.006881 -0.025866 0.000000
0.006905 -0.025955 0.000000
0.008802 -0.010313 0.000000
0.008725 -0.010679 0.000000
0.008146 -0.008469 0.000000
0.008669 -0.008452 0.000000
0.008800 -0.008447 0.000000
0.007624 -0.008478 0.000000
0.002928 -0.008235 0.000000
0.002799 -0.008216 0.000000
0.002767 -0.008575 0.000000
0.006912 -0.025876 0.000000
0.006935 -0.025963 0.000000
0.004709 -0.021164 0.000000
0.004696 -0.020993 0.000000
0.003751 -0.016530 0.000000
0.002670 -0.008195 0.000000
0.006053 -0.025044 0.000000
0.006115 -0.025152 0.000000
0.005959 -0.024868 0.000000
0.009686 -0.020361 0.000000
0.009697 -0.020174 0.000000
0.009589 -0.020770 0.000000
0.006872 -0.026018 0.000000
0.006943 -0.025883 0.000000
0.006965 -0.025970 0.000000
0.008000 -0.025305 0.000000
0.008027 -0.025256 0.000000
0.006975 -0.025890 0.000000
0.006996 -0.025976 0.000000
0.006986 -0.026053 0.000000
0.007015 -0.026058 0.000000
0.007026 -0.025980 0.000000
0.007043 -0.026062 0.000000
0.007056 -0.025983 0.000000
0.007072 -0.026064 0.000000
0.007086 -0.025985 0.000000
0.007101 -0.026064 0.000000
0.007116 -0.025985 0.000000
0.007129 -0.026064 0.000000
0.007146 -0.025983 0.000000
0.007158 -0.026062 0.000000
0.007176 -0.025980 0.000000
0.007187 -0.026058 0.000000
0.007206 -0.025976 0.000000
0.007215 -0.026053 0.000000
0.007236 -0.025970 0.000000
0.007244 -0.026046 0.000000
0.007266 -0.025963 0.000000
0.007273 -0.026039 0.000000
0.007296 -0.025955 0.000000
0.007301 -0.026029 0.000000
0.007326 -0.025944 0.000000
0.007330 -0.026018 0.000000
0.007356 -0.025933 0.000000
0.007358 -0.026006 0.000000
0.007386 -0.025920 0.000000
0.007387 -0.025992 0.000000
0.007416 -0.025905 0.000000
0.007415 -0.025977 0.000000
0.004836 -0.018171 0.000000
0.004826 -0.018410 0.000000
0.005383 -0.022812 0.000000
0.007446 -0.025890 0.000000
0.007444 -0.025960 0.000000
0.006086 -0.025100 0.000000
0.006148 -0.025205 0.000000
0.004626 -0.020944 0.000000
0.004725 -0.021330 0.000000
0.003656 -0.016237 0.000000
0.008850 -0.010671 0.000000
0.008773 -0.011033 0.000000
0.008745 -0.008064 0.000000
0.008877 -0.008059 0.000000
0.002703 -0.007832 0.000000
0.009771 -0.020127 0.000000
0.009783 -0.019936 0.000000
0.002640 -0.008553 0.000000
0.011259 -0.011362 0.000000
0.002573 -0.007812 0.000000
0.003844 -0.016819 0.000000
0.003751 -0.016778 0.000000
0.005731 -0.015021 0.000000
0.007196 -0.026131 0.000000
0.007005 -0.026131 0.000000
0.007305 -0.026099 0.000000
0.007414 -0.026044 0.000000
0.007441 -0.026027 0.000000
0.007968 -0.025355 0.000000
0.007994 -0.025305 0.000000
0.008054 -0.025205 0.000000
0.008020 -0.025253 0.000000
0.008081 -0.025152 0.000000
0.006121 -0.025152 0.000000
0.006182 -0.025253 0.000000
0.009622 -0.020219 0.000000
0.009858 -0.019888 0.000000
0.009869 -0.019694 0.000000
0.004737 -0.018380 0.000000
0.004817 -0.018643 0.000000
0.003657 -0.015982 0.000000
0.003560 -0.015941 0.000000
0.004915 -0.018438 0.000000
0.005653 -0.023512 0.000000
0.006954 -0.023549 0.000000
0.007476 -0.025872 0.000000
0.004613 -0.020770 0.000000
0.004542 -0.020721 0.000000
0.003562 -0.015682 0.000000
0.007258 -0.016287 0.000000
0.006356 -0.019463 0.000000
0.006269 -0.019454 0.000000
0.008897 -0.011025 0.000000
0.008820 -0.011382 0.000000
0.008975 -0.010663 0.000000
0.012380 -0.005811 0.000000
0.008821 -0.007671 0.000000
0.008954 -0.007666 0.000000
0.002607 -0.007446 0.000000
0.002476 -0.007426 0.000000
0.009947 -0.019646 0.000000
0.009958 -0.019449 0.000000
0.003463 -0.015641 0.000000
0.003465 -0.015378 0.000000
0.008045 -0.025199 0.000000
0.006156 -0.025199 0.000000
0.006217 -0.025297 0.000000
0.007410 -0.026107 0.000000
0.007436 -0.026089 0.000000
0.007960 -0.025350 0.000000
0.010036 -0.019400 0.000000
0.010047 -0.019199 0.000000
0.009934 -0.019839 0.000000
0.006193 -0.025242 0.000000
0.008108 -0.025098 0.000000
0.003365 -0.015337 0.000000
0.003367 -0.015071 0.000000
0.006094 -0.025098 0.000000
0.006278 -0.015062 0.000000
0.009020 -0.011016 0.000000
0.009099 -0.010654 0.000000
0.009967 -0.019247 0.000000
0.010057 -0.018994 0.000000
0.010138 -0.018946 0.000000
0.010147 -0.018737 0.000000
0.004528 -0.020543 0.000000
0.004457 -0.020494 0.000000
0.008898 -0.007275 0.000000
0.009031 -0.007270 0.000000
0.002511 -0.007056 0.000000
0.002379 -0.007036 0.000000
0.006379 -0.021264 0.000000
0.004926 -0.018199 0.000000
0.005004 -0.018465 0.000000
0.011661 -0.009932 0.000000
0.006188 -0.024452 0.000000
0.006953 -0.025799 0.000000
0.005017 -0.018225 0.000000
0.010230 -0.018688 0.000000
0.010239 -0.018476 0.000000
0.008071 -0.025144 0.000000
0.003266 -0.015029 0.000000
0.003269 -0.014760 0.000000
0.003365 -0.015597 0.000000
0.006254 -0.025336 0.000000
0.006277 -0.025390 0.000000
0.006231 -0.025281 0.000000
0.007406 -0.026166 0.000000
0.007430 -0.026147 0.000000
0.005094 -0.018491 0.000000
0.005108 -0.018250 0.000000
0.008126 -0.023635 0.000000
0.006300 -0.019214 0.000000
0.009144 -0.011006 0.000000
0.009224 -0.010645 0.000000
0.004443 -0.020313 0.000000
0.004370 -0.020262 0.000000
0.004385 -0.020443 0.000000
0.008975 -0.006876 0.000000
0.009109 -0.006871 0.000000
0.002415 -0.006662 0.000000
0.002548 -0.006680 0.000000
0.002283 -0.006644 0.000000
0.002248 -0.007016 0.000000
0.003167 -0.014718 0.000000
0.003169 -0.014445 0.000000
0.004297 -0.020211 0.000000
0.008134 -0.025041 0.000000
0.002150 -0.006624 0.000000
0.010323 -0.018427 0.000000
0.010332 -0.018211 0.000000
0.004683 -0.020817 0.000000
0.007290 -0.025876 0.000000
0.009975 -0.019040 0.000000
0.005966 -0.014102 0.000000
0.006292 -0.025371 0.000000
0.006271 -0.025315 0.000000
0.007400 -0.026220 0.000000
0.007423 -0.026200 0.000000
0.007454 -0.026126 0.000000
0.007446 -0.026179 0.000000
0.007478 -0.026104 0.000000
0.007468 -0.026156 0.000000
0.007502 -0.026081 0.000000
0.007491 -0.026131 0.000000
0.002116 -0.006994 0.000000
0.004314 -0.020390 0.000000
0.008096 -0.025087 0.000000
0.004281 -0.020027 0.000000
0.007943 -0.025404 0.000000
0.007477 -0.025798 0.000000
0.007509 -0.025780 0.000000
0.003057 -0.008254 0.000000
0.007132 -0.025901 0.000000
0.008697 -0.011390 0.000000
0.008744 -0.011736 0.000000
0.009170 -0.017980 0.000000
0.006883 -0.024009 0.000000
0.009267 -0.010996 0.000000
0.009348 -0.010635 0.000000
0.010417 -0.018161 0.000000
0.010427 -0.017943 0.000000
0.004207 -0.019974 0.000000
0.003066 -0.014402 0.000000
0.003069 -0.014127 0.000000
0.006211 -0.019204 0.000000
0.006242 -0.018960 0.000000
0.007526 -0.026055 0.000000
0.007513 -0.026106 0.000000
0.010340 -0.017991 0.000000
0.010435 -0.017719 0.000000
0.010522 -0.017670 0.000000
0.010530 -0.017443 0.000000
0.009052 -0.006472 0.000000
0.009187 -0.006467 0.000000
0.008917 -0.006476 0.000000
0.002186 -0.006248 0.000000
0.002053 -0.006229 0.000000
0.009243 -0.006865 0.000000
0.009322 -0.006462 0.000000
0.009377 -0.006860 0.000000
0.009456 -0.006457 0.000000
0.009511 -0.006854 0.000000
0.009591 -0.006451 0.000000
0.009645 -0.006847 0.000000
0.009726 -0.006445 0.000000
0.009779 -0.006840 0.000000
0.009861 -0.006438 0.000000
0.009913 -0.006833 0.000000
0.009996 -0.006431 0.000000
0.010047 -0.006825 0.000000
0.010131 -0.006423 0.000000
0.010181 -0.006816 0.000000
0.010266 -0.006415 0.000000
0.010316 -0.006807 0.000000
0.010401 -0.006406 0.000000
0.010406 -0.018375 0.000000
0.010618 -0.017393 0.000000
0.010626 -0.017163 0.000000
0.002964 -0.014084 0.000000
0.002968 -0.013805 0.000000
0.008161 -0.024984 0.000000
0.006152 -0.018949 0.000000
0.005928 -0.024800 0.000000
0.005895 -0.024749 0.000000
0.004192 -0.019788 0.000000
0.004117 -0.019734 0.000000
0.004730 -0.018612 0.000000
0.004811 -0.018872 0.000000
0.008622 -0.011744 0.000000
0.008668 -0.012086 0.000000
0.006182 -0.018702 0.000000
0.010441 -0.017491 0.000000
0.006332 -0.025402 0.000000
0.006312 -0.025345 0.000000
0.006250 -0.025257 0.000000
0.007393 -0.026269 0.000000
0.007478 -0.026178 0.000000
0.007499 -0.026151 0.000000
0.006944 -0.016287 0.000000
0.004274 -0.012617 0.000000
0.008186 -0.024437 0.000000
0.006091 -0.018691 0.000000
0.006062 -0.018938 0.000000
0.005864 -0.024677 0.000000
0.005829 -0.024624 0.000000
0.007511 -0.025702 0.000000
0.007543 -0.025683 0.000000
0.009390 -0.010985 0.000000
0.010214 -0.006018 0.000000
0.002862 -0.013761 0.000000
0.002865 -0.013479 0.000000
0.008121 -0.025028 0.000000
0.008056 -0.025128 0.000000
0.006292 -0.025286 0.000000
0.010716 -0.017113 0.000000
0.010724 -0.016880 0.000000
0.012068 -0.008450 0.000000
0.002963 -0.014358 0.000000
0.009472 -0.010624 0.000000
0.007371 -0.026288 0.000000
0.006697 -0.025346 0.000000
0.009309 -0.011343 0.000000
0.007536 -0.026078 0.000000
0.007520 -0.026123 0.000000
0.008753 -0.017555 0.000000
0.008200 -0.024935 0.000000
0.008228 -0.024876 0.000000
0.008266 -0.024823 0.000000
0.004307 -0.015089 0.000000
0.005798 -0.024549 0.000000
0.005762 -0.024496 0.000000
0.005731 -0.024417 0.000000
0.005693 -0.024363 0.000000
0.005663 -0.024281 0.000000
0.005624 -0.024226 0.000000
0.005656 -0.024308 0.000000
0.005585 -0.024170 0.000000
0.005552 -0.024085 0.000000
0.005618 -0.024250 0.000000
0.005512 -0.024028 0.000000
0.005480 -0.023940 0.000000
0.005438 -0.023882 0.000000
0.005406 -0.023790 0.000000
0.010450 -0.006798 0.000000
0.010536 -0.006397 0.000000
0.010363 -0.007195 0.000000
0.009672 -0.006045 0.000000
0.009129 -0.006065 0.000000
0.002090 -0.005850 0.000000
0.001955 -0.005831 0.000000
0.004101 -0.019544 0.000000
0.004025 -0.019490 0.000000
0.003273 -0.014486 0.000000
0.007338 -0.012821 0.000000
0.007394 -0.013155 0.000000
0.006274 -0.018712 0.000000
0.006471 -0.022984 0.000000
0.007801 -0.018468 0.000000
0.007464 -0.026220 0.000000
0.008296 -0.024764 0.000000
0.008334 -0.024708 0.000000
0.005363 -0.023731 0.000000
0.005330 -0.023636 0.000000
0.006354 -0.025370 0.000000
0.006335 -0.025311 0.000000
0.007364 -0.026335 0.000000
0.007344 -0.026353 0.000000
0.010815 -0.016829 0.000000
0.010822 -0.016592 0.000000
0.006228 -0.025197 0.000000
0.002759 -0.013436 0.000000
0.002763 -0.013150 0.000000
0.008080 -0.025068 0.000000
0.008015 -0.025165 0.000000
0.004725 -0.018840 0.000000
0.004805 -0.019097 0.000000
0.006122 -0.018440 0.000000
0.006029 -0.018428 0.000000
0.009431 -0.011331 0.000000
0.009349 -0.011685 0.000000
0.004009 -0.019297 0.000000
0.003932 -0.019242 0.000000
0.004087 -0.019349 0.000000
0.007545 -0.025601 0.000000
0.007579 -0.025582 0.000000
0.007558 -0.026049 0.000000
0.007541 -0.026094 0.000000
0.002871 -0.013192 0.000000
0.002768 -0.012860 0.000000
0.002659 -0.012818 0.000000
0.002665 -0.012524 0.000000
0.010497 -0.007185 0.000000
0.010409 -0.007578 0.000000
0.004583 -0.015728 0.000000
0.001994 -0.005448 0.000000
0.001859 -0.005430 0.000000
0.003949 -0.019434 0.000000
0.003916 -0.019045 0.000000
0.005184 -0.018516 0.000000
0.005169 -0.018753 0.000000
0.010914 -0.016541 0.000000
0.010922 -0.016301 0.000000
0.010828 -0.016351 0.000000
0.010928 -0.016056 0.000000
0.010833 -0.016104 0.000000
0.010932 -0.015807 0.000000
0.011028 -0.015758 0.000000
0.011033 -0.015505 0.000000
0.002555 -0.012482 0.000000
0.002561 -0.012185 0.000000
0.010806 -0.017061 0.000000
0.008365 -0.024648 0.000000
0.008404 -0.024589 0.000000
0.011130 -0.015456 0.000000
0.011134 -0.015200 0.000000
0.008038 -0.025104 0.000000
0.007973 -0.025197 0.000000
0.003837 -0.018990 0.000000
0.005286 -0.023577 0.000000
0.005253 -0.023478 0.000000
0.004017 -0.012894 0.000000
0.003822 -0.018790 0.000000
0.005397 -0.023822 0.000000
0.005200 -0.018273 0.000000
0.007087 -0.026140 0.000000
0.007933 -0.009611 0.000000
0.007461 -0.024278 0.000000
0.007101 -0.017147 0.000000
0.006434 -0.024196 0.000000
0.008548 -0.012094 0.000000
0.008594 -0.012432 0.000000
0.006130 -0.024954 0.000000
0.008450 -0.018387 0.000000
0.001821 -0.005811 0.000000
0.001724 -0.005411 0.000000
0.009093 -0.018250 0.000000
0.009184 -0.018225 0.000000
0.009108 -0.018491 0.000000
0.009197 -0.018465 0.000000
0.009121 -0.018728 0.000000
0.009209 -0.018701 0.000000
0.009132 -0.018960 0.000000
0.009219 -0.018932 0.000000
0.009142 -0.019188 0.000000
0.009057 -0.019215 0.000000
0.009066 -0.019439 0.000000
0.008982 -0.019466 0.000000
0.008992 -0.019686 0.000000
0.008910 -0.019713 0.000000
0.008919 -0.019930 0.000000
0.008838 -0.019956 0.000000
0.008848 -0.020169 0.000000
0.008768 -0.020195 0.000000
0.008778 -0.020404 0.000000
0.008699 -0.020429 0.000000
0.008709 -0.020635 0.000000
0.008632 -0.020660 0.000000
0.008641 -0.020862 0.000000
0.008565 -0.020886 0.000000
0.008575 -0.021084 0.000000
0.008501 -0.021108 0.000000
0.008489 -0.020909 0.000000
0.008426 -0.021131 0.000000
0.008413 -0.020931 0.000000
0.008351 -0.021152 0.000000
0.008337 -0.020951 0.000000
0.008276 -0.021172 0.000000
0.008260 -0.020970 0.000000
0.008201 -0.021191 0.000000
0.008183 -0.020988 0.000000
0.008125 -0.021208 0.000000
0.008106 -0.021004 0.000000
0.008050 -0.021224 0.000000
0.008069 -0.021424 0.000000
0.007995 -0.021439 0.000000
0.008364 -0.021349 0.000000
0.008030 -0.021020 0.000000
0.008014 -0.021635 0.000000
0.007941 -0.021650 0.000000
0.007960 -0.021842 0.000000
0.007889 -0.021857 0.000000
0.006767 -0.020205 0.000000
0.005258 -0.018777 0.000000
0.005243 -0.019012 0.000000
0.006072 -0.022177 0.000000
0.006016 -0.021976 0.000000
0.006004 -0.022157 0.000000
0.005946 -0.021956 0.000000
0.005936 -0.022136 0.000000
0.005877 -0.021934 0.000000
0.005869 -0.022113 0.000000
0.005808 -0.021910 0.000000
0.005801 -0.022089 0.000000
0.005739 -0.021886 0.000000
0.005862 -0.022287 0.000000
0.005816 -0.021728 0.000000
0.005796 -0.022262 0.000000
0.005856 -0.022457 0.000000
0.008717 -0.020836 0.000000
0.005330 -0.019035 0.000000
0.005316 -0.019266 0.000000
0.012671 -0.004602 0.000000
0.007868 -0.021664 0.000000
0.007817 -0.021870 0.000000
0.007795 -0.021676 0.000000
0.007746 -0.021882 0.000000
0.006620 -0.025407 0.000000
0.007231 -0.008481 0.000000
0.007101 -0.008481 0.000000
0.007167 -0.008094 0.000000
0.007035 -0.008094 0.000000
0.007101 -0.007702 0.000000
0.006968 -0.007702 0.000000
0.007034 -0.007306 0.000000
0.006901 -0.007306 0.000000
0.006967 -0.006907 0.000000
0.006833 -0.006906 0.000000
0.006899 -0.006503 0.000000
0.006765 -0.006503 0.000000
0.006699 -0.006906 0.000000
0.006630 -0.006502 0.000000
0.006566 -0.006905 0.000000
0.006496 -0.006501 0.000000
0.006432 -0.006903 0.000000
0.006361 -0.006499 0.000000
0.006298 -0.006901 0.000000
0.006227 -0.006498 0.000000
0.006164 -0.006899 0.000000
0.006092 -0.006496 0.000000
0.006030 -0.006897 0.000000
0.005957 -0.006493 0.000000
0.005896 -0.006894 0.000000
0.005823 -0.006491 0.000000
0.005762 -0.006891 0.000000
0.005688 -0.006487 0.000000
0.005628 -0.006888 0.000000
0.005554 -0.006484 0.000000
0.005495 -0.006884 0.000000
0.005419 -0.006481 0.000000
0.005361 -0.006880 0.000000
0.005437 -0.007280 0.000000
0.005284 -0.006476 0.000000
0.005304 -0.007275 0.000000
0.005380 -0.007671 0.000000
0.007034 -0.006504 0.000000
0.005248 -0.007666 0.000000
0.005325 -0.008059 0.000000
0.005193 -0.008053 0.000000
0.005271 -0.008441 0.000000
0.005140 -0.008435 0.000000
0.005062 -0.008047 0.000000
0.005219 -0.008820 0.000000
0.005010 -0.008429 0.000000
0.004930 -0.008040 0.000000
0.004879 -0.008421 0.000000
0.004799 -0.008033 0.000000
0.006425 -0.006093 0.000000
0.005348 -0.008826 0.000000
0.005296 -0.009201 0.000000
0.006966 -0.006097 0.000000
0.007101 -0.006097 0.000000
0.005884 -0.006086 0.000000
0.005343 -0.006073 0.000000
0.005208 -0.006069 0.000000
0.004749 -0.008414 0.000000
0.004667 -0.008026 0.000000
0.005425 -0.009207 0.000000
0.005373 -0.009578 0.000000
0.007033 -0.005686 0.000000
0.007169 -0.005686 0.000000
0.005267 -0.005662 0.000000
0.005131 -0.005658 0.000000
0.006103 -0.007297 0.000000
0.007723 -0.021687 0.000000
0.007674 -0.021892 0.000000
0.006397 -0.025391 0.000000
0.006380 -0.025331 0.000000
0.007337 -0.026396 0.000000
0.007318 -0.026413 0.000000
0.003742 -0.018734 0.000000
0.003726 -0.018530 0.000000
0.005208 -0.023418 0.000000
0.005175 -0.023316 0.000000
0.007994 -0.025136 0.000000
0.007930 -0.025225 0.000000
0.011232 -0.015150 0.000000
0.011236 -0.014891 0.000000
0.004721 -0.019063 0.000000
0.004801 -0.019316 0.000000
0.007581 -0.026019 0.000000
0.007562 -0.026062 0.000000
0.007598 -0.025971 0.000000
0.007523 -0.026133 0.000000
0.007543 -0.026101 0.000000
0.007503 -0.026169 0.000000
0.007522 -0.026136 0.000000
0.005402 -0.019289 0.000000
0.009075 -0.019658 0.000000
0.005791 -0.022431 0.000000
0.005852 -0.022623 0.000000
0.004618 -0.008405 0.000000
0.004536 -0.008018 0.000000
0.004700 -0.008790 0.000000
0.006060 -0.018174 0.000000
0.005966 -0.018162 0.000000
0.002878 -0.012900 0.000000
0.005501 -0.009584 0.000000
0.005450 -0.009951 0.000000
0.010542 -0.007567 0.000000
0.010454 -0.007957 0.000000
0.009470 -0.011673 0.000000
0.009388 -0.012023 0.000000
0.010836 -0.015853 0.000000
0.012375 -0.007306 0.000000
0.001687 -0.005789 0.000000
0.008436 -0.024527 0.000000
0.008475 -0.024465 0.000000
0.002450 -0.012142 0.000000
0.002457 -0.011842 0.000000
0.003844 -0.017063 0.000000
0.007583 -0.026030 0.000000
0.007456 -0.012819 0.000000
0.007511 -0.013153 0.000000
0.006609 -0.011435 0.000000
0.011136 -0.014939 0.000000
0.011238 -0.014627 0.000000
0.011339 -0.014578 0.000000
0.011341 -0.014311 0.000000
0.007650 -0.021697 0.000000
0.007603 -0.021902 0.000000
0.007581 -0.025496 0.000000
0.007617 -0.025476 0.000000
0.007546 -0.025515 0.000000
0.007101 -0.005271 0.000000
0.007237 -0.005271 0.000000
0.005191 -0.005247 0.000000
0.005054 -0.005244 0.000000
0.001763 -0.005026 0.000000
0.001627 -0.005008 0.000000
0.005128 -0.023254 0.000000
0.005096 -0.023149 0.000000
0.011443 -0.014262 0.000000
0.011445 -0.013992 0.000000
0.008061 -0.025042 0.000000
0.008508 -0.024403 0.000000
0.008547 -0.024336 0.000000
0.008512 -0.024397 0.000000
0.008584 -0.024266 0.000000
0.008548 -0.024326 0.000000
0.008621 -0.024191 0.000000
0.008583 -0.024250 0.000000
0.008656 -0.024112 0.000000
0.008694 -0.024052 0.000000
0.008730 -0.023969 0.000000
0.008689 -0.024028 0.000000
0.008763 -0.023882 0.000000
0.008722 -0.023940 0.000000
0.008796 -0.023790 0.000000
0.008753 -0.023847 0.000000
0.008827 -0.023694 0.000000
0.008871 -0.023636 0.000000
0.008903 -0.023537 0.000000
0.008857 -0.023594 0.000000
0.008932 -0.023433 0.000000
0.008979 -0.023375 0.000000
0.009009 -0.023268 0.000000
0.009058 -0.023210 0.000000
0.009088 -0.023099 0.000000
0.008885 -0.023489 0.000000
0.009137 -0.023040 0.000000
0.009167 -0.022926 0.000000
0.009106 -0.023149 0.000000
0.009218 -0.022866 0.000000
0.009249 -0.022748 0.000000
0.009117 -0.022984 0.000000
0.009301 -0.022687 0.000000
0.009331 -0.022566 0.000000
0.002344 -0.011799 0.000000
0.002351 -0.011496 0.000000
0.009296 -0.018673 0.000000
0.009305 -0.018903 0.000000
0.009384 -0.018643 0.000000
0.008571 -0.023247 0.000000
0.008529 -0.022999 0.000000
0.006794 -0.019496 0.000000
0.007577 -0.021706 0.000000
0.007531 -0.021910 0.000000
0.007623 -0.021497 0.000000
0.002445 -0.012437 0.000000
0.003645 -0.018473 0.000000
0.003630 -0.018267 0.000000
0.007949 -0.025163 0.000000
0.007885 -0.025249 0.000000
0.007866 -0.025311 0.000000
0.007822 -0.025331 0.000000
0.007804 -0.025391 0.000000
0.007839 -0.025269 0.000000
0.006442 -0.025408 0.000000
0.006458 -0.025468 0.000000
0.006426 -0.025347 0.000000
0.006363 -0.025269 0.000000
0.007311 -0.026452 0.000000
0.007294 -0.026469 0.000000
0.007760 -0.025408 0.000000
0.007744 -0.025468 0.000000
0.007482 -0.026200 0.000000
0.007499 -0.026166 0.000000
0.007628 -0.022093 0.000000
0.005388 -0.019516 0.000000
0.005222 -0.023375 0.000000
0.004570 -0.008781 0.000000
0.004653 -0.009161 0.000000
0.007908 -0.022045 0.000000
0.005789 -0.022596 0.000000
0.005727 -0.022404 0.000000
0.005849 -0.022784 0.000000
0.010585 -0.007944 0.000000
0.010496 -0.008330 0.000000
0.010674 -0.007555 0.000000
0.007503 -0.021713 0.000000
0.007460 -0.021917 0.000000
0.002238 -0.011453 0.000000
0.002246 -0.011146 0.000000
0.008581 -0.024274 0.000000
0.004719 -0.019282 0.000000
0.004799 -0.019531 0.000000
0.007582 -0.025407 0.000000
0.007545 -0.025425 0.000000
0.002569 -0.011883 0.000000
0.005472 -0.019539 0.000000
0.005997 -0.017903 0.000000
0.005901 -0.017891 0.000000
0.006092 -0.017914 0.000000
0.006543 -0.011078 0.000000
0.006486 -0.011432 0.000000
0.008321 -0.020746 0.000000
0.009508 -0.012009 0.000000
0.009425 -0.012355 0.000000
0.009591 -0.011659 0.000000
0.008086 -0.020796 0.000000
0.003662 -0.018676 0.000000
0.008468 -0.024465 0.000000
0.005048 -0.023087 0.000000
0.005015 -0.022978 0.000000
0.003547 -0.018209 0.000000
0.003532 -0.017999 0.000000
0.005163 -0.023355 0.000000
0.006410 -0.025284 0.000000
0.011548 -0.013942 0.000000
0.011550 -0.013668 0.000000
0.009384 -0.022504 0.000000
0.009415 -0.022380 0.000000
0.009360 -0.022441 0.000000
0.009444 -0.022252 0.000000
0.009388 -0.022312 0.000000
0.009471 -0.022119 0.000000
0.009529 -0.022058 0.000000
0.009557 -0.021922 0.000000
0.009615 -0.021861 0.000000
0.009643 -0.021721 0.000000
0.005449 -0.023847 0.000000
0.005760 -0.024030 0.000000
0.007169 -0.004852 0.000000
0.007306 -0.004852 0.000000
0.007373 -0.005270 0.000000
0.007443 -0.004851 0.000000
0.007510 -0.005270 0.000000
0.007580 -0.004851 0.000000
0.007646 -0.005269 0.000000
0.007716 -0.004850 0.000000
0.007782 -0.005268 0.000000
0.007853 -0.004849 0.000000
0.005115 -0.004829 0.000000
0.004977 -0.004826 0.000000
0.001668 -0.004620 0.000000
0.001531 -0.004602 0.000000
0.004637 -0.019028 0.000000
0.008475 -0.012440 0.000000
0.008520 -0.012774 0.000000
0.009391 -0.018872 0.000000
0.009472 -0.018612 0.000000
0.011137 -0.014673 0.000000
0.010626 -0.008317 0.000000
0.010536 -0.008699 0.000000
0.007430 -0.021719 0.000000
0.007388 -0.021922 0.000000
0.007417 -0.022116 0.000000
0.007347 -0.022121 0.000000
0.007316 -0.021926 0.000000
0.007277 -0.022124 0.000000
0.007244 -0.021930 0.000000
0.007206 -0.022127 0.000000
0.007173 -0.021931 0.000000
0.007136 -0.022128 0.000000
0.007101 -0.021932 0.000000
0.007066 -0.022128 0.000000
0.007029 -0.021931 0.000000
0.006995 -0.022127 0.000000
0.008770 -0.023908 0.000000
0.007032 -0.004852 0.000000
0.007977 -0.022030 0.000000
0.007925 -0.022229 0.000000
0.007993 -0.022213 0.000000
0.004971 -0.014925 0.000000
0.009273 -0.016642 0.000000
0.006778 -0.023533 0.000000
0.008008 -0.020811 0.000000
0.005252 -0.004832 0.000000
0.007368 -0.019253 0.000000
0.003448 -0.017941 0.000000
0.003433 -0.017728 0.000000
0.006502 -0.025481 0.000000
0.006517 -0.025540 0.000000
0.007287 -0.026505 0.000000
0.007271 -0.026521 0.000000
0.007303 -0.026487 0.000000
0.007460 -0.026227 0.000000
0.007476 -0.026192 0.000000
0.007516 -0.026131 0.000000
0.007491 -0.026156 0.000000
0.007533 -0.026094 0.000000
0.007506 -0.026118 0.000000
0.007549 -0.026056 0.000000
0.007521 -0.026079 0.000000
0.007699 -0.025481 0.000000
0.007685 -0.025540 0.000000
0.009353 -0.022624 0.000000
0.008757 -0.019981 0.000000
0.002131 -0.011103 0.000000
0.002139 -0.010794 0.000000
0.002256 -0.010835 0.000000
0.002150 -0.010479 0.000000
0.002033 -0.010438 0.000000
0.002044 -0.010120 0.000000
0.012680 -0.006136 0.000000
0.011654 -0.013619 0.000000
0.011655 -0.013342 0.000000
0.009703 -0.021659 0.000000
0.009731 -0.021516 0.000000
0.004965 -0.022915 0.000000
0.004932 -0.022803 0.000000
0.004983 -0.022866 0.000000
0.004901 -0.022687 0.000000
0.004849 -0.022624 0.000000
0.004817 -0.022504 0.000000
0.004871 -0.022566 0.000000
0.004787 -0.022380 0.000000
0.004732 -0.022318 0.000000
0.004702 -0.022190 0.000000
0.006346 -0.025205 0.000000
0.011545 -0.014211 0.000000
0.003808 -0.018585 0.000000
0.007566 -0.026016 0.000000
0.007537 -0.026038 0.000000
0.007307 -0.022315 0.000000
0.008402 -0.012782 0.000000
0.008448 -0.013112 0.000000
0.008564 -0.013104 0.000000
0.008491 -0.013438 0.000000
0.008607 -0.013429 0.000000
0.008534 -0.013759 0.000000
0.008648 -0.013749 0.000000
0.008419 -0.013768 0.000000
0.008462 -0.014086 0.000000
0.008349 -0.014094 0.000000
0.008391 -0.014408 0.000000
0.008279 -0.014416 0.000000
0.008321 -0.014726 0.000000
0.008431 -0.014717 0.000000
0.008210 -0.014734 0.000000
0.008355 -0.012447 0.000000
0.008252 -0.015040 0.000000
0.008142 -0.015048 0.000000
0.005124 -0.018003 0.000000
0.005217 -0.018026 0.000000
0.010366 -0.008343 0.000000
0.009831 -0.007231 0.000000
0.004636 -0.019246 0.000000
0.004553 -0.018992 0.000000
0.007581 -0.025313 0.000000
0.007543 -0.025330 0.000000
0.005788 -0.022756 0.000000
0.005848 -0.022940 0.000000
0.005908 -0.022968 0.000000
0.004524 -0.009151 0.000000
0.004607 -0.009528 0.000000
0.005458 -0.019762 0.000000
0.006029 -0.017640 0.000000
0.006126 -0.017650 0.000000
0.008680 -0.023996 0.000000
0.004758 -0.022252 0.000000
0.004673 -0.022058 0.000000
0.004615 -0.021996 0.000000
0.004586 -0.021861 0.000000
0.009627 -0.011995 0.000000
0.009711 -0.011645 0.000000
0.007919 -0.005267 0.000000
0.007990 -0.004848 0.000000
0.006957 -0.021930 0.000000
0.006925 -0.022124 0.000000
0.009670 -0.021577 0.000000
0.009758 -0.021368 0.000000
0.009820 -0.021306 0.000000
0.009847 -0.021155 0.000000
0.011549 -0.013390 0.000000
0.011654 -0.013060 0.000000
0.011761 -0.013012 0.000000
0.011760 -0.012727 0.000000
0.007582 -0.025974 0.000000
0.007552 -0.025996 0.000000
0.011227 -0.015404 0.000000
0.007612 -0.025948 0.000000
0.007276 -0.026485 0.000000
0.007255 -0.026535 0.000000
0.007259 -0.026498 0.000000
0.007239 -0.026549 0.000000
0.007241 -0.026511 0.000000
0.007223 -0.026560 0.000000
0.007224 -0.026522 0.000000
0.007206 -0.026571 0.000000
0.007206 -0.026531 0.000000
0.007190 -0.026579 0.000000
0.007189 -0.026539 0.000000
0.007174 -0.026587 0.000000
0.007171 -0.026546 0.000000
0.007158 -0.026593 0.000000
0.009431 -0.007253 0.000000
0.005907 -0.023120 0.000000
0.005966 -0.023147 0.000000
0.002130 -0.005465 0.000000
0.007154 -0.026551 0.000000
0.007141 -0.026597 0.000000
0.005541 -0.019785 0.000000
0.004586 -0.007634 0.000000
0.004453 -0.007626 0.000000
0.004504 -0.007239 0.000000
0.004371 -0.007231 0.000000
0.004422 -0.006840 0.000000
0.004288 -0.006833 0.000000
0.004340 -0.006438 0.000000
0.004206 -0.006431 0.000000
0.004259 -0.006032 0.000000
0.004123 -0.006025 0.000000
0.004177 -0.005623 0.000000
0.004040 -0.005616 0.000000
0.004154 -0.006825 0.000000
0.004095 -0.005210 0.000000
0.003958 -0.005204 0.000000
0.003904 -0.005609 0.000000
0.003821 -0.005197 0.000000
0.003767 -0.005602 0.000000
0.003684 -0.005190 0.000000
0.004014 -0.004794 0.000000
0.003631 -0.005594 0.000000
0.003546 -0.005182 0.000000
0.003600 -0.004775 0.000000
0.003462 -0.004768 0.000000
0.003494 -0.005585 0.000000
0.003580 -0.005993 0.000000
0.007136 -0.026555 0.000000
0.007125 -0.026600 0.000000
0.007118 -0.026557 0.000000
0.007109 -0.026601 0.000000
0.007445 -0.026260 0.000000
0.005375 -0.019738 0.000000
0.007101 -0.015392 0.000000
0.005702 -0.024334 0.000000
0.005418 -0.019058 0.000000
0.009068 -0.021764 0.000000
0.007613 -0.025561 0.000000
0.007652 -0.025455 0.000000
0.007647 -0.025538 0.000000
0.007687 -0.025431 0.000000
0.007692 -0.025344 0.000000
0.007728 -0.025320 0.000000
0.007722 -0.025407 0.000000
0.007734 -0.025230 0.000000
0.007765 -0.025295 0.000000
0.007757 -0.025381 0.000000
0.007549 -0.009618 0.000000
0.006419 -0.011075 0.000000
0.006363 -0.011429 0.000000
0.007101 -0.026558 0.000000
0.007093 -0.026601 0.000000
0.005142 -0.017752 0.000000
0.005236 -0.017774 0.000000
0.007083 -0.026557 0.000000
0.007076 -0.026600 0.000000
0.007066 -0.026555 0.000000
0.007060 -0.026597 0.000000
0.007048 -0.026551 0.000000
0.007044 -0.026593 0.000000
0.007030 -0.026546 0.000000
0.007028 -0.026587 0.000000
0.007013 -0.026539 0.000000
0.007011 -0.026579 0.000000
0.006995 -0.026531 0.000000
0.006995 -0.026571 0.000000
0.006978 -0.026522 0.000000
0.006979 -0.026560 0.000000
0.006960 -0.026511 0.000000
0.006963 -0.026549 0.000000
0.006943 -0.026498 0.000000
0.006947 -0.026535 0.000000
0.006925 -0.026485 0.000000
0.006931 -0.026521 0.000000
0.006908 -0.026469 0.000000
0.006915 -0.026505 0.000000
0.006890 -0.026452 0.000000
0.006899 -0.026487 0.000000
0.006873 -0.026434 0.000000
0.006883 -0.026468 0.000000
0.006856 -0.026414 0.000000
0.006867 -0.026447 0.000000
0.006838 -0.026393 0.000000
0.006851 -0.026425 0.000000
0.006821 -0.026370 0.000000
0.006835 -0.026401 0.000000
0.006804 -0.026345 0.000000
0.006790 -0.026310 0.000000
0.006772 -0.026285 0.000000
0.006787 -0.026319 0.000000
0.006753 -0.026258 0.000000
0.006738 -0.026220 0.000000
0.006770 -0.026292 0.000000
0.006735 -0.026230 0.000000
0.006753 -0.026263 0.000000
0.006716 -0.026200 0.000000
0.006736 -0.026232 0.000000
0.006698 -0.026169 0.000000
0.006719 -0.026200 0.000000
0.006680 -0.026136 0.000000
0.006702 -0.026166 0.000000
0.006659 -0.026101 0.000000
0.006662 -0.026102 0.000000
0.006686 -0.026131 0.000000
0.006644 -0.026066 0.000000
0.006669 -0.026094 0.000000
0.006626 -0.026028 0.000000
0.006652 -0.026056 0.000000
0.006846 -0.026376 0.000000
0.006608 -0.025989 0.000000
0.006636 -0.026016 0.000000
0.006600 -0.025996 0.000000
0.006695 -0.026118 0.000000
0.006757 -0.026260 0.000000
0.005161 -0.017497 0.000000
0.005257 -0.017517 0.000000
0.006050 -0.024362 0.000000
0.003952 -0.016094 0.000000
0.012954 -0.003371 0.000000
0.008064 -0.020584 0.000000
0.007984 -0.020598 0.000000
0.006590 -0.025948 0.000000
0.006619 -0.025974 0.000000
0.009414 -0.022178 0.000000
0.007787 -0.004427 0.000000
0.007238 -0.004429 0.000000
0.005176 -0.004410 0.000000
0.005314 -0.004413 0.000000
0.003517 -0.004356 0.000000
0.003378 -0.004350 0.000000
0.001573 -0.004211 0.000000
0.001435 -0.004195 0.000000
0.001394 -0.004583 0.000000
0.001712 -0.004227 0.000000
0.001926 -0.010079 0.000000
0.001938 -0.009758 0.000000
0.003348 -0.017669 0.000000
0.003333 -0.017453 0.000000
0.002124 -0.011408 0.000000
0.011868 -0.012678 0.000000
0.011867 -0.012390 0.000000
0.009911 -0.021093 0.000000
0.009937 -0.020939 0.000000
0.009438 -0.022441 0.000000
0.001298 -0.004176 0.000000
0.006982 -0.026594 0.000000
0.007145 -0.026635 0.000000
0.007465 -0.026177 0.000000
0.007506 -0.026057 0.000000
0.007520 -0.026013 0.000000
0.007567 -0.025952 0.000000
0.007533 -0.025968 0.000000
0.007582 -0.025906 0.000000
0.007547 -0.025922 0.000000
0.006395 -0.025219 0.000000
0.006459 -0.025295 0.000000
0.004527 -0.021797 0.000000
0.004498 -0.021659 0.000000
0.007941 -0.022409 0.000000
0.008008 -0.022392 0.000000
0.002268 -0.010518 0.000000
0.007579 -0.025214 0.000000
0.007540 -0.025231 0.000000
0.010665 -0.008684 0.000000
0.010575 -0.009063 0.000000
0.005445 -0.019981 0.000000
0.005363 -0.019956 0.000000
0.004553 -0.019208 0.000000
0.004469 -0.018954 0.000000
0.006063 -0.017372 0.000000
0.006161 -0.017382 0.000000
0.009477 -0.018840 0.000000
0.009559 -0.018579 0.000000
0.008184 -0.015350 0.000000
0.008076 -0.015358 0.000000
0.008033 -0.015056 0.000000
0.007801 -0.025268 0.000000
0.007792 -0.025353 0.000000
0.004730 -0.022119 0.000000
0.009746 -0.011980 0.000000
0.009832 -0.011630 0.000000
0.011547 -0.013106 0.000000
0.006561 -0.025550 0.000000
0.006575 -0.025608 0.000000
0.006865 -0.026453 0.000000
0.006923 -0.026536 0.000000
0.007026 -0.026623 0.000000
0.007086 -0.026641 0.000000
0.007190 -0.026615 0.000000
0.007249 -0.026568 0.000000
0.007423 -0.026283 0.000000
0.007408 -0.026315 0.000000
0.007640 -0.025550 0.000000
0.007653 -0.025490 0.000000
0.006445 -0.025229 0.000000
0.006509 -0.025301 0.000000
0.007402 -0.017143 0.000000
0.006313 -0.021857 0.000000
0.006381 -0.023294 0.000000
0.008550 -0.010326 0.000000
0.007193 -0.018754 0.000000
0.006242 -0.020380 0.000000
0.006721 -0.023987 0.000000
0.009405 -0.022559 0.000000
0.001818 -0.009716 0.000000
0.001831 -0.009392 0.000000
0.001257 -0.004563 0.000000
0.004438 -0.021594 0.000000
0.004409 -0.021453 0.000000
0.011976 -0.012341 0.000000
0.011974 -0.012050 0.000000
0.005788 -0.022912 0.000000
0.004480 -0.009517 0.000000
0.004563 -0.009890 0.000000
0.004396 -0.009141 0.000000
0.009430 -0.010269 0.000000
0.009555 -0.010259 0.000000
0.008235 -0.014102 0.000000
0.006306 -0.014121 0.000000
0.007968 -0.015365 0.000000
0.001952 -0.009431 0.000000
0.001846 -0.009063 0.000000
0.001724 -0.009024 0.000000
0.001740 -0.008691 0.000000
0.004470 -0.021516 0.000000
0.004381 -0.021306 0.000000
0.004319 -0.021242 0.000000
0.004291 -0.021093 0.000000
0.008055 -0.005265 0.000000
0.008127 -0.004846 0.000000
0.006885 -0.021926 0.000000
0.006855 -0.022121 0.000000
0.009695 -0.021428 0.000000
0.011863 -0.012097 0.000000
0.011970 -0.011754 0.000000
0.012082 -0.011707 0.000000
0.012077 -0.011408 0.000000
0.005239 -0.003987 0.000000
0.005377 -0.003990 0.000000
0.001480 -0.003800 0.000000
0.006329 -0.025139 0.000000
0.003246 -0.017393 0.000000
0.003231 -0.017174 0.000000
0.003319 -0.017232 0.000000
0.003218 -0.016950 0.000000
0.003129 -0.016891 0.000000
0.003115 -0.016664 0.000000
0.003364 -0.017881 0.000000
0.010003 -0.020875 0.000000
0.010029 -0.020718 0.000000
0.009963 -0.020780 0.000000
0.010054 -0.020556 0.000000
0.010122 -0.020492 0.000000
0.010148 -0.020327 0.000000
0.003444 -0.005983 0.000000
0.003531 -0.006387 0.000000
0.005434 -0.020195 0.000000
0.005354 -0.020169 0.000000
0.007574 -0.012817 0.000000
0.007923 -0.015062 0.000000
0.005997 -0.024749 0.000000
0.006902 -0.026429 0.000000
0.007101 -0.022321 0.000000
0.005964 -0.023296 0.000000
0.006022 -0.023322 0.000000
0.004127 -0.016934 0.000000
0.006098 -0.017100 0.000000
0.005998 -0.017090 0.000000
0.006198 -0.017109 0.000000
0.006260 -0.017391 0.000000
0.006298 -0.017117 0.000000
0.006359 -0.017398 0.000000
0.005872 -0.018149 0.000000
0.006295 -0.011072 0.000000
0.006240 -0.011425 0.000000
0.006351 -0.010714 0.000000
0.007519 -0.012479 0.000000
0.005182 -0.017236 0.000000
0.005279 -0.017256 0.000000
0.006572 -0.025905 0.000000
0.006603 -0.025931 0.000000
0.006650 -0.025996 0.000000
0.006635 -0.025952 0.000000
0.006682 -0.026013 0.000000
0.006668 -0.025968 0.000000
0.006543 -0.025876 0.000000
0.006620 -0.025906 0.000000
0.008041 -0.020367 0.000000
0.007960 -0.020380 0.000000
0.007211 -0.021730 0.000000
0.003435 -0.003935 0.000000
0.003295 -0.003928 0.000000
0.003240 -0.004343 0.000000
0.003156 -0.003922 0.000000
0.003101 -0.004335 0.000000
0.003016 -0.003915 0.000000
0.002962 -0.004327 0.000000
0.002877 -0.003908 0.000000
0.001808 -0.010035 0.000000
0.001617 -0.008653 0.000000
0.001633 -0.008317 0.000000
0.007597 -0.025859 0.000000
0.007560 -0.025874 0.000000
0.007639 -0.012476 0.000000
0.006502 -0.007303 0.000000
0.007449 -0.013486 0.000000
0.004152 -0.004799 0.000000
0.004072 -0.004379 0.000000
0.004210 -0.004384 0.000000
0.004131 -0.003960 0.000000
0.004269 -0.003964 0.000000
0.007728 -0.025526 0.000000
0.005323 -0.009944 0.000000
0.005400 -0.010313 0.000000
0.005274 -0.010306 0.000000
0.005352 -0.010671 0.000000
0.005227 -0.010663 0.000000
0.005305 -0.011025 0.000000
0.005181 -0.011016 0.000000
0.005259 -0.011374 0.000000
0.005137 -0.011364 0.000000
0.005382 -0.011382 0.000000
0.006655 -0.025922 0.000000
0.012190 -0.011360 0.000000
0.012185 -0.011058 0.000000
0.004227 -0.021028 0.000000
0.004199 -0.020875 0.000000
0.009491 -0.022375 0.000000
0.009975 -0.021028 0.000000
0.006715 -0.026026 0.000000
0.007474 -0.026071 0.000000
0.007511 -0.025933 0.000000
0.007523 -0.025884 0.000000
0.007594 -0.025556 0.000000
0.007606 -0.025495 0.000000
0.001160 -0.004157 0.000000
0.004469 -0.021732 0.000000
0.012981 -0.004943 0.000000
0.010217 -0.020263 0.000000
0.010242 -0.020095 0.000000
0.011976 -0.012627 0.000000
0.003026 -0.016604 0.000000
0.003012 -0.016374 0.000000
0.006496 -0.025235 0.000000
0.006560 -0.025303 0.000000
0.006619 -0.025614 0.000000
0.006631 -0.025672 0.000000
0.007386 -0.026335 0.000000
0.007374 -0.026366 0.000000
0.007956 -0.022584 0.000000
0.008021 -0.022566 0.000000
0.007890 -0.022600 0.000000
0.003206 -0.016721 0.000000
0.007576 -0.025111 0.000000
0.007535 -0.025127 0.000000
0.007500 -0.025246 0.000000
0.007493 -0.025141 0.000000
0.007460 -0.025259 0.000000
0.007452 -0.025154 0.000000
0.007420 -0.025271 0.000000
0.007411 -0.025165 0.000000
0.007380 -0.025282 0.000000
0.007370 -0.025175 0.000000
0.007340 -0.025291 0.000000
0.007328 -0.025184 0.000000
0.007301 -0.025299 0.000000
0.007287 -0.025191 0.000000
0.007261 -0.025305 0.000000
0.007246 -0.025196 0.000000
0.007221 -0.025310 0.000000
0.007204 -0.025200 0.000000
0.007181 -0.025313 0.000000
0.007163 -0.025203 0.000000
0.007141 -0.025316 0.000000
0.007121 -0.025205 0.000000
0.004352 -0.009506 0.000000
0.004267 -0.009130 0.000000
0.009512 -0.009900 0.000000
0.005424 -0.020404 0.000000
0.005345 -0.020377 0.000000
0.005503 -0.020429 0.000000
0.004471 -0.019169 0.000000
0.004386 -0.018914 0.000000
0.004556 -0.019419 0.000000
0.005215 -0.011718 0.000000
0.005094 -0.011708 0.000000
0.010702 -0.009047 0.000000
0.010611 -0.009422 0.000000
0.010794 -0.008669 0.000000
0.010484 -0.009438 0.000000
0.010520 -0.009793 0.000000
0.006431 -0.011782 0.000000
0.003752 -0.017020 0.000000
0.003846 -0.017302 0.000000
0.007748 -0.025462 0.000000
0.007781 -0.025433 0.000000
0.005554 -0.009213 0.000000
0.006977 -0.026479 0.000000
0.009563 -0.018806 0.000000
0.009646 -0.018545 0.000000
0.009481 -0.019063 0.000000
0.009642 -0.018315 0.000000
0.009730 -0.018280 0.000000
0.009726 -0.018047 0.000000
0.009816 -0.018012 0.000000
0.009812 -0.017774 0.000000
0.009902 -0.017739 0.000000
0.009898 -0.017498 0.000000
0.009990 -0.017462 0.000000
0.009986 -0.017218 0.000000
0.010079 -0.017182 0.000000
0.010075 -0.016934 0.000000
0.007847 -0.005682 0.000000
0.008117 -0.015656 0.000000
0.008224 -0.015648 0.000000
0.007838 -0.025240 0.000000
0.007847 -0.025151 0.000000
0.009865 -0.011964 0.000000
0.009779 -0.012310 0.000000
0.004444 -0.021368 0.000000
0.001968 -0.009100 0.000000
0.007101 -0.025316 0.000000
0.007080 -0.025205 0.000000
0.009986 -0.020617 0.000000
0.006918 -0.021728 0.000000
0.006844 -0.021724 0.000000
0.011964 -0.011453 0.000000
0.003213 -0.003504 0.000000
0.002921 -0.016313 0.000000
0.002908 -0.016080 0.000000
0.006894 -0.022315 0.000000
0.006825 -0.022311 0.000000
0.007101 -0.025089 0.000000
0.007058 -0.025089 0.000000
0.007039 -0.025203 0.000000
0.007015 -0.025086 0.000000
0.006997 -0.025200 0.000000
0.006972 -0.025083 0.000000
0.006956 -0.025196 0.000000
0.006929 -0.025078 0.000000
0.006990 -0.024965 0.000000
0.006915 -0.025191 0.000000
0.006887 -0.025072 0.000000
0.009638 -0.009890 0.000000
0.007617 -0.025094 0.000000
0.007631 -0.025839 0.000000
0.004383 -0.018695 0.000000
0.006021 -0.023468 0.000000
0.005965 -0.023441 0.000000
0.005861 -0.024695 0.000000
0.006167 -0.024744 0.000000
0.006175 -0.025256 0.000000
0.007628 -0.013151 0.000000
0.008722 -0.013419 0.000000
0.008762 -0.013739 0.000000
0.006457 -0.020631 0.000000
0.008931 -0.008441 0.000000
0.008889 -0.022626 0.000000
0.008948 -0.022583 0.000000
0.008876 -0.022769 0.000000
0.008933 -0.022725 0.000000
0.008861 -0.022908 0.000000
0.008917 -0.022863 0.000000
0.008845 -0.023043 0.000000
0.008991 -0.022680 0.000000
0.008900 -0.022997 0.000000
0.008828 -0.023172 0.000000
0.006077 -0.023493 0.000000
0.006327 -0.024528 0.000000
0.007860 -0.015372 0.000000
0.008689 -0.007676 0.000000
0.006226 -0.010711 0.000000
0.006281 -0.010349 0.000000
0.007584 -0.012134 0.000000
0.007704 -0.012131 0.000000
0.008512 -0.024384 0.000000
0.006399 -0.017124 0.000000
0.006458 -0.017405 0.000000
0.002823 -0.004319 0.000000
0.002737 -0.003900 0.000000
0.002792 -0.003485 0.000000
0.002652 -0.003478 0.000000
0.005204 -0.016972 0.000000
0.005303 -0.016990 0.000000
0.006605 -0.025859 0.000000
0.002909 -0.004734 0.000000
0.008016 -0.020145 0.000000
0.008099 -0.020132 0.000000
0.007933 -0.020157 0.000000
0.006523 -0.025833 0.000000
0.006494 -0.025799 0.000000
0.008191 -0.005263 0.000000
0.008264 -0.004844 0.000000
0.008200 -0.004423 0.000000
0.008337 -0.004422 0.000000
0.008272 -0.003997 0.000000
0.008410 -0.003995 0.000000
0.010737 -0.016151 0.000000
0.010739 -0.015898 0.000000
0.008345 -0.003567 0.000000
0.008483 -0.003566 0.000000
0.008548 -0.003994 0.000000
0.008621 -0.003564 0.000000
0.005303 -0.003560 0.000000
0.005442 -0.003562 0.000000
0.005164 -0.003558 0.000000
0.004191 -0.003537 0.000000
0.004331 -0.003541 0.000000
0.010312 -0.020030 0.000000
0.010338 -0.019858 0.000000
0.010266 -0.019922 0.000000
0.010361 -0.019682 0.000000
0.010434 -0.019617 0.000000
0.010458 -0.019438 0.000000
0.010384 -0.019501 0.000000
0.010481 -0.019254 0.000000
0.010556 -0.019190 0.000000
0.010579 -0.019003 0.000000
0.009457 -0.022493 0.000000
0.006549 -0.025236 0.000000
0.001510 -0.008278 0.000000
0.001527 -0.007940 0.000000
0.012299 -0.011010 0.000000
0.012293 -0.010705 0.000000
0.001122 -0.004540 0.000000
0.004134 -0.020809 0.000000
0.004106 -0.020653 0.000000
0.007905 -0.022772 0.000000
0.007841 -0.022787 0.000000
0.009952 -0.011614 0.000000
0.007315 -0.025072 0.000000
0.010830 -0.009030 0.000000
0.010922 -0.008652 0.000000
0.007613 -0.024988 0.000000
0.007656 -0.024970 0.000000
0.003396 -0.006377 0.000000
0.003484 -0.006777 0.000000
0.006034 -0.016814 0.000000
0.005933 -0.016803 0.000000
0.004475 -0.019379 0.000000
0.004559 -0.019626 0.000000
0.005416 -0.020608 0.000000
0.005339 -0.020581 0.000000
0.005331 -0.017794 0.000000
0.007205 -0.026488 0.000000
0.004225 -0.009494 0.000000
0.004139 -0.009118 0.000000
0.007814 -0.015068 0.000000
0.005173 -0.012058 0.000000
0.005053 -0.012047 0.000000
0.009565 -0.019028 0.000000
0.009483 -0.019282 0.000000
0.005085 -0.017216 0.000000
0.007129 -0.026508 0.000000
0.003756 -0.017258 0.000000
0.003850 -0.017537 0.000000
0.005526 -0.010320 0.000000
0.008158 -0.015950 0.000000
0.008263 -0.015941 0.000000
0.007885 -0.025122 0.000000
0.007894 -0.025030 0.000000
0.009897 -0.012293 0.000000
0.009811 -0.012635 0.000000
0.009905 -0.017975 0.000000
0.008686 -0.003992 0.000000
0.008760 -0.003562 0.000000
0.010405 -0.019316 0.000000
0.006613 -0.025301 0.000000
0.006603 -0.025233 0.000000
0.006675 -0.025675 0.000000
0.006686 -0.025731 0.000000
0.007352 -0.026382 0.000000
0.007340 -0.026413 0.000000
0.007473 -0.025940 0.000000
0.007484 -0.025891 0.000000
0.007547 -0.025557 0.000000
0.007558 -0.025495 0.000000
0.001024 -0.004135 0.000000
0.001064 -0.003748 0.000000
0.006483 -0.025167 0.000000
0.009544 -0.022307 0.000000
0.010394 -0.009810 0.000000
0.010429 -0.010161 0.000000
0.003661 -0.016975 0.000000
0.004973 -0.011697 0.000000
0.004933 -0.012035 0.000000
0.004852 -0.011685 0.000000
0.007648 -0.025791 0.000000
0.008774 -0.023218 0.000000
0.008757 -0.023344 0.000000
0.008705 -0.023389 0.000000
0.008688 -0.023511 0.000000
0.009918 -0.011276 0.000000
0.008074 -0.022374 0.000000
0.008086 -0.022547 0.000000
0.005409 -0.020809 0.000000
0.005333 -0.020780 0.000000
0.008141 -0.022354 0.000000
0.008151 -0.022527 0.000000
0.008207 -0.022333 0.000000
0.008216 -0.022505 0.000000
0.008274 -0.022311 0.000000
0.008281 -0.022482 0.000000
0.008340 -0.022287 0.000000
0.008346 -0.022457 0.000000
0.008406 -0.022262 0.000000
0.008160 -0.022695 0.000000
0.009566 -0.019246 0.000000
0.009484 -0.019496 0.000000
0.007878 -0.020391 0.000000
0.007850 -0.020168 0.000000
0.007906 -0.019931 0.000000
0.007821 -0.019941 0.000000
0.007767 -0.020178 0.000000
0.005515 -0.003992 0.000000
0.005580 -0.003564 0.000000
0.005654 -0.003994 0.000000
0.005719 -0.003566 0.000000
0.005792 -0.003995 0.000000
0.005857 -0.003567 0.000000
0.005930 -0.003997 0.000000
0.005995 -0.003568 0.000000
0.006623 -0.025368 0.000000
0.005403 -0.021004 0.000000
0.005329 -0.020974 0.000000
0.005400 -0.021195 0.000000
0.005327 -0.021164 0.000000
0.005256 -0.020943 0.000000
0.005255 -0.021132 0.000000
0.005182 -0.020910 0.000000
0.005326 -0.021349 0.000000
0.005183 -0.021098 0.000000
0.005109 -0.020876 0.000000
0.006067 -0.003998 0.000000
0.006134 -0.003570 0.000000
0.007537 -0.025617 0.000000
0.007361 -0.026396 0.000000
0.007329 -0.026442 0.000000
0.007348 -0.026424 0.000000
0.007317 -0.026470 0.000000
0.008824 -0.003990 0.000000
0.008899 -0.003560 0.000000
0.008962 -0.003987 0.000000
0.009037 -0.003558 0.000000
0.009101 -0.003985 0.000000
0.009176 -0.003556 0.000000
0.009239 -0.003982 0.000000
0.009315 -0.003553 0.000000
0.004052 -0.003533 0.000000
0.006205 -0.004000 0.000000
0.006272 -0.003571 0.000000
0.009377 -0.003979 0.000000
0.009454 -0.003550 0.000000
0.009516 -0.003976 0.000000
0.009593 -0.003547 0.000000
0.009655 -0.003972 0.000000
0.009732 -0.003544 0.000000
0.009793 -0.003968 0.000000
0.009871 -0.003541 0.000000
0.009932 -0.003964 0.000000
0.010010 -0.003537 0.000000
0.010071 -0.003960 0.000000
0.010150 -0.003533 0.000000
0.010210 -0.003956 0.000000
0.010289 -0.003529 0.000000
0.010349 -0.003951 0.000000
0.010429 -0.003525 0.000000
0.010488 -0.003946 0.000000
0.010569 -0.003520 0.000000
0.010627 -0.003940 0.000000
0.010709 -0.003515 0.000000
0.010767 -0.003935 0.000000
0.010849 -0.003510 0.000000
0.010906 -0.003928 0.000000
0.010989 -0.003504 0.000000
0.011046 -0.003922 0.000000
0.011129 -0.003498 0.000000
0.011185 -0.003915 0.000000
0.011269 -0.003492 0.000000
0.011325 -0.003908 0.000000
0.011240 -0.004327 0.000000
0.011379 -0.004319 0.000000
0.011465 -0.003900 0.000000
0.011292 -0.004734 0.000000
0.011430 -0.004725 0.000000
0.011342 -0.005137 0.000000
0.011480 -0.005126 0.000000
0.011390 -0.005534 0.000000
0.011527 -0.005522 0.000000
0.011617 -0.005114 0.000000
0.011436 -0.005927 0.000000
0.011663 -0.005509 0.000000
0.011754 -0.005102 0.000000
0.001495 -0.008611 0.000000
0.012302 -0.011310 0.000000
0.010656 -0.018938 0.000000
0.010678 -0.018748 0.000000
0.004039 -0.020587 0.000000
0.004012 -0.020427 0.000000
0.004163 -0.020961 0.000000
0.012408 -0.010656 0.000000
0.012402 -0.010348 0.000000
0.012286 -0.010394 0.000000
0.012394 -0.010035 0.000000
0.012276 -0.010079 0.000000
0.012383 -0.009716 0.000000
0.012502 -0.009673 0.000000
0.012491 -0.009351 0.000000
0.012611 -0.009307 0.000000
0.012599 -0.008983 0.000000
0.001403 -0.007901 0.000000
0.001421 -0.007559 0.000000
0.002936 -0.016542 0.000000
0.002816 -0.016019 0.000000
0.002803 -0.015782 0.000000
0.002896 -0.015842 0.000000
0.002791 -0.015541 0.000000
0.002886 -0.015599 0.000000
0.002781 -0.015295 0.000000
0.002685 -0.015237 0.000000
0.002675 -0.014987 0.000000
0.002578 -0.014928 0.000000
0.002568 -0.014676 0.000000
0.010286 -0.020197 0.000000
0.006865 -0.022501 0.000000
0.006797 -0.022496 0.000000
0.006757 -0.022305 0.000000
0.011254 -0.005546 0.000000
0.008410 -0.022431 0.000000
0.008472 -0.022236 0.000000
0.005111 -0.021063 0.000000
0.005035 -0.020840 0.000000
0.007486 -0.025032 0.000000
0.009594 -0.009528 0.000000
0.006343 -0.004001 0.000000
0.006410 -0.003571 0.000000
0.004813 -0.012023 0.000000
0.004731 -0.011673 0.000000
0.007262 -0.026457 0.000000
0.006075 -0.023635 0.000000
0.006080 -0.023347 0.000000
0.007053 -0.026505 0.000000
0.009268 -0.012035 0.000000
0.006133 -0.023517 0.000000
0.007737 -0.025539 0.000000
0.007769 -0.025509 0.000000
0.007538 -0.026001 0.000000
0.007101 -0.010724 0.000000
0.007649 -0.011785 0.000000
0.007771 -0.011782 0.000000
0.002771 -0.004725 0.000000
0.002859 -0.005137 0.000000
0.007335 -0.026451 0.000000
0.007305 -0.026496 0.000000
0.005228 -0.016702 0.000000
0.005328 -0.016720 0.000000
0.006873 -0.025184 0.000000
0.006844 -0.025064 0.000000
0.006857 -0.024949 0.000000
0.008350 -0.022623 0.000000
0.008881 -0.023125 0.000000
0.004079 -0.020492 0.000000
0.003985 -0.020263 0.000000
0.003916 -0.020197 0.000000
0.003889 -0.020030 0.000000
0.010554 -0.010144 0.000000
0.010462 -0.010508 0.000000
0.006473 -0.025755 0.000000
0.001547 -0.007595 0.000000
0.001442 -0.007212 0.000000
0.001315 -0.007177 0.000000
0.011070 -0.003077 0.000000
0.010649 -0.003091 0.000000
0.010228 -0.003103 0.000000
0.009669 -0.003115 0.000000
0.006877 -0.021522 0.000000
0.006802 -0.021517 0.000000
0.009112 -0.003125 0.000000
0.008556 -0.003132 0.000000
0.006339 -0.003137 0.000000
0.006478 -0.003138 0.000000
0.005784 -0.003133 0.000000
0.005229 -0.003127 0.000000
0.005090 -0.003125 0.000000
0.004253 -0.003109 0.000000
0.004393 -0.003113 0.000000
0.002709 -0.003059 0.000000
0.002568 -0.003053 0.000000
0.002511 -0.003470 0.000000
0.002427 -0.003046 0.000000
0.002371 -0.003462 0.000000
0.002285 -0.003039 0.000000
0.012720 -0.008939 0.000000
0.012707 -0.008611 0.000000
0.006813 -0.024940 0.000000
0.006827 -0.024821 0.000000
0.009722 -0.009517 0.000000
0.001337 -0.006826 0.000000
0.007855 -0.022955 0.000000
0.007793 -0.022970 0.000000
0.005402 -0.017008 0.000000
0.005429 -0.016736 0.000000
0.007683 -0.025769 0.000000
0.007700 -0.025720 0.000000
0.003761 -0.017491 0.000000
0.003855 -0.017766 0.000000
0.006730 -0.022490 0.000000
0.006688 -0.022298 0.000000
0.006338 -0.016839 0.000000
0.006440 -0.016845 0.000000
0.004885 -0.019349 0.000000
0.004475 -0.006445 0.000000
0.009467 -0.009537 0.000000
0.007751 -0.015377 0.000000
0.007797 -0.015677 0.000000
0.007704 -0.015073 0.000000
0.006444 -0.025719 0.000000
0.006155 -0.010346 0.000000
0.006211 -0.009980 0.000000
0.010957 -0.009013 0.000000
0.011051 -0.008635 0.000000
0.008196 -0.016239 0.000000
0.008300 -0.016229 0.000000
0.007384 -0.025843 0.000000
0.007736 -0.019950 0.000000
0.007684 -0.020187 0.000000
0.008328 -0.005261 0.000000
0.008255 -0.005676 0.000000
0.007236 -0.025415 0.000000
0.010642 -0.016195 0.000000
0.010642 -0.015941 0.000000
0.007363 -0.026350 0.000000
0.007618 -0.025433 0.000000
0.007568 -0.025432 0.000000
0.007630 -0.025369 0.000000
0.007578 -0.025368 0.000000
0.007641 -0.025303 0.000000
0.007589 -0.025301 0.000000
0.007653 -0.025236 0.000000
0.007599 -0.025233 0.000000
0.011015 -0.008271 0.000000
0.011144 -0.008254 0.000000
0.009331 -0.022370 0.000000
0.009356 -0.022235 0.000000
0.009275 -0.022426 0.000000
0.009298 -0.022290 0.000000
0.006802 -0.012480 0.000000
0.006280 -0.025122 0.000000
0.006261 -0.025055 0.000000
0.006213 -0.025034 0.000000
0.006193 -0.024967 0.000000
0.006144 -0.024942 0.000000
0.006123 -0.024874 0.000000
0.006074 -0.024846 0.000000
0.006466 -0.025762 0.000000
0.003937 -0.017345 0.000000
0.008304 -0.024767 0.000000
0.008284 -0.012789 0.000000
0.006243 -0.024987 0.000000
0.008092 -0.016248 0.000000
0.008368 -0.015930 0.000000
0.008404 -0.016218 0.000000
0.008473 -0.015919 0.000000
0.008508 -0.016206 0.000000
0.008578 -0.015907 0.000000
0.008611 -0.016193 0.000000
0.008683 -0.015894 0.000000
0.008714 -0.016179 0.000000
0.008788 -0.015880 0.000000
0.008818 -0.016165 0.000000
0.008892 -0.015865 0.000000
0.008862 -0.015577 0.000000
0.008968 -0.015561 0.000000
0.008937 -0.015269 0.000000
0.009045 -0.015254 0.000000
0.009014 -0.014958 0.000000
0.009122 -0.014942 0.000000
0.009092 -0.014642 0.000000
0.009201 -0.014627 0.000000
0.009230 -0.014925 0.000000
0.009311 -0.014610 0.000000
0.009170 -0.014323 0.000000
0.006903 -0.008093 0.000000
0.004488 -0.017565 0.000000
0.009370 -0.022674 0.000000
0.009421 -0.022606 0.000000
0.009335 -0.022784 0.000000
0.007878 -0.014755 0.000000
0.008206 -0.003568 0.000000
0.007101 -0.014139 0.000000
0.007233 -0.007702 0.000000
0.008794 -0.022244 0.000000
0.003565 -0.015418 0.000000
0.006531 -0.025597 0.000000
0.005841 -0.023994 0.000000
0.006727 -0.026071 0.000000
0.006761 -0.026080 0.000000
0.006772 -0.026124 0.000000
0.009384 -0.022715 0.000000
0.009298 -0.022889 0.000000
0.003819 -0.019963 0.000000
0.003792 -0.019792 0.000000
0.001209 -0.006791 0.000000
0.013275 -0.003728 0.000000
0.000927 -0.003728 0.000000
0.000969 -0.003338 0.000000
0.006805 -0.026130 0.000000
0.006814 -0.026172 0.000000
0.006795 -0.026085 0.000000
0.007298 -0.026484 0.000000
0.006676 -0.025362 0.000000
0.006685 -0.025428 0.000000
0.006730 -0.025730 0.000000
0.006739 -0.025786 0.000000
0.007490 -0.025614 0.000000
0.007481 -0.025673 0.000000
0.007526 -0.025362 0.000000
0.006051 -0.024777 0.000000
0.006002 -0.024745 0.000000
0.006026 -0.024813 0.000000
0.005954 -0.024709 0.000000
0.005979 -0.024776 0.000000
0.005907 -0.024669 0.000000
0.005934 -0.024735 0.000000
0.005862 -0.024624 0.000000
0.005890 -0.024690 0.000000
0.005818 -0.024575 0.000000
0.005789 -0.024509 0.000000
0.005745 -0.024457 0.000000
0.005847 -0.024640 0.000000
0.005714 -0.024390 0.000000
0.005670 -0.024334 0.000000
0.005638 -0.024266 0.000000
0.005594 -0.024206 0.000000
0.005929 -0.024640 0.000000
0.005627 -0.024274 0.000000
0.005551 -0.024143 0.000000
0.005516 -0.024075 0.000000
0.005473 -0.024008 0.000000
0.005438 -0.023939 0.000000
0.005394 -0.023868 0.000000
0.007664 -0.025167 0.000000
0.007718 -0.025167 0.000000
0.010756 -0.018682 0.000000
0.010779 -0.018489 0.000000
0.010699 -0.018553 0.000000
0.010800 -0.018291 0.000000
0.010880 -0.018225 0.000000
0.010901 -0.018024 0.000000
0.010819 -0.018088 0.000000
0.010921 -0.017819 0.000000
0.011004 -0.017754 0.000000
0.011023 -0.017545 0.000000
0.005684 -0.024321 0.000000
0.000986 -0.004515 0.000000
0.002470 -0.014616 0.000000
0.002461 -0.014361 0.000000
0.008731 -0.022279 0.000000
0.008799 -0.022080 0.000000
0.006837 -0.022683 0.000000
0.006903 -0.022687 0.000000
0.002878 -0.015351 0.000000
0.002982 -0.015654 0.000000
0.005039 -0.021026 0.000000
0.005114 -0.021245 0.000000
0.004962 -0.020803 0.000000
0.004480 -0.019585 0.000000
0.004565 -0.019828 0.000000
0.005132 -0.012393 0.000000
0.005251 -0.012404 0.000000
0.005509 -0.024075 0.000000
0.007652 -0.024860 0.000000
0.007696 -0.024842 0.000000
0.009980 -0.016968 0.000000
0.010069 -0.016681 0.000000
0.003350 -0.006765 0.000000
0.003439 -0.007162 0.000000
0.003572 -0.007174 0.000000
0.003528 -0.007555 0.000000
0.007933 -0.025001 0.000000
0.007943 -0.024905 0.000000
0.007922 -0.025092 0.000000
0.007902 -0.024934 0.000000
0.007951 -0.024805 0.000000
0.007909 -0.024833 0.000000
0.007958 -0.024701 0.000000
0.007914 -0.024728 0.000000
0.005918 -0.024754 0.000000
0.005877 -0.024703 0.000000
0.009549 -0.009161 0.000000
0.005968 -0.016523 0.000000
0.005866 -0.016513 0.000000
0.008637 -0.023555 0.000000
0.008620 -0.023675 0.000000
0.008669 -0.023630 0.000000
0.008601 -0.023790 0.000000
0.008649 -0.023744 0.000000
0.008581 -0.023900 0.000000
0.008627 -0.023853 0.000000
0.008560 -0.024006 0.000000
0.010823 -0.004350 0.000000
0.009721 -0.017808 0.000000
0.003660 -0.007567 0.000000
0.004098 -0.009481 0.000000
0.004185 -0.009853 0.000000
0.006137 -0.023370 0.000000
0.007777 -0.022802 0.000000
0.007730 -0.022984 0.000000
0.008837 -0.013408 0.000000
0.005267 -0.020349 0.000000
0.006338 -0.009984 0.000000
0.006269 -0.009611 0.000000
0.005108 -0.020685 0.000000
0.009338 -0.014908 0.000000
0.009420 -0.014592 0.000000
0.006189 -0.023540 0.000000
0.005072 -0.006065 0.000000
0.011108 -0.007886 0.000000
0.011238 -0.007869 0.000000
0.004348 -0.004389 0.000000
0.007715 -0.011432 0.000000
0.007838 -0.011429 0.000000
0.004685 -0.017375 0.000000
0.003617 -0.007944 0.000000
0.002561 -0.014419 0.000000
0.002453 -0.014101 0.000000
0.002352 -0.014043 0.000000
0.002345 -0.013780 0.000000
0.003960 -0.020095 0.000000
0.006141 -0.009608 0.000000
0.009565 -0.019458 0.000000
0.009483 -0.019705 0.000000
0.009403 -0.019741 0.000000
0.009402 -0.019947 0.000000
0.009324 -0.019983 0.000000
0.009323 -0.020185 0.000000
0.009246 -0.020221 0.000000
0.009245 -0.020420 0.000000
0.009169 -0.020455 0.000000
0.009168 -0.020650 0.000000
0.009094 -0.020685 0.000000
0.009093 -0.020876 0.000000
0.009019 -0.020910 0.000000
0.005254 -0.016428 0.000000
0.005152 -0.016410 0.000000
0.009927 -0.012617 0.000000
0.009840 -0.012955 0.000000
0.009725 -0.012974 0.000000
0.007390 -0.025384 0.000000
0.007876 -0.019699 0.000000
0.008750 -0.004416 0.000000
0.006422 -0.025674 0.000000
0.010585 -0.010489 0.000000
0.010494 -0.010850 0.000000
0.011799 -0.005495 0.000000
0.011891 -0.005089 0.000000
0.011845 -0.004692 0.000000
0.011983 -0.004679 0.000000
0.011935 -0.004279 0.000000
0.012074 -0.004267 0.000000
0.012024 -0.003863 0.000000
0.012164 -0.003852 0.000000
0.012112 -0.003444 0.000000
0.012252 -0.003434 0.000000
0.012199 -0.003022 0.000000
0.012057 -0.003031 0.000000
0.012340 -0.003013 0.000000
0.006981 -0.025310 0.000000
0.010837 -0.017881 0.000000
0.012264 -0.009758 0.000000
0.012158 -0.010120 0.000000
0.006407 -0.002701 0.000000
0.006546 -0.002701 0.000000
0.006616 -0.003139 0.000000
0.006684 -0.002702 0.000000
0.012585 -0.008653 0.000000
0.012692 -0.008278 0.000000
0.012815 -0.008237 0.000000
0.012799 -0.007901 0.000000
0.007328 -0.026394 0.000000
0.007338 -0.026361 0.000000
0.007435 -0.025943 0.000000
0.007425 -0.025992 0.000000
0.003721 -0.019724 0.000000
0.003694 -0.019551 0.000000
0.005357 -0.023799 0.000000
0.005314 -0.023725 0.000000
0.012730 -0.009260 0.000000
0.007609 -0.025164 0.000000
0.012923 -0.007860 0.000000
0.012906 -0.007521 0.000000
0.002481 -0.014867 0.000000
0.011108 -0.017479 0.000000
0.011127 -0.017268 0.000000
0.010732 -0.018871 0.000000
0.007731 -0.025097 0.000000
0.007785 -0.025093 0.000000
0.002243 -0.013721 0.000000
0.002236 -0.013455 0.000000
0.002339 -0.013512 0.000000
0.002231 -0.013184 0.000000
0.000831 -0.003319 0.000000
0.000876 -0.002926 0.000000
0.001016 -0.002942 0.000000
0.009346 -0.022819 0.000000
0.009259 -0.022990 0.000000
0.008475 -0.022404 0.000000
0.008734 -0.022115 0.000000
0.010309 -0.019563 0.000000
0.010329 -0.019376 0.000000
0.006663 -0.022482 0.000000
0.008090 -0.024998 0.000000
0.001570 -0.007246 0.000000
0.005832 -0.016792 0.000000
0.005806 -0.017878 0.000000
0.005778 -0.018135 0.000000
0.006781 -0.024812 0.000000
0.006769 -0.024930 0.000000
0.006795 -0.024689 0.000000
0.006842 -0.024698 0.000000
0.005000 -0.023023 0.000000
0.009973 -0.016714 0.000000
0.010062 -0.016423 0.000000
0.010159 -0.016390 0.000000
0.010151 -0.016128 0.000000
0.004694 -0.012009 0.000000
0.004611 -0.011659 0.000000
0.004776 -0.012355 0.000000
0.009213 -0.023059 0.000000
0.009175 -0.023157 0.000000
0.009130 -0.023225 0.000000
0.009091 -0.023319 0.000000
0.009135 -0.023251 0.000000
0.009052 -0.023410 0.000000
0.009095 -0.023340 0.000000
0.009011 -0.023495 0.000000
0.001221 -0.004943 0.000000
0.008515 -0.024052 0.000000
0.008493 -0.024154 0.000000
0.008537 -0.024108 0.000000
0.008471 -0.024253 0.000000
0.005763 -0.016501 0.000000
0.007535 -0.025834 0.000000
0.007440 -0.005685 0.000000
0.007735 -0.025693 0.000000
0.005353 -0.023794 0.000000
0.005272 -0.023647 0.000000
0.003465 -0.010808 0.000000
0.007754 -0.025644 0.000000
0.006453 -0.025710 0.000000
0.008834 -0.003129 0.000000
0.007069 -0.025901 0.000000
0.006481 -0.004002 0.000000
0.006041 -0.024914 0.000000
0.011295 -0.010015 0.000000
0.007622 -0.025940 0.000000
0.006352 -0.025457 0.000000
0.009019 -0.020718 0.000000
0.008946 -0.020943 0.000000
0.006786 -0.025905 0.000000
0.007220 -0.026594 0.000000
0.004299 -0.018655 0.000000
0.004302 -0.018872 0.000000
0.005614 -0.006080 0.000000
0.006897 -0.005685 0.000000
0.006133 -0.021424 0.000000
0.007056 -0.026635 0.000000
0.006392 -0.025634 0.000000
0.007350 -0.026306 0.000000
0.003616 -0.018055 0.000000
0.005240 -0.022436 0.000000
0.004554 -0.018771 0.000000
0.010738 -0.015641 0.000000
0.010640 -0.015682 0.000000
0.010737 -0.015378 0.000000
0.010636 -0.015418 0.000000
0.010733 -0.015111 0.000000
0.010631 -0.015149 0.000000
0.010727 -0.014839 0.000000
0.008122 -0.024034 0.000000
0.004470 -0.003544 0.000000
0.004532 -0.003115 0.000000
0.009392 -0.014290 0.000000
0.009502 -0.014272 0.000000
0.008001 -0.025298 0.000000
0.009111 -0.022044 0.000000
0.006379 -0.016556 0.000000
0.006482 -0.016562 0.000000
0.005915 -0.022648 0.000000
0.004149 -0.016161 0.000000
0.007717 -0.024213 0.000000
0.002215 -0.007382 0.000000
0.008017 -0.023684 0.000000
0.004297 -0.018433 0.000000
0.006198 -0.009234 0.000000
0.006327 -0.009237 0.000000
0.009262 -0.017954 0.000000
0.009792 -0.019741 0.000000
0.010082 -0.017425 0.000000
0.008047 -0.022014 0.000000
0.006854 -0.025774 0.000000
0.005060 -0.022301 0.000000
0.008207 -0.024215 0.000000
0.009457 -0.020681 0.000000
0.005507 -0.003131 0.000000
0.007400 -0.025055 0.000000
0.009258 -0.015219 0.000000
0.008372 -0.023874 0.000000
0.006062 -0.003136 0.000000
0.008115 -0.025100 0.000000
0.006619 -0.019486 0.000000
0.005521 -0.023170 0.000000
0.009380 -0.022095 0.000000
0.009320 -0.022149 0.000000
0.009402 -0.021951 0.000000
0.006554 -0.024746 0.000000
0.005478 -0.021032 0.000000
0.008501 -0.011752 0.000000
0.007741 -0.023779 0.000000
0.007593 -0.011435 0.000000
0.007463 -0.012136 0.000000
0.008205 -0.024899 0.000000
0.008239 -0.024850 0.000000
0.007713 -0.022815 0.000000
0.007667 -0.022996 0.000000
0.007648 -0.022826 0.000000
0.007605 -0.023007 0.000000
0.007584 -0.022837 0.000000
0.007542 -0.023017 0.000000
0.007091 -0.026510 0.000000
0.007064 -0.021731 0.000000
0.007825 -0.012128 0.000000
0.007920 -0.024135 0.000000
0.004959 -0.020614 0.000000
0.008468 -0.022063 0.000000
0.008535 -0.022036 0.000000
0.005196 -0.009936 0.000000
0.004968 -0.020988 0.000000
0.008074 -0.019907 0.000000
0.008158 -0.019893 0.000000
0.005606 -0.024196 0.000000
0.006497 -0.015073 0.000000
0.005289 -0.014042 0.000000
0.009764 -0.009878 0.000000
0.009849 -0.009506 0.000000
0.009891 -0.009866 0.000000
0.008945 -0.017517 0.000000
0.007184 -0.020214 0.000000
0.007268 -0.020212 0.000000
0.007224 -0.020442 0.000000
0.007306 -0.020440 0.000000
0.005883 -0.024326 0.000000
0.004887 -0.021749 0.000000
0.007520 -0.022846 0.000000
0.007479 -0.023026 0.000000
0.006804 -0.026349 0.000000
0.010015 -0.012274 0.000000
0.005282 -0.019930 0.000000
0.004755 -0.014889 0.000000
0.007015 -0.026495 0.000000
0.004275 -0.015650 0.000000
0.004267 -0.019839 0.000000
0.010599 -0.012167 0.000000
0.005156 -0.018987 0.000000
0.006450 -0.023923 0.000000
0.004728 -0.013967 0.000000
0.007071 -0.023553 0.000000
0.007130 -0.023553 0.000000
0.007101 -0.023389 0.000000
0.007161 -0.023388 0.000000
0.007132 -0.023221 0.000000
0.007193 -0.023220 0.000000
0.010564 -0.013434 0.000000
0.007686 -0.017682 0.000000
0.006661 -0.023516 0.000000
0.005557 -0.019561 0.000000
0.005624 -0.019806 0.000000
0.005642 -0.019581 0.000000
0.005708 -0.019826 0.000000
0.005727 -0.019600 0.000000
0.005791 -0.019845 0.000000
0.005773 -0.020067 0.000000
0.005855 -0.020085 0.000000
0.005836 -0.020303 0.000000
0.005875 -0.019862 0.000000
0.008830 -0.015284 0.000000
0.007725 -0.025611 0.000000
0.007756 -0.025581 0.000000
0.007801 -0.025478 0.000000
0.007787 -0.025549 0.000000
0.007833 -0.025446 0.000000
0.007817 -0.025516 0.000000
0.007865 -0.025412 0.000000
0.007848 -0.025481 0.000000
0.007800 -0.025581 0.000000
0.007829 -0.025546 0.000000
0.007781 -0.025643 0.000000
0.007808 -0.025606 0.000000
0.007761 -0.025699 0.000000
0.007787 -0.025662 0.000000
0.007739 -0.025752 0.000000
0.007764 -0.025713 0.000000
0.007608 -0.025641 0.000000
0.008235 -0.023581 0.000000
0.007505 -0.025853 0.000000
0.007186 -0.025086 0.000000
0.008878 -0.009944 0.000000
0.006541 -0.016851 0.000000
0.002738 -0.008930 0.000000
0.002612 -0.008906 0.000000
0.002710 -0.009279 0.000000
0.002586 -0.009253 0.000000
0.002685 -0.009623 0.000000
0.002562 -0.009595 0.000000
0.002662 -0.009961 0.000000
0.004195 -0.013560 0.000000
0.007152 -0.024311 0.000000
0.007101 -0.024312 0.000000
0.007126 -0.024451 0.000000
0.007076 -0.024451 0.000000
0.007358 -0.024295 0.000000
0.004558 -0.020895 0.000000
0.008921 -0.016149 0.000000
0.009963 -0.014485 0.000000
0.006762 -0.025562 0.000000
0.007519 -0.023831 0.000000
0.005660 -0.019351 0.000000
0.007385 -0.026124 0.000000
0.002486 -0.008881 0.000000
0.008971 -0.019241 0.000000
0.005958 -0.021771 0.000000
0.007221 -0.023386 0.000000
0.009424 -0.021211 0.000000
0.007643 -0.015381 0.000000
0.007595 -0.015077 0.000000
0.008476 -0.020705 0.000000
0.009420 -0.009170 0.000000
0.006646 -0.014134 0.000000
0.007929 -0.020824 0.000000
0.006894 -0.026497 0.000000
0.006377 -0.022615 0.000000
0.004059 -0.009840 0.000000
0.004146 -0.010208 0.000000
0.003971 -0.009468 0.000000
0.007715 -0.020411 0.000000
0.004890 -0.020764 0.000000
0.007198 -0.017699 0.000000
0.008032 -0.022736 0.000000
0.002963 -0.007869 0.000000
0.005747 -0.019370 0.000000
0.004851 -0.007649 0.000000
0.007444 -0.025892 0.000000
0.006418 -0.017675 0.000000
0.006515 -0.017682 0.000000
0.006476 -0.017948 0.000000
0.006572 -0.017954 0.000000
0.006613 -0.017687 0.000000
0.006668 -0.017959 0.000000
0.004917 -0.005240 0.000000
0.007656 -0.014764 0.000000
0.007545 -0.014768 0.000000
0.005950 -0.015040 0.000000
0.007952 -0.025257 0.000000
0.007116 -0.026641 0.000000
0.004547 -0.016276 0.000000
0.010277 -0.007589 0.000000
0.006185 -0.023684 0.000000
0.008789 -0.012077 0.000000
0.007695 -0.025640 0.000000
0.011062 -0.012057 0.000000
0.006969 -0.019502 0.000000
0.008635 -0.018354 0.000000
0.007885 -0.008474 0.000000
0.006532 -0.018217 0.000000
0.007614 -0.018481 0.000000
0.005740 -0.014086 0.000000
0.013224 -0.002120 0.000000
0.006377 -0.024885 0.000000
0.005726 -0.022727 0.000000
0.005728 -0.022881 0.000000
0.005665 -0.022696 0.000000
0.005668 -0.022850 0.000000
0.005604 -0.022664 0.000000
0.005731 -0.023031 0.000000
0.005608 -0.022816 0.000000
0.005543 -0.022630 0.000000
0.005538 -0.022473 0.000000
0.005476 -0.022439 0.000000
0.005471 -0.022279 0.000000
0.005407 -0.022244 0.000000
0.005681 -0.019117 0.000000
0.006543 -0.025177 0.000000
0.007474 -0.021512 0.000000
0.005102 -0.010654 0.000000
0.007251 -0.026118 0.000000
0.007356 -0.026376 0.000000
0.006978 -0.026125 0.000000
0.004447 -0.013290 0.000000
0.005356 -0.023043 0.000000
0.011707 -0.005899 0.000000
0.004182 -0.008750 0.000000
0.006186 -0.025165 0.000000
0.011459 -0.010654 0.000000
0.005513 -0.014999 0.000000
0.003166 -0.014985 0.000000
0.007142 -0.026138 0.000000
0.006182 -0.019442 0.000000
0.006997 -0.026200 0.000000
0.006971 -0.026194 0.000000
0.008267 -0.024777 0.000000
0.008302 -0.024728 0.000000
0.008273 -0.024800 0.000000
0.007813 -0.025623 0.000000
0.007789 -0.025674 0.000000
0.005835 -0.024601 0.000000
0.005513 -0.007676 0.000000
0.004264 -0.020939 0.000000
0.006710 -0.017691 0.000000
0.006764 -0.017963 0.000000
0.006722 -0.018227 0.000000
0.006816 -0.018231 0.000000
0.008278 -0.003135 0.000000
0.008140 -0.003136 0.000000
0.008211 -0.002698 0.000000
0.008073 -0.002699 0.000000
0.009674 -0.021797 0.000000
0.007279 -0.026536 0.000000
0.006705 -0.022670 0.000000
0.011788 -0.008150 0.000000
0.010194 -0.014723 0.000000
0.008159 -0.024642 0.000000
0.007543 -0.025226 0.000000
0.006101 -0.010707 0.000000
0.006833 -0.015692 0.000000
0.007576 -0.026028 0.000000
0.006698 -0.026164 0.000000
0.006940 -0.026457 0.000000
0.001674 -0.007629 0.000000
0.009619 -0.015728 0.000000
0.006167 -0.025116 0.000000
0.010156 -0.018524 0.000000
0.006587 -0.024243 0.000000
0.006726 -0.026192 0.000000
0.006029 -0.010342 0.000000
0.005976 -0.010703 0.000000
0.008075 -0.017650 0.000000
0.008256 -0.024816 0.000000
0.003245 -0.009013 0.000000
0.007513 -0.004429 0.000000
0.006815 -0.025992 0.000000
0.006786 -0.025977 0.000000
0.006815 -0.026060 0.000000
0.006788 -0.026044 0.000000
0.006758 -0.025960 0.000000
0.006761 -0.026027 0.000000
0.006729 -0.025942 0.000000
0.006734 -0.026008 0.000000
0.006701 -0.025922 0.000000
0.006707 -0.025987 0.000000
0.006673 -0.025901 0.000000
0.006680 -0.025965 0.000000
0.006644 -0.025879 0.000000
0.006637 -0.025811 0.000000
0.006607 -0.025788 0.000000
0.006616 -0.025855 0.000000
0.006578 -0.025763 0.000000
0.006569 -0.025692 0.000000
0.006538 -0.025667 0.000000
0.006548 -0.025736 0.000000
0.006507 -0.025640 0.000000
0.006519 -0.025708 0.000000
0.006476 -0.025611 0.000000
0.006490 -0.025679 0.000000
0.006464 -0.025539 0.000000
0.006432 -0.025509 0.000000
0.006420 -0.025433 0.000000
0.006387 -0.025403 0.000000
0.006532 -0.025773 0.000000
0.006504 -0.025743 0.000000
0.006791 -0.026107 0.000000
0.006714 -0.026048 0.000000
0.006375 -0.025324 0.000000
0.006409 -0.025353 0.000000
0.006400 -0.025478 0.000000
0.006689 -0.026025 0.000000
0.006353 -0.025372 0.000000
0.006368 -0.025446 0.000000
0.010483 -0.012191 0.000000
0.008189 -0.009604 0.000000
0.009759 -0.020313 0.000000
0.002722 -0.005126 0.000000
0.002811 -0.005534 0.000000
0.009806 -0.009141 0.000000
0.009019 -0.021098 0.000000
0.007716 -0.025741 0.000000
0.007167 -0.026501 0.000000
0.003767 -0.019617 0.000000
0.003669 -0.019373 0.000000
0.003595 -0.019305 0.000000
0.003570 -0.019124 0.000000
0.008560 -0.017588 0.000000
0.006952 -0.026568 0.000000
0.011341 -0.014039 0.000000
0.005836 -0.007291 0.000000
0.010383 -0.019963 0.000000
0.006155 -0.006090 0.000000
0.002979 -0.013232 0.000000
0.002988 -0.012938 0.000000
0.003088 -0.013270 0.000000
0.003098 -0.012974 0.000000
0.003197 -0.013306 0.000000
0.003209 -0.013009 0.000000
0.003307 -0.013340 0.000000
0.003110 -0.012673 0.000000
0.003320 -0.013041 0.000000
0.003417 -0.013373 0.000000
0.003432 -0.013073 0.000000
0.003527 -0.013404 0.000000
0.003513 -0.013701 0.000000
0.003622 -0.013732 0.000000
0.003608 -0.014025 0.000000
0.003716 -0.014056 0.000000
0.003703 -0.014346 0.000000
0.003543 -0.013102 0.000000
0.003448 -0.012767 0.000000
0.003731 -0.013761 0.000000
0.003809 -0.014377 0.000000
0.003796 -0.014663 0.000000
0.009732 -0.018509 0.000000
0.004099 -0.011928 0.000000
0.009400 -0.006056 0.000000
0.006721 -0.025673 0.000000
0.009648 -0.019208 0.000000
0.006069 -0.009231 0.000000
0.007322 -0.026477 0.000000
0.007294 -0.026520 0.000000
0.007277 -0.026536 0.000000
0.007267 -0.026560 0.000000
0.004814 -0.022312 0.000000
0.004788 -0.022178 0.000000
0.004870 -0.022370 0.000000
0.004845 -0.022235 0.000000
0.004927 -0.022426 0.000000
0.004763 -0.022039 0.000000
0.004952 -0.022557 0.000000
0.005007 -0.022613 0.000000
0.005031 -0.022741 0.000000
0.005085 -0.022796 0.000000
0.007508 -0.025441 0.000000
0.004916 -0.022850 0.000000
0.004952 -0.022957 0.000000
0.004867 -0.022784 0.000000
0.004904 -0.022889 0.000000
0.004818 -0.022715 0.000000
0.004856 -0.022819 0.000000
0.004989 -0.023059 0.000000
0.004781 -0.022606 0.000000
0.010321 -0.013182 0.000000
0.004134 -0.019920 0.000000
0.006547 -0.025833 0.000000
0.006520 -0.025802 0.000000
0.006696 -0.025786 0.000000
0.006748 -0.025840 0.000000
0.008134 -0.019664 0.000000
0.008219 -0.019650 0.000000
0.008242 -0.019878 0.000000
0.008304 -0.019634 0.000000
0.008326 -0.019862 0.000000
0.008390 -0.019618 0.000000
0.008410 -0.019845 0.000000
0.008475 -0.019600 0.000000
0.006832 -0.025175 0.000000
0.006861 -0.025291 0.000000
0.012184 -0.006602 0.000000
0.002555 -0.014157 0.000000
0.008391 -0.005674 0.000000
0.008317 -0.006086 0.000000
0.007313 -0.025402 0.000000
0.010906 -0.011446 0.000000
0.009471 -0.022536 0.000000
0.006626 -0.025111 0.000000
0.002230 -0.003453 0.000000
0.002144 -0.003031 0.000000
0.002317 -0.003873 0.000000
0.007351 -0.020209 0.000000
0.007388 -0.020436 0.000000
0.010624 -0.014876 0.000000
0.010720 -0.014562 0.000000
0.010825 -0.014525 0.000000
0.010817 -0.014244 0.000000
0.010923 -0.014207 0.000000
0.010172 -0.017144 0.000000
0.008513 -0.024205 0.000000
0.007195 -0.025895 0.000000
0.010486 -0.006002 0.000000
0.004822 -0.022095 0.000000
0.004739 -0.021896 0.000000
0.007987 -0.018450 0.000000
0.005110 -0.022921 0.000000
0.005163 -0.022974 0.000000
0.007652 -0.019958 0.000000
0.009390 -0.003121 0.000000
0.007159 -0.025422 0.000000
0.008811 -0.023649 0.000000
0.006755 -0.003139 0.000000
0.006823 -0.002702 0.000000
0.009943 -0.006032 0.000000
0.007704 -0.019717 0.000000
0.008696 -0.023696 0.000000
0.009948 -0.003109 0.000000
0.012142 -0.002606 0.000000
0.012000 -0.002612 0.000000
0.007262 -0.020666 0.000000
0.007181 -0.020668 0.000000
0.010622 -0.005993 0.000000
0.005187 -0.023096 0.000000
0.005238 -0.023149 0.000000
0.005263 -0.023267 0.000000
0.005313 -0.023319 0.000000
0.009341 -0.022004 0.000000
0.009423 -0.021803 0.000000
0.008954 -0.022949 0.000000
0.008933 -0.023077 0.000000
0.006619 -0.022290 0.000000
0.006644 -0.022102 0.000000
0.007508 -0.025491 0.000000
0.005337 -0.023434 0.000000
0.005386 -0.023485 0.000000
0.006834 -0.021311 0.000000
0.006910 -0.021315 0.000000
0.006758 -0.021306 0.000000
0.010915 -0.013923 0.000000
0.011022 -0.013886 0.000000
0.010219 -0.018896 0.000000
0.005410 -0.023596 0.000000
0.005458 -0.023647 0.000000
0.005482 -0.023755 0.000000
0.005528 -0.023805 0.000000
0.011041 -0.017332 0.000000
0.011145 -0.017051 0.000000
0.011232 -0.016986 0.000000
0.011250 -0.016767 0.000000
0.010609 -0.017619 0.000000
0.011161 -0.016830 0.000000
0.011266 -0.016542 0.000000
0.011355 -0.016478 0.000000
0.011371 -0.016251 0.000000
0.011281 -0.016313 0.000000
0.011386 -0.016019 0.000000
0.011478 -0.015956 0.000000
0.011492 -0.015721 0.000000
0.010737 -0.018150 0.000000
0.010235 -0.019622 0.000000
0.011014 -0.013598 0.000000
0.005155 -0.002691 0.000000
0.005016 -0.002689 0.000000
0.011864 -0.009197 0.000000
0.004457 -0.002680 0.000000
0.002626 -0.002631 0.000000
0.002768 -0.002636 0.000000
0.002343 -0.002619 0.000000
0.000925 -0.002526 0.000000
0.001066 -0.002539 0.000000
0.000784 -0.002512 0.000000
0.010355 -0.020129 0.000000
0.003847 -0.020129 0.000000
0.002126 -0.013126 0.000000
0.002121 -0.012852 0.000000
0.004730 -0.022536 0.000000
0.004693 -0.022424 0.000000
0.005232 -0.023577 0.000000
0.001188 -0.007138 0.000000
0.006102 -0.024804 0.000000
0.006839 -0.026131 0.000000
0.006831 -0.026086 0.000000
0.012937 -0.008192 0.000000
0.005402 -0.023868 0.000000
0.007552 -0.025156 0.000000
0.007487 -0.025214 0.000000
0.011087 -0.017687 0.000000
0.002016 -0.012794 0.000000
0.002011 -0.012517 0.000000
0.003494 -0.019055 0.000000
0.003469 -0.018871 0.000000
0.011586 -0.015656 0.000000
0.011600 -0.015418 0.000000
0.010453 -0.019894 0.000000
0.007800 -0.025023 0.000000
0.007854 -0.025015 0.000000
0.006737 -0.025418 0.000000
0.006745 -0.025483 0.000000
0.006730 -0.025352 0.000000
0.006783 -0.025782 0.000000
0.007251 -0.026572 0.000000
0.007242 -0.026595 0.000000
0.007387 -0.025991 0.000000
0.007379 -0.026040 0.000000
0.007304 -0.026402 0.000000
0.007312 -0.026368 0.000000
0.007434 -0.025667 0.000000
0.007426 -0.025725 0.000000
0.009179 -0.023180 0.000000
0.004641 -0.022354 0.000000
0.004604 -0.022238 0.000000
0.001082 -0.006753 0.000000
0.001104 -0.006403 0.000000
0.006029 -0.024706 0.000000
0.013465 -0.002908 0.000000
0.002372 -0.014554 0.000000
0.005653 -0.024250 0.000000
0.013031 -0.007480 0.000000
0.013013 -0.007138 0.000000
0.009052 -0.023425 0.000000
0.008969 -0.023577 0.000000
0.008929 -0.023647 0.000000
0.008888 -0.023725 0.000000
0.008926 -0.023654 0.000000
0.008844 -0.023799 0.000000
0.010834 -0.018614 0.000000
0.000789 -0.003706 0.000000
0.004680 -0.022465 0.000000
0.006875 -0.022865 0.000000
0.007164 -0.023048 0.000000
0.007227 -0.023046 0.000000
0.005363 -0.023370 0.000000
0.006810 -0.024562 0.000000
0.006858 -0.024570 0.000000
0.005312 -0.023715 0.000000
0.010305 -0.010178 0.000000
0.005190 -0.023495 0.000000
0.005149 -0.023425 0.000000
0.005192 -0.023505 0.000000
0.008849 -0.023794 0.000000
0.009976 -0.009494 0.000000
0.002336 -0.013239 0.000000
0.004516 -0.020361 0.000000
0.007838 -0.025085 0.000000
0.007907 -0.025003 0.000000
0.007924 -0.024933 0.000000
0.007977 -0.024918 0.000000
0.007958 -0.024987 0.000000
0.008028 -0.024898 0.000000
0.008048 -0.024827 0.000000
0.008100 -0.024804 0.000000
0.008079 -0.024874 0.000000
0.008150 -0.024777 0.000000
0.008173 -0.024706 0.000000
0.008223 -0.024675 0.000000
0.008200 -0.024745 0.000000
0.008273 -0.024640 0.000000
0.008247 -0.024709 0.000000
0.008320 -0.024601 0.000000
0.008347 -0.024531 0.000000
0.008395 -0.024488 0.000000
0.008423 -0.024418 0.000000
0.008471 -0.024371 0.000000
0.008373 -0.024460 0.000000
0.008294 -0.024669 0.000000
0.005501 -0.017024 0.000000
0.006364 -0.025240 0.000000
0.006328 -0.025210 0.000000
0.006400 -0.025268 0.000000
0.012393 -0.003423 0.000000
0.012481 -0.003004 0.000000
0.012426 -0.002590 0.000000
0.012568 -0.002581 0.000000
0.004609 -0.003547 0.000000
0.007693 -0.024728 0.000000
0.007648 -0.024746 0.000000
0.007738 -0.024709 0.000000
0.007740 -0.024822 0.000000
0.007783 -0.024689 0.000000
0.003561 -0.012795 0.000000
0.003466 -0.012457 0.000000
0.005917 -0.020321 0.000000
0.005898 -0.020536 0.000000
0.005819 -0.020517 0.000000
0.005881 -0.020746 0.000000
0.005803 -0.020726 0.000000
0.007963 -0.024592 0.000000
0.005402 -0.022080 0.000000
0.005337 -0.022045 0.000000
0.005467 -0.022115 0.000000
0.004658 -0.012341 0.000000
0.004741 -0.012684 0.000000
0.005215 -0.023026 0.000000
0.005946 -0.024816 0.000000
0.005906 -0.024764 0.000000
0.005837 -0.024648 0.000000
0.011084 -0.008994 0.000000
0.010990 -0.009368 0.000000
0.007718 -0.025669 0.000000
0.007773 -0.025592 0.000000
0.009048 -0.023386 0.000000
0.011122 -0.013561 0.000000
0.011113 -0.013270 0.000000
0.007501 -0.023193 0.000000
0.004214 -0.018613 0.000000
0.004219 -0.018829 0.000000
0.009502 -0.008790 0.000000
0.008928 -0.020142 0.000000
0.009091 -0.021063 0.000000
0.007624 -0.023174 0.000000
0.012121 -0.004666 0.000000
0.008570 -0.023718 0.000000
0.003705 -0.007185 0.000000
0.007455 -0.022854 0.000000
0.007897 -0.025376 0.000000
0.007915 -0.025304 0.000000
0.007627 -0.025608 0.000000
0.009168 -0.020255 0.000000
0.009323 -0.019777 0.000000
0.005769 -0.019135 0.000000
0.008197 -0.022157 0.000000
0.008586 -0.023597 0.000000
0.008236 -0.012454 0.000000
0.008166 -0.012795 0.000000
0.008333 -0.022113 0.000000
0.008510 -0.021303 0.000000
0.008584 -0.021278 0.000000
0.004770 -0.011331 0.000000
0.007485 -0.015080 0.000000
0.008721 -0.023261 0.000000
0.006195 -0.023392 0.000000
0.006143 -0.023218 0.000000
0.003596 -0.014314 0.000000
0.005413 -0.022403 0.000000
0.003792 -0.007578 0.000000
0.006257 -0.008856 0.000000
0.006387 -0.008859 0.000000
0.006456 -0.009239 0.000000
0.008982 -0.014657 0.000000
0.006786 -0.010359 0.000000
0.003645 -0.019190 0.000000
0.007746 -0.023149 0.000000
0.007683 -0.025708 0.000000
0.005549 -0.022781 0.000000
0.005614 -0.022964 0.000000
0.006240 -0.023706 0.000000
0.006235 -0.023846 0.000000
0.006748 -0.024680 0.000000
0.005727 -0.004420 0.000000
0.007783 -0.011075 0.000000
0.007907 -0.011072 0.000000
0.007961 -0.011425 0.000000
0.008031 -0.011068 0.000000
0.004643 -0.019870 0.000000
0.005062 -0.022666 0.000000
0.005048 -0.017730 0.000000
0.008494 -0.019826 0.000000
0.008560 -0.019581 0.000000
0.006723 -0.026104 0.000000
0.006422 -0.016269 0.000000
0.006318 -0.016263 0.000000
0.007740 -0.025761 0.000000
0.007763 -0.025720 0.000000
0.007444 -0.026246 0.000000
0.007429 -0.026291 0.000000
0.009243 -0.020614 0.000000
0.008337 -0.024677 0.000000
0.005902 -0.016229 0.000000
0.009372 -0.008798 0.000000
0.006860 -0.017966 0.000000
0.004735 -0.009537 0.000000
0.007813 -0.025632 0.000000
0.008336 -0.016513 0.000000
0.011201 -0.007498 0.000000
0.011332 -0.007482 0.000000
0.009400 -0.020148 0.000000
0.002118 -0.012573 0.000000
0.002008 -0.012235 0.000000
0.001900 -0.012178 0.000000
0.001898 -0.011894 0.000000
0.001789 -0.011836 0.000000
0.001787 -0.011549 0.000000
0.007786 -0.025678 0.000000
0.003574 -0.003940 0.000000
0.003493 -0.003515 0.000000
0.008367 -0.024601 0.000000
0.006002 -0.004423 0.000000
0.009563 -0.019666 0.000000
0.006585 -0.016567 0.000000
0.009446 -0.014889 0.000000
0.003901 -0.014694 0.000000
0.003916 -0.014406 0.000000
0.003888 -0.014976 0.000000
0.008540 -0.016489 0.000000
0.008001 -0.024672 0.000000
0.008744 -0.016460 0.000000
0.007983 -0.024875 0.000000
0.005178 -0.016131 0.000000
0.005075 -0.016113 0.000000
0.005281 -0.016149 0.000000
0.009017 -0.021281 0.000000
0.008946 -0.021316 0.000000
0.008455 -0.019370 0.000000
0.011369 -0.007851 0.000000
0.011464 -0.007464 0.000000
0.008453 -0.006083 0.000000
0.008379 -0.006491 0.000000
0.008244 -0.006493 0.000000
0.006893 -0.003139 0.000000
0.006962 -0.002702 0.000000
0.009955 -0.012936 0.000000
0.009868 -0.013271 0.000000
0.008194 -0.019417 0.000000
0.006277 -0.004426 0.000000
0.008305 -0.006894 0.000000
0.008171 -0.006897 0.000000
0.006369 -0.025588 0.000000
0.006339 -0.025545 0.000000
0.006364 -0.025589 0.000000
0.006320 -0.025339 0.000000
0.006336 -0.025412 0.000000
0.006563 -0.025889 0.000000
0.006537 -0.025857 0.000000
0.006494 -0.025769 0.000000
0.006588 -0.025919 0.000000
0.006512 -0.025823 0.000000
0.006467 -0.025735 0.000000
0.006487 -0.025788 0.000000
0.006441 -0.025699 0.000000
0.002178 -0.003863 0.000000
0.003486 -0.007931 0.000000
0.003576 -0.008317 0.000000
0.010546 -0.016237 0.000000
0.010546 -0.016488 0.000000
0.010173 -0.017386 0.000000
0.009025 -0.004410 0.000000
0.011935 -0.005481 0.000000
0.006596 -0.022473 0.000000
0.006574 -0.022093 0.000000
0.006599 -0.021902 0.000000
0.002086 -0.007359 0.000000
0.009301 -0.004404 0.000000
0.011294 -0.016080 0.000000
0.009577 -0.004397 0.000000
0.010407 -0.004368 0.000000
0.009853 -0.004389 0.000000
0.007439 -0.023201 0.000000
0.010130 -0.004379 0.000000
0.006821 -0.025282 0.000000
0.006850 -0.025394 0.000000
0.007257 -0.026582 0.000000
0.007233 -0.026617 0.000000
0.012511 -0.002164 0.000000
0.012654 -0.002157 0.000000
0.008144 -0.002258 0.000000
0.008283 -0.002257 0.000000
0.008005 -0.002259 0.000000
0.007934 -0.002700 0.000000
0.007866 -0.002259 0.000000
0.007795 -0.002701 0.000000
0.007726 -0.002260 0.000000
0.007656 -0.002701 0.000000
0.007587 -0.002260 0.000000
0.007517 -0.002702 0.000000
0.007448 -0.002260 0.000000
0.009240 -0.022343 0.000000
0.005552 -0.023909 0.000000
0.005597 -0.023958 0.000000
0.005574 -0.023853 0.000000
0.005642 -0.024006 0.000000
0.005665 -0.024108 0.000000
0.005708 -0.024154 0.000000
0.005731 -0.024253 0.000000
0.005773 -0.024299 0.000000
0.005796 -0.024393 0.000000
0.010529 -0.015186 0.000000
0.006868 -0.021101 0.000000
0.010521 -0.014911 0.000000
0.010253 -0.019434 0.000000
0.010347 -0.019185 0.000000
0.010712 -0.014280 0.000000
0.011505 -0.015481 0.000000
0.011613 -0.015176 0.000000
0.011708 -0.015113 0.000000
0.011721 -0.014867 0.000000
0.011624 -0.014928 0.000000
0.011732 -0.014616 0.000000
0.011830 -0.014554 0.000000
0.011840 -0.014301 0.000000
0.006753 -0.002260 0.000000
0.006475 -0.002260 0.000000
0.006336 -0.002259 0.000000
0.012568 -0.008317 0.000000
0.012887 -0.007177 0.000000
0.012992 -0.006791 0.000000
0.013120 -0.006753 0.000000
0.013098 -0.006403 0.000000
0.002687 -0.002204 0.000000
0.002829 -0.002208 0.000000
0.000836 -0.002109 0.000000
0.000694 -0.002096 0.000000
0.003521 -0.019235 0.000000
0.011570 -0.015890 0.000000
0.007744 -0.025026 0.000000
0.011192 -0.017411 0.000000
0.008442 -0.024441 0.000000
0.008518 -0.024321 0.000000
0.008548 -0.024250 0.000000
0.007070 -0.023221 0.000000
0.008595 -0.024196 0.000000
0.008627 -0.024124 0.000000
0.007079 -0.024970 0.000000
0.010372 -0.010868 0.000000
0.009840 -0.015952 0.000000
0.004845 -0.021257 0.000000
0.005865 -0.020951 0.000000
0.005789 -0.020931 0.000000
0.007769 -0.025663 0.000000
0.002975 -0.015404 0.000000
0.003077 -0.015707 0.000000
0.002757 -0.013716 0.000000
0.008301 -0.024428 0.000000
0.003767 -0.017719 0.000000
0.003861 -0.017991 0.000000
0.003672 -0.017443 0.000000
0.005210 -0.012735 0.000000
0.005328 -0.012746 0.000000
0.005867 -0.024708 0.000000
0.005798 -0.024589 0.000000
0.006463 -0.025752 0.000000
0.006415 -0.025662 0.000000
0.003739 -0.010508 0.000000
0.006004 -0.024842 0.000000
0.006607 -0.025556 0.000000
0.007658 -0.025076 0.000000
0.006516 -0.008861 0.000000
0.007741 -0.025648 0.000000
0.007434 -0.014770 0.000000
0.007768 -0.022072 0.000000
0.002541 -0.009932 0.000000
0.002642 -0.010294 0.000000
0.002762 -0.010324 0.000000
0.002742 -0.010654 0.000000
0.002862 -0.010683 0.000000
0.002843 -0.011010 0.000000
0.002961 -0.011039 0.000000
0.002724 -0.010978 0.000000
0.002825 -0.011331 0.000000
0.002439 -0.009566 0.000000
0.004800 -0.021951 0.000000
0.004717 -0.021749 0.000000
0.007858 -0.025508 0.000000
0.003784 -0.014944 0.000000
0.008307 -0.024749 0.000000
0.006991 -0.026265 0.000000
0.006966 -0.026257 0.000000
0.007015 -0.026270 0.000000
0.003306 -0.007149 0.000000
0.003216 -0.006753 0.000000
0.005629 -0.009590 0.000000
0.006774 -0.018491 0.000000
0.006867 -0.018494 0.000000
0.009292 -0.009179 0.000000
0.011916 -0.003039 0.000000
0.011859 -0.002619 0.000000
0.011941 -0.002189 0.000000
0.011798 -0.002194 0.000000
0.008131 -0.016533 0.000000
0.008028 -0.016542 0.000000
0.002997 -0.005147 0.000000
0.007366 -0.026402 0.000000
0.006946 -0.021103 0.000000
0.006707 -0.025839 0.000000
0.006757 -0.025892 0.000000
0.006799 -0.025890 0.000000
0.010615 -0.010830 0.000000
0.007309 -0.026500 0.000000
0.007337 -0.026453 0.000000
0.007618 -0.019724 0.000000
0.007671 -0.019480 0.000000
0.008580 -0.024059 0.000000
0.007219 -0.020888 0.000000
0.007298 -0.020885 0.000000
0.010541 -0.015722 0.000000
0.009361 -0.021855 0.000000
0.009442 -0.021650 0.000000
0.009280 -0.022055 0.000000
0.010754 -0.017941 0.000000
0.012144 -0.009797 0.000000
0.012039 -0.010159 0.000000
0.005081 -0.002250 0.000000
0.005221 -0.002252 0.000000
0.004942 -0.002249 0.000000
0.013226 -0.006365 0.000000
0.013203 -0.006012 0.000000
0.000975 -0.006365 0.000000
0.000998 -0.006012 0.000000
0.002022 -0.013065 0.000000
0.004551 -0.022166 0.000000
0.004514 -0.022048 0.000000
0.000644 -0.002496 0.000000
0.008881 -0.023727 0.000000
0.007493 -0.025142 0.000000
0.011940 -0.014238 0.000000
0.011950 -0.013982 0.000000
0.013648 -0.002084 0.000000
0.002384 -0.014803 0.000000
0.010423 -0.020058 0.000000
0.010325 -0.020290 0.000000
0.005575 -0.024124 0.000000
0.010809 -0.018802 0.000000
0.001062 -0.007097 0.000000
0.006081 -0.024733 0.000000
0.003393 -0.018802 0.000000
0.003367 -0.018614 0.000000
0.003445 -0.018682 0.000000
0.003344 -0.018422 0.000000
0.003265 -0.018353 0.000000
0.003241 -0.018158 0.000000
0.007340 -0.026035 0.000000
0.007347 -0.025986 0.000000
0.007334 -0.026083 0.000000
0.007429 -0.025199 0.000000
0.007423 -0.025269 0.000000
0.006791 -0.025405 0.000000
0.006785 -0.025338 0.000000
0.006874 -0.026129 0.000000
0.006868 -0.026083 0.000000
0.006881 -0.026173 0.000000
0.007226 -0.026604 0.000000
0.007233 -0.026580 0.000000
0.007278 -0.026405 0.000000
0.007285 -0.026370 0.000000
0.007321 -0.026332 0.000000
0.007292 -0.026334 0.000000
0.007329 -0.026295 0.000000
0.007271 -0.026438 0.000000
0.007299 -0.026296 0.000000
0.007338 -0.026257 0.000000
0.007307 -0.026257 0.000000
0.008563 -0.024266 0.000000
0.005107 -0.023340 0.000000
0.005065 -0.023268 0.000000
0.008667 -0.022312 0.000000
0.006826 -0.024431 0.000000
0.006776 -0.024422 0.000000
0.006876 -0.024437 0.000000
0.004487 -0.019786 0.000000
0.004571 -0.020026 0.000000
0.007346 -0.026217 0.000000
0.007313 -0.026216 0.000000
0.010707 -0.019055 0.000000
0.004840 -0.004822 0.000000
0.004780 -0.005236 0.000000
0.008527 -0.005672 0.000000
0.005710 -0.017863 0.000000
0.005684 -0.018120 0.000000
0.011222 -0.013232 0.000000
0.011214 -0.012938 0.000000
0.011324 -0.012900 0.000000
0.011315 -0.012602 0.000000
0.011426 -0.012564 0.000000
0.011416 -0.012264 0.000000
0.005621 -0.023900 0.000000
0.010671 -0.006387 0.000000
0.010757 -0.005983 0.000000
0.010805 -0.006377 0.000000
0.011529 -0.012225 0.000000
0.011519 -0.011921 0.000000
0.007371 -0.026086 0.000000
0.003423 -0.018489 0.000000
0.011069 -0.007514 0.000000
0.005150 -0.023410 0.000000
0.001128 -0.006047 0.000000
0.005615 -0.017848 0.000000
0.005590 -0.018103 0.000000
0.009763 -0.021594 0.000000
0.009733 -0.021732 0.000000
0.009823 -0.021528 0.000000
0.009791 -0.021665 0.000000
0.009883 -0.021460 0.000000
0.009850 -0.021595 0.000000
0.009943 -0.021390 0.000000
0.009908 -0.021524 0.000000
0.009976 -0.021251 0.000000
0.010037 -0.021180 0.000000
0.010070 -0.021038 0.000000
0.002493 -0.015113 0.000000
0.007198 -0.022872 0.000000
0.007133 -0.022873 0.000000
0.006655 -0.025781 0.000000
0.003943 -0.017812 0.000000
0.008944 -0.020750 0.000000
0.008872 -0.020974 0.000000
0.001699 -0.009673 0.000000
0.001690 -0.009989 0.000000
0.001581 -0.009626 0.000000
0.001574 -0.009940 0.000000
0.001463 -0.009577 0.000000
0.001684 -0.010300 0.000000
0.001568 -0.010248 0.000000
0.007693 -0.025301 0.000000
0.012518 -0.010300 0.000000
0.012523 -0.010605 0.000000
0.012633 -0.010248 0.000000
0.012637 -0.010551 0.000000
0.010906 -0.013634 0.000000
0.009465 -0.018380 0.000000
0.004401 -0.019541 0.000000
0.004901 -0.004404 0.000000
0.007918 -0.024618 0.000000
0.007871 -0.024754 0.000000
0.002186 -0.007744 0.000000
0.007228 -0.009992 0.000000
0.004313 -0.005629 0.000000
0.003851 -0.006010 0.000000
0.008428 -0.024299 0.000000
0.008406 -0.024393 0.000000
0.009086 -0.007661 0.000000
0.004858 -0.012698 0.000000
0.009474 -0.013967 0.000000
0.006098 -0.024774 0.000000
0.007606 -0.014451 0.000000
0.006024 -0.024992 0.000000
0.007378 -0.026213 0.000000
0.004271 -0.010222 0.000000
0.004233 -0.010573 0.000000
0.004357 -0.010587 0.000000
0.004648 -0.018348 0.000000
0.008521 -0.023759 0.000000
0.008505 -0.023876 0.000000
0.006907 -0.024576 0.000000
0.005553 -0.023744 0.000000
0.006869 -0.013487 0.000000
0.006143 -0.025193 0.000000
0.008217 -0.021389 0.000000
0.007101 -0.012139 0.000000
0.009065 -0.011364 0.000000
0.003560 -0.016195 0.000000
0.008536 -0.023638 0.000000
0.007472 -0.025730 0.000000
0.004321 -0.007618 0.000000
0.009896 -0.020841 0.000000
0.009918 -0.020676 0.000000
0.009829 -0.020899 0.000000
0.009850 -0.020734 0.000000
0.009939 -0.020508 0.000000
0.009762 -0.020956 0.000000
0.009781 -0.020789 0.000000
0.009695 -0.021011 0.000000
0.008107 -0.019430 0.000000
0.006986 -0.025805 0.000000
0.006964 -0.025711 0.000000
0.006998 -0.025716 0.000000
0.009312 -0.019128 0.000000
0.004347 -0.014509 0.000000
0.011161 -0.007122 0.000000
0.006643 -0.016855 0.000000
0.007563 -0.025975 0.000000
0.007575 -0.025917 0.000000
0.007548 -0.025942 0.000000
0.009503 -0.017120 0.000000
0.009599 -0.017092 0.000000
0.009683 -0.016806 0.000000
0.009516 -0.017375 0.000000
0.009695 -0.017064 0.000000
0.002887 -0.012602 0.000000
0.007496 -0.022670 0.000000
0.007585 -0.025855 0.000000
0.006393 -0.025606 0.000000
0.006366 -0.025568 0.000000
0.002454 -0.006283 0.000000
0.010708 -0.010469 0.000000
0.004897 -0.018903 0.000000
0.008544 -0.015616 0.000000
0.008876 -0.013727 0.000000
0.008953 -0.013397 0.000000
0.008800 -0.014054 0.000000
0.008914 -0.013074 0.000000
0.009030 -0.013062 0.000000
0.002652 -0.013390 0.000000
0.006696 -0.025853 0.000000
0.008991 -0.012735 0.000000
0.008404 -0.023351 0.000000
0.011154 -0.004744 0.000000
0.006992 -0.024018 0.000000
0.005051 -0.016390 0.000000
0.004972 -0.016094 0.000000
0.004950 -0.016370 0.000000
0.006317 -0.008474 0.000000
0.006186 -0.008472 0.000000
0.006423 -0.024451 0.000000
0.001786 -0.006186 0.000000
0.001654 -0.006162 0.000000
0.005994 -0.022333 0.000000
0.009805 -0.010235 0.000000
0.009931 -0.010222 0.000000
0.006601 -0.020194 0.000000
0.006388 -0.019223 0.000000
0.006202 -0.023239 0.000000
0.006253 -0.023412 0.000000
0.006150 -0.023062 0.000000
0.005739 -0.020497 0.000000
0.005332 -0.021878 0.000000
0.005266 -0.021842 0.000000
0.005272 -0.022008 0.000000
0.005200 -0.021804 0.000000
0.008084 -0.011421 0.000000
0.008155 -0.011064 0.000000
0.008703 -0.022891 0.000000
0.008144 -0.020569 0.000000
0.006380 -0.017941 0.000000
0.005291 -0.018295 0.000000
0.004881 -0.022149 0.000000
0.009018 -0.018516 0.000000
0.007296 -0.023860 0.000000
0.007478 -0.025719 0.000000
0.008733 -0.023990 0.000000
0.008810 -0.023845 0.000000
0.005738 -0.017602 0.000000
0.007772 -0.021478 0.000000
0.008008 -0.025242 0.000000
0.009068 -0.013384 0.000000
0.008846 -0.023760 0.000000
0.006005 -0.016239 0.000000
0.006786 -0.026040 0.000000
0.005170 -0.007270 0.000000
0.006529 -0.025593 0.000000
0.006561 -0.025617 0.000000
0.005389 -0.004835 0.000000
0.010358 -0.009453 0.000000
0.003706 -0.008330 0.000000
0.005370 -0.012414 0.000000
0.005446 -0.012756 0.000000
0.005489 -0.012423 0.000000
0.005563 -0.012766 0.000000
0.005608 -0.012432 0.000000
0.005681 -0.012774 0.000000
0.005727 -0.012440 0.000000
0.005799 -0.012782 0.000000
0.005846 -0.012447 0.000000
0.005917 -0.012789 0.000000
0.005774 -0.012101 0.000000
0.005965 -0.012454 0.000000
0.006036 -0.012795 0.000000
0.004378 -0.021528 0.000000
0.006165 -0.025008 0.000000
0.008408 -0.008461 0.000000
0.004319 -0.010934 0.000000
0.009353 -0.016349 0.000000
0.009252 -0.016370 0.000000
0.009173 -0.016663 0.000000
0.007168 -0.006504 0.000000
0.003296 -0.013634 0.000000
0.003352 -0.012429 0.000000
0.003371 -0.012115 0.000000
0.003255 -0.012086 0.000000
0.003274 -0.011769 0.000000
0.003391 -0.011796 0.000000
0.003295 -0.011446 0.000000
0.004823 -0.013022 0.000000
0.004939 -0.013036 0.000000
0.012085 -0.012290 0.000000
0.012083 -0.012573 0.000000
0.012193 -0.012235 0.000000
0.012191 -0.012517 0.000000
0.012301 -0.012178 0.000000
0.012080 -0.012852 0.000000
0.012186 -0.012794 0.000000
0.005689 -0.024384 0.000000
0.006521 -0.025514 0.000000
0.006555 -0.025538 0.000000
0.006515 -0.025431 0.000000
0.002372 -0.010874 0.000000
0.004959 -0.008806 0.000000
0.012462 -0.008691 0.000000
0.005996 -0.024899 0.000000
0.007378 -0.002702 0.000000
0.007309 -0.002261 0.000000
0.006699 -0.026081 0.000000
0.003633 -0.003520 0.000000
0.003553 -0.003091 0.000000
0.003693 -0.003095 0.000000
0.003615 -0.002662 0.000000
0.003474 -0.002658 0.000000
0.003755 -0.002666 0.000000
0.003537 -0.002226 0.000000
0.003396 -0.002223 0.000000
0.002871 -0.015098 0.000000
0.006926 -0.024443 0.000000
0.006955 -0.024581 0.000000
0.002073 -0.009468 0.000000
0.009332 -0.016073 0.000000
0.005844 -0.018402 0.000000
0.011717 -0.002625 0.000000
0.011656 -0.002199 0.000000
0.009505 -0.021597 0.000000
0.006747 -0.026126 0.000000
0.008546 -0.024308 0.000000
0.005683 -0.009218 0.000000
0.005653 -0.024326 0.000000
0.005581 -0.024191 0.000000
0.005617 -0.024266 0.000000
0.005543 -0.024130 0.000000
0.010402 -0.011206 0.000000
0.009087 -0.021245 0.000000
0.006825 -0.003573 0.000000
0.006317 -0.025122 0.000000
0.006279 -0.025092 0.000000
0.009008 -0.022900 0.000000
0.008986 -0.023026 0.000000
0.008912 -0.023200 0.000000
0.002267 -0.004279 0.000000
0.009815 -0.021726 0.000000
0.006344 -0.025508 0.000000
0.006756 -0.026179 0.000000
0.006779 -0.026200 0.000000
0.004410 -0.021665 0.000000
0.004319 -0.021460 0.000000
0.004352 -0.021595 0.000000
0.004259 -0.021390 0.000000
0.004294 -0.021524 0.000000
0.006783 -0.026165 0.000000
0.006824 -0.026213 0.000000
0.002036 -0.005060 0.000000
0.009229 -0.016094 0.000000
0.005205 -0.015849 0.000000
0.007418 -0.025782 0.000000
0.007373 -0.025773 0.000000
0.007367 -0.025829 0.000000
0.006794 -0.026205 0.000000
0.006834 -0.026253 0.000000
0.006864 -0.026257 0.000000
0.006872 -0.026295 0.000000
0.006843 -0.026290 0.000000
0.006881 -0.026332 0.000000
0.006853 -0.026327 0.000000
0.006889 -0.026368 0.000000
0.006863 -0.026361 0.000000
0.006898 -0.026402 0.000000
0.006873 -0.026394 0.000000
0.006906 -0.026434 0.000000
0.006883 -0.026426 0.000000
0.006915 -0.026465 0.000000
0.006893 -0.026456 0.000000
0.006924 -0.026494 0.000000
0.006904 -0.026484 0.000000
0.006933 -0.026521 0.000000
0.006953 -0.026528 0.000000
0.006961 -0.026555 0.000000
0.006942 -0.026548 0.000000
0.006968 -0.026580 0.000000
0.006951 -0.026572 0.000000
0.006976 -0.026604 0.000000
0.006960 -0.026595 0.000000
0.006984 -0.026626 0.000000
0.006969 -0.026617 0.000000
0.006991 -0.026647 0.000000
0.006978 -0.026637 0.000000
0.006999 -0.026666 0.000000
0.006987 -0.026655 0.000000
0.007007 -0.026684 0.000000
0.006997 -0.026672 0.000000
0.007015 -0.026700 0.000000
0.007006 -0.026688 0.000000
0.007023 -0.026715 0.000000
0.007015 -0.026702 0.000000
0.007031 -0.026728 0.000000
0.007025 -0.026714 0.000000
0.007039 -0.026740 0.000000
0.007034 -0.026725 0.000000
0.007047 -0.026750 0.000000
0.007044 -0.026735 0.000000
0.007056 -0.026759 0.000000
0.007053 -0.026743 0.000000
0.007064 -0.026766 0.000000
0.007063 -0.026749 0.000000
0.007072 -0.026772 0.000000
0.007072 -0.026755 0.000000
0.007080 -0.026777 0.000000
0.007082 -0.026758 0.000000
0.007088 -0.026780 0.000000
0.007091 -0.026760 0.000000
0.007097 -0.026781 0.000000
0.007101 -0.026761 0.000000
0.007105 -0.026781 0.000000
0.007110 -0.026760 0.000000
0.007113 -0.026780 0.000000
0.007120 -0.026758 0.000000
0.007121 -0.026777 0.000000
0.007129 -0.026755 0.000000
0.007130 -0.026772 0.000000
0.007139 -0.026749 0.000000
0.007138 -0.026766 0.000000
0.007148 -0.026743 0.000000
0.007146 -0.026759 0.000000
0.007158 -0.026735 0.000000
0.007154 -0.026750 0.000000
0.007167 -0.026725 0.000000
0.007162 -0.026740 0.000000
0.007177 -0.026714 0.000000
0.007170 -0.026728 0.000000
0.007186 -0.026702 0.000000
0.007178 -0.026715 0.000000
0.007196 -0.026688 0.000000
0.007186 -0.026700 0.000000
0.006902 -0.026296 0.000000
0.006931 -0.026438 0.000000
0.006916 -0.026370 0.000000
0.007205 -0.026672 0.000000
0.005136 -0.023041 0.000000
0.009013 -0.021460 0.000000
0.005309 -0.015865 0.000000
0.006085 -0.012459 0.000000
0.006154 -0.012801 0.000000
0.006105 -0.013133 0.000000
0.006222 -0.013138 0.000000
0.006015 -0.012114 0.000000
0.004568 -0.022118 0.000000
0.003665 -0.008699 0.000000
0.007032 -0.003139 0.000000
0.008555 -0.024155 0.000000
0.002117 -0.012290 0.000000
0.006272 -0.012806 0.000000
0.006339 -0.013143 0.000000
0.006390 -0.012810 0.000000
0.006456 -0.013147 0.000000
0.007633 -0.020419 0.000000
0.007664 -0.020640 0.000000
0.008513 -0.006487 0.000000
0.012533 -0.003412 0.000000
0.012443 -0.003828 0.000000
0.006861 -0.026413 0.000000
0.006532 -0.025873 0.000000
0.005363 -0.023544 0.000000
0.008838 -0.023544 0.000000
0.002091 -0.009134 0.000000
0.001987 -0.008762 0.000000
0.002111 -0.008795 0.000000
0.002008 -0.008420 0.000000
0.008963 -0.023149 0.000000
0.006889 -0.025402 0.000000
0.006878 -0.025502 0.000000
0.009039 -0.022974 0.000000
0.001754 -0.006555 0.000000
0.010427 -0.015221 0.000000
0.007262 -0.022869 0.000000
0.007400 -0.021517 0.000000
0.007443 -0.021306 0.000000
0.010571 -0.005594 0.000000
0.006903 -0.020885 0.000000
0.007584 -0.020647 0.000000
0.005633 -0.024195 0.000000
0.011189 -0.016374 0.000000
0.011015 -0.016249 0.000000
0.011331 -0.015098 0.000000
0.006527 -0.021892 0.000000
0.006552 -0.021697 0.000000
0.006824 -0.020882 0.000000
0.010655 -0.018209 0.000000
0.008215 -0.001813 0.000000
0.008355 -0.001813 0.000000
0.010160 -0.019679 0.000000
0.007030 -0.026706 0.000000
0.011849 -0.014043 0.000000
0.006504 -0.022083 0.000000
0.006404 -0.001815 0.000000
0.002750 -0.001772 0.000000
0.006265 -0.001815 0.000000
0.007150 -0.026722 0.000000
0.012444 -0.008353 0.000000
0.012339 -0.008728 0.000000
0.000749 -0.001690 0.000000
0.013073 -0.006047 0.000000
0.007246 -0.026603 0.000000
0.002893 -0.001775 0.000000
0.002971 -0.002212 0.000000
0.003035 -0.001779 0.000000
0.002608 -0.001769 0.000000
0.007195 -0.026683 0.000000
0.012549 -0.007976 0.000000
0.000892 -0.001699 0.000000
0.013177 -0.005653 0.000000
0.013308 -0.005619 0.000000
0.013280 -0.005257 0.000000
0.000607 -0.001679 0.000000
0.011679 -0.015590 0.000000
0.011170 -0.017618 0.000000
0.007814 -0.024951 0.000000
0.010782 -0.018985 0.000000
0.001677 -0.011491 0.000000
0.002398 -0.015047 0.000000
0.002507 -0.015354 0.000000
0.006006 -0.024634 0.000000
0.008450 -0.024345 0.000000
0.001910 -0.012732 0.000000
0.007122 -0.026791 0.000000
0.007046 -0.026750 0.000000
0.006917 -0.026167 0.000000
0.007296 -0.026075 0.000000
0.007321 -0.025817 0.000000
0.007263 -0.026331 0.000000
0.007365 -0.025250 0.000000
0.012748 -0.010194 0.000000
0.002274 -0.014489 0.000000
0.004199 -0.021318 0.000000
0.004165 -0.021180 0.000000
0.005623 -0.024178 0.000000
0.005702 -0.024300 0.000000
0.011928 -0.014489 0.000000
0.007560 -0.025081 0.000000
0.010523 -0.019822 0.000000
0.010912 -0.018544 0.000000
0.008964 -0.023582 0.000000
0.003160 -0.018088 0.000000
0.003137 -0.017890 0.000000
0.013247 -0.006712 0.000000
0.013412 -0.005223 0.000000
0.013382 -0.004859 0.000000
0.010393 -0.020219 0.000000
0.010132 -0.020966 0.000000
0.012051 -0.013918 0.000000
0.009872 -0.021654 0.000000
0.009779 -0.021853 0.000000
0.007431 -0.025128 0.000000
0.000869 -0.005974 0.000000
0.000894 -0.005619 0.000000
0.004460 -0.021975 0.000000
0.012750 -0.010495 0.000000
0.012638 -0.010849 0.000000
0.005752 -0.024200 0.000000
0.005815 -0.024343 0.000000
0.006940 -0.022869 0.000000
0.006912 -0.023043 0.000000
0.006849 -0.023039 0.000000
0.008176 -0.024813 0.000000
0.001676 -0.011201 0.000000
0.001787 -0.011257 0.000000
0.007101 -0.024587 0.000000
0.007149 -0.024586 0.000000
0.008800 -0.023868 0.000000
0.008764 -0.023939 0.000000
0.008836 -0.023796 0.000000
0.005022 -0.023180 0.000000
0.004979 -0.023107 0.000000
0.003219 -0.017958 0.000000
0.003115 -0.017687 0.000000
0.003032 -0.017617 0.000000
0.003010 -0.017412 0.000000
0.003094 -0.017479 0.000000
0.002989 -0.017201 0.000000
0.002904 -0.017132 0.000000
0.002883 -0.016919 0.000000
0.008669 -0.022147 0.000000
0.008736 -0.021946 0.000000
0.010893 -0.005973 0.000000
0.010282 -0.011225 0.000000
0.010312 -0.011560 0.000000
0.004053 -0.008738 0.000000
0.004096 -0.008367 0.000000
0.002652 -0.013668 0.000000
0.005754 -0.013112 0.000000
0.004896 -0.020947 0.000000
0.004974 -0.021168 0.000000
0.004817 -0.020723 0.000000
0.007967 -0.024479 0.000000
0.008013 -0.024452 0.000000
0.007921 -0.024504 0.000000
0.005521 -0.013095 0.000000
0.003680 -0.017670 0.000000
0.003583 -0.017393 0.000000
0.007911 -0.025450 0.000000
0.007461 -0.023365 0.000000
0.007401 -0.023373 0.000000
0.003072 -0.015456 0.000000
0.003173 -0.015758 0.000000
0.003179 -0.016006 0.000000
0.003274 -0.016056 0.000000
0.003280 -0.016301 0.000000
0.006389 -0.025623 0.000000
0.007688 -0.024610 0.000000
0.007641 -0.024627 0.000000
0.009964 -0.016456 0.000000
0.010940 -0.006366 0.000000
0.007781 -0.024572 0.000000
0.005288 -0.013074 0.000000
0.006550 -0.025455 0.000000
0.006510 -0.025344 0.000000
0.006589 -0.025561 0.000000
0.007809 -0.025563 0.000000
0.007830 -0.025511 0.000000
0.001156 -0.002956 0.000000
0.001208 -0.002551 0.000000
0.005529 -0.016752 0.000000
0.004707 -0.013007 0.000000
0.010576 -0.011845 0.000000
0.005830 -0.024648 0.000000
0.005898 -0.024767 0.000000
0.011229 -0.013521 0.000000
0.005851 -0.021152 0.000000
0.005776 -0.021131 0.000000
0.010142 -0.019863 0.000000
0.010068 -0.019920 0.000000
0.004409 -0.019741 0.000000
0.004322 -0.019496 0.000000
0.004109 -0.010558 0.000000
0.004860 -0.022004 0.000000
0.005974 -0.024876 0.000000
0.007714 -0.025788 0.000000
0.007693 -0.025837 0.000000
0.003581 -0.012484 0.000000
0.003675 -0.012822 0.000000
0.007358 -0.026290 0.000000
0.006694 -0.025491 0.000000
0.006752 -0.025546 0.000000
0.006803 -0.025534 0.000000
0.006810 -0.025597 0.000000
0.004597 -0.002683 0.000000
0.004522 -0.002244 0.000000
0.004381 -0.002242 0.000000
0.006311 -0.025496 0.000000
0.011028 -0.014168 0.000000
0.003933 -0.009825 0.000000
0.007736 -0.025762 0.000000
0.009084 -0.023291 0.000000
0.012710 -0.002572 0.000000
0.012796 -0.002149 0.000000
0.005978 -0.020553 0.000000
0.005998 -0.020338 0.000000
0.009453 -0.008414 0.000000
0.009584 -0.008405 0.000000
0.005556 -0.022929 0.000000
0.005622 -0.023108 0.000000
0.003838 -0.007195 0.000000
0.002419 -0.009901 0.000000
0.002709 -0.011298 0.000000
0.002810 -0.011647 0.000000
0.002925 -0.011680 0.000000
0.007602 -0.024762 0.000000
0.007595 -0.024642 0.000000
0.007735 -0.025617 0.000000
0.005942 -0.020970 0.000000
0.004130 -0.018569 0.000000
0.004137 -0.018784 0.000000
0.007447 -0.003139 0.000000
0.012075 -0.013126 0.000000
0.012180 -0.013065 0.000000
0.012291 -0.012732 0.000000
0.002017 -0.011058 0.000000
0.004951 -0.003123 0.000000
0.006360 -0.015972 0.000000
0.006466 -0.015978 0.000000
0.006255 -0.015966 0.000000
0.003173 -0.007136 0.000000
0.003082 -0.006740 0.000000
0.009147 -0.013050 0.000000
0.009183 -0.013371 0.000000
0.004655 -0.021693 0.000000
0.004633 -0.021543 0.000000
0.004696 -0.021597 0.000000
0.004612 -0.021387 0.000000
0.004547 -0.021332 0.000000
0.004526 -0.021174 0.000000
0.004461 -0.021118 0.000000
0.004440 -0.020956 0.000000
0.004373 -0.020899 0.000000
0.005766 -0.024527 0.000000
0.007140 -0.020889 0.000000
0.007696 -0.025253 0.000000
0.007737 -0.025134 0.000000
0.010834 -0.015071 0.000000
0.012052 -0.010479 0.000000
0.011934 -0.010518 0.000000
0.006164 -0.025104 0.000000
0.002588 -0.006299 0.000000
0.002495 -0.005899 0.000000
0.002682 -0.006697 0.000000
0.009250 -0.022557 0.000000
0.006585 -0.009241 0.000000
0.006646 -0.008862 0.000000
0.006578 -0.008478 0.000000
0.006338 -0.025528 0.000000
0.010166 -0.020821 0.000000
0.005608 -0.008837 0.000000
0.005738 -0.008842 0.000000
0.005208 -0.021969 0.000000
0.007640 -0.025617 0.000000
0.007694 -0.022641 0.000000
0.009585 -0.013949 0.000000
0.009612 -0.014253 0.000000
0.002883 -0.010352 0.000000
0.007724 -0.003138 0.000000
0.007430 -0.022677 0.000000
0.007948 -0.025268 0.000000
0.007966 -0.025191 0.000000
0.001554 -0.005766 0.000000
0.006570 -0.025839 0.000000
0.006554 -0.025791 0.000000
0.011115 -0.009347 0.000000
0.011020 -0.009718 0.000000
0.011211 -0.008974 0.000000
0.007639 -0.025889 0.000000
0.007375 -0.015082 0.000000
0.007426 -0.015388 0.000000
0.008531 -0.021859 0.000000
0.008600 -0.021832 0.000000
0.008068 -0.003570 0.000000
0.002406 -0.004290 0.000000
0.009675 -0.011305 0.000000
0.007434 -0.020205 0.000000
0.008117 -0.012459 0.000000
0.008048 -0.012801 0.000000
0.008097 -0.013133 0.000000
0.007980 -0.013138 0.000000
0.008029 -0.013467 0.000000
0.007913 -0.013472 0.000000
0.004702 -0.004818 0.000000
0.006985 -0.026325 0.000000
0.006962 -0.026317 0.000000
0.006942 -0.026249 0.000000
0.006939 -0.026307 0.000000
0.006917 -0.026238 0.000000
0.006916 -0.026296 0.000000
0.009322 -0.008421 0.000000
0.007557 -0.025879 0.000000
0.009285 -0.022850 0.000000
0.007614 -0.020864 0.000000
0.007693 -0.020856 0.000000
0.006289 -0.023867 0.000000
0.006285 -0.024003 0.000000
0.006232 -0.023981 0.000000
0.006282 -0.024135 0.000000
0.006231 -0.024112 0.000000
0.006969 -0.022690 0.000000
0.006090 -0.023041 0.000000
0.006097 -0.022881 0.000000
0.011632 -0.011883 0.000000
0.011622 -0.011575 0.000000
0.007988 -0.016256 0.000000
0.007925 -0.016549 0.000000
0.007862 -0.024961 0.000000
0.007398 -0.019974 0.000000
0.008207 -0.011416 0.000000
0.006121 -0.025068 0.000000
0.011971 -0.013184 0.000000
0.004643 -0.005231 0.000000
0.004722 -0.005645 0.000000
0.007323 -0.014772 0.000000
0.003713 -0.003946 0.000000
0.005712 -0.020909 0.000000
0.005701 -0.021108 0.000000
0.006771 -0.021719 0.000000
0.006449 -0.025677 0.000000
0.008347 -0.020085 0.000000
0.008243 -0.024868 0.000000
0.008275 -0.024816 0.000000
0.008341 -0.024695 0.000000
0.007961 -0.013796 0.000000
0.008101 -0.010707 0.000000
0.008226 -0.010703 0.000000
0.009462 -0.021896 0.000000
0.002357 -0.004692 0.000000
0.007931 -0.025227 0.000000
0.007982 -0.025111 0.000000
0.007851 -0.010714 0.000000
0.007726 -0.010717 0.000000
0.006807 -0.025942 0.000000
0.006848 -0.025936 0.000000
0.007847 -0.013801 0.000000
0.007382 -0.014456 0.000000
0.004810 -0.020536 0.000000
0.008864 -0.022045 0.000000
0.009524 -0.022253 0.000000
0.004997 -0.015813 0.000000
0.004893 -0.015793 0.000000
0.005903 -0.010337 0.000000
0.005851 -0.010697 0.000000
0.003446 -0.008302 0.000000
0.006522 -0.025366 0.000000
0.005939 -0.015941 0.000000
0.005833 -0.015930 0.000000
0.007680 -0.025690 0.000000
0.008577 -0.019806 0.000000
0.008645 -0.019561 0.000000
0.008627 -0.019332 0.000000
0.008714 -0.019311 0.000000
0.008511 -0.020047 0.000000
0.011796 -0.004290 0.000000
0.010681 -0.019235 0.000000
0.007629 -0.025905 0.000000
0.009179 -0.010289 0.000000
0.006825 -0.018750 0.000000
0.006733 -0.018746 0.000000
0.006917 -0.018752 0.000000
0.006961 -0.018496 0.000000
0.007887 -0.025498 0.000000
0.004007 -0.014723 0.000000
0.004024 -0.014434 0.000000
0.010068 -0.020809 0.000000
0.008066 -0.016823 0.000000
0.008487 -0.024297 0.000000
0.008528 -0.024247 0.000000
0.006391 -0.025485 0.000000
0.006410 -0.025539 0.000000
0.007322 -0.026476 0.000000
0.007351 -0.026425 0.000000
0.010737 -0.010808 0.000000
0.003877 -0.015254 0.000000
0.003775 -0.015221 0.000000
0.003980 -0.015286 0.000000
0.008403 -0.024549 0.000000
0.008696 -0.019079 0.000000
0.008784 -0.019058 0.000000
0.010632 -0.016928 0.000000
0.008110 -0.006496 0.000000
0.008038 -0.006899 0.000000
0.008099 -0.007297 0.000000
0.007966 -0.007299 0.000000
0.007904 -0.006901 0.000000
0.007833 -0.007301 0.000000
0.007770 -0.006903 0.000000
0.007700 -0.007303 0.000000
0.007636 -0.006905 0.000000
0.007567 -0.007304 0.000000
0.007502 -0.006906 0.000000
0.005703 -0.018879 0.000000
0.005613 -0.018861 0.000000
0.006688 -0.016571 0.000000
0.006745 -0.016859 0.000000
0.003358 -0.005576 0.000000
0.011499 -0.007832 0.000000
0.011595 -0.007446 0.000000
0.011558 -0.007074 0.000000
0.011690 -0.007056 0.000000
0.007583 -0.019486 0.000000
0.005923 -0.011059 0.000000
0.005799 -0.011053 0.000000
0.006841 -0.025493 0.000000
0.003126 -0.006354 0.000000
0.006717 -0.025891 0.000000
0.006580 -0.025940 0.000000
0.011575 -0.002631 0.000000
0.011514 -0.002204 0.000000
0.011593 -0.001769 0.000000
0.011451 -0.001772 0.000000
0.006893 -0.026227 0.000000
0.006893 -0.026284 0.000000
0.007430 -0.026285 0.000000
0.007448 -0.026258 0.000000
0.006816 -0.026281 0.000000
0.006287 -0.025304 0.000000
0.006270 -0.025227 0.000000
0.009982 -0.013251 0.000000
0.009895 -0.013582 0.000000
0.010070 -0.012916 0.000000
0.008168 -0.019180 0.000000
0.008256 -0.019166 0.000000
0.008079 -0.019192 0.000000
0.010265 -0.017104 0.000000
0.010263 -0.016859 0.000000
0.006509 -0.012814 0.000000
0.006573 -0.013151 0.000000
0.003373 -0.016351 0.000000
0.006590 -0.025810 0.000000
0.006538 -0.025742 0.000000
0.006501 -0.025720 0.000000
0.006315 -0.025498 0.000000
0.006346 -0.025541 0.000000
0.008624 -0.024009 0.000000
0.007749 -0.025710 0.000000
0.001522 -0.006136 0.000000
0.006839 -0.026350 0.000000
0.011372 -0.002208 0.000000
0.011309 -0.001775 0.000000
0.012737 -0.001730 0.000000
0.012881 -0.001723 0.000000
0.003379 -0.016592 0.000000
0.010264 -0.017345 0.000000
0.010173 -0.017623 0.000000
0.007635 -0.019238 0.000000
0.007724 -0.019231 0.000000
0.011879 -0.001761 0.000000
0.012022 -0.001756 0.000000
0.010844 -0.005576 0.000000
0.006976 -0.025618 0.000000
0.007011 -0.025622 0.000000
0.007256 -0.021103 0.000000
0.011633 -0.014676 0.000000
0.009298 -0.021905 0.000000
0.009219 -0.022105 0.000000
0.005508 -0.023858 0.000000
0.010417 -0.014944 0.000000
0.010325 -0.015254 0.000000
0.006935 -0.026560 0.000000
0.007378 -0.023208 0.000000
0.010250 -0.016094 0.000000
0.010670 -0.017999 0.000000
0.010769 -0.017728 0.000000
0.006956 -0.026603 0.000000
0.011203 -0.012639 0.000000
0.005674 -0.024247 0.000000
0.006977 -0.026640 0.000000
0.010270 -0.019242 0.000000
0.010364 -0.018990 0.000000
0.010443 -0.018932 0.000000
0.007797 -0.001815 0.000000
0.011324 -0.015351 0.000000
0.009713 -0.020843 0.000000
0.009627 -0.021063 0.000000
0.009800 -0.020618 0.000000
0.011405 -0.011958 0.000000
0.007518 -0.001816 0.000000
0.006998 -0.026671 0.000000
0.012024 -0.009833 0.000000
0.007052 -0.026722 0.000000
0.005148 -0.001808 0.000000
0.005288 -0.001809 0.000000
0.007074 -0.026733 0.000000
0.004447 -0.001801 0.000000
0.004588 -0.001803 0.000000
0.004307 -0.001800 0.000000
0.003460 -0.001787 0.000000
0.003602 -0.001789 0.000000
0.007095 -0.026737 0.000000
0.012864 -0.006826 0.000000
0.007117 -0.026735 0.000000
0.007171 -0.026706 0.000000
0.007193 -0.026684 0.000000
0.007214 -0.026656 0.000000
0.012284 -0.013002 0.000000
0.008400 -0.024386 0.000000
0.010229 -0.020748 0.000000
0.006922 -0.026210 0.000000
0.007316 -0.025872 0.000000
0.007290 -0.026122 0.000000
0.007360 -0.025319 0.000000
0.007326 -0.025761 0.000000
0.009835 -0.021780 0.000000
0.009742 -0.021975 0.000000
0.013354 -0.006324 0.000000
0.001918 -0.013002 0.000000
0.011276 -0.017342 0.000000
0.000764 -0.005582 0.000000
0.000790 -0.005224 0.000000
0.011662 -0.015821 0.000000
0.007757 -0.024953 0.000000
0.003185 -0.018282 0.000000
0.006060 -0.024660 0.000000
0.006134 -0.024755 0.000000
0.010096 -0.021107 0.000000
0.002796 -0.016849 0.000000
0.002776 -0.016633 0.000000
0.001680 -0.011776 0.000000
0.013515 -0.004826 0.000000
0.013484 -0.004459 0.000000
0.005022 -0.023194 0.000000
0.004498 -0.022093 0.000000
0.000847 -0.006324 0.000000
0.005673 -0.024226 0.000000
0.005751 -0.024345 0.000000
0.010755 -0.019163 0.000000
0.004104 -0.021107 0.000000
0.004069 -0.020966 0.000000
0.004235 -0.021451 0.000000
0.001564 -0.011142 0.000000
0.005543 -0.024051 0.000000
0.002413 -0.015286 0.000000
0.002523 -0.015590 0.000000
0.007169 -0.026724 0.000000
0.007156 -0.026750 0.000000
0.007142 -0.026771 0.000000
0.007108 -0.026797 0.000000
0.007094 -0.026797 0.000000
0.007081 -0.026793 0.000000
0.007066 -0.026779 0.000000
0.007032 -0.026724 0.000000
0.007019 -0.026691 0.000000
0.007006 -0.026653 0.000000
0.006993 -0.026608 0.000000
0.006981 -0.026557 0.000000
0.006975 -0.026530 0.000000
0.006861 -0.025581 0.000000
0.006866 -0.025643 0.000000
0.007208 -0.026608 0.000000
0.007215 -0.026583 0.000000
0.007202 -0.026630 0.000000
0.007251 -0.026403 0.000000
0.006846 -0.025387 0.000000
0.006841 -0.025319 0.000000
0.006779 -0.025269 0.000000
0.006837 -0.025249 0.000000
0.006773 -0.025199 0.000000
0.006832 -0.025178 0.000000
0.006767 -0.025126 0.000000
0.006707 -0.025143 0.000000
0.006700 -0.025070 0.000000
0.006640 -0.025084 0.000000
0.006827 -0.025105 0.000000
0.007274 -0.026252 0.000000
0.012750 -0.010790 0.000000
0.012637 -0.011142 0.000000
0.005723 -0.024272 0.000000
0.005802 -0.024386 0.000000
0.002818 -0.017061 0.000000
0.006885 -0.023213 0.000000
0.005601 -0.023790 0.000000
0.007167 -0.022692 0.000000
0.003075 -0.017268 0.000000
0.004937 -0.023016 0.000000
0.004891 -0.022942 0.000000
0.004849 -0.022847 0.000000
0.006824 -0.023208 0.000000
0.007279 -0.026210 0.000000
0.006844 -0.024295 0.000000
0.005533 -0.023630 0.000000
0.008603 -0.022344 0.000000
0.008601 -0.022506 0.000000
0.003319 -0.001784 0.000000
0.007124 -0.024718 0.000000
0.007171 -0.024717 0.000000
0.007077 -0.024718 0.000000
0.008538 -0.022538 0.000000
0.006947 -0.023217 0.000000
0.005581 -0.024204 0.000000
0.007004 -0.022872 0.000000
0.005506 -0.024067 0.000000
0.008772 -0.023926 0.000000
0.005796 -0.024243 0.000000
0.005858 -0.024386 0.000000
0.003593 -0.017619 0.000000
0.008890 -0.023715 0.000000
0.006405 -0.013476 0.000000
0.006982 -0.020888 0.000000
0.001564 -0.010849 0.000000
0.003113 -0.002216 0.000000
0.002386 -0.010555 0.000000
0.007387 -0.026172 0.000000
0.012852 -0.002562 0.000000
0.003040 -0.007122 0.000000
0.002133 -0.008450 0.000000
0.011241 -0.009326 0.000000
0.004241 -0.002239 0.000000
0.004166 -0.001798 0.000000
0.004100 -0.002237 0.000000
0.004025 -0.001796 0.000000
0.002057 -0.007718 0.000000
0.005731 -0.016780 0.000000
0.012582 -0.003814 0.000000
0.001297 -0.002970 0.000000
0.001349 -0.002562 0.000000
0.001263 -0.002140 0.000000
0.001405 -0.002149 0.000000
0.001491 -0.002572 0.000000
0.001548 -0.002157 0.000000
0.001633 -0.002581 0.000000
0.001691 -0.002164 0.000000
0.001775 -0.002590 0.000000
0.001833 -0.002171 0.000000
0.001720 -0.003004 0.000000
0.001608 -0.001736 0.000000
0.001321 -0.001723 0.000000
0.001178 -0.001716 0.000000
0.007462 -0.026113 0.000000
0.006057 -0.020569 0.000000
0.003094 -0.007886 0.000000
0.007696 -0.025637 0.000000
0.004790 -0.013342 0.000000
0.010192 -0.011579 0.000000
0.010221 -0.011909 0.000000
0.010161 -0.011243 0.000000
0.006841 -0.025883 0.000000
0.006890 -0.025925 0.000000
0.006885 -0.025872 0.000000
0.006896 -0.025977 0.000000
0.005474 -0.017292 0.000000
0.003414 -0.011472 0.000000
0.003319 -0.011119 0.000000
0.011537 -0.012524 0.000000
0.001698 -0.007277 0.000000
0.006544 -0.001815 0.000000
0.011028 -0.007136 0.000000
0.011119 -0.006740 0.000000
0.006851 -0.025453 0.000000
0.007664 -0.025857 0.000000
0.003696 -0.012509 0.000000
0.011298 -0.017132 0.000000
0.007146 -0.024845 0.000000
0.007192 -0.024843 0.000000
0.007219 -0.024714 0.000000
0.007238 -0.024840 0.000000
0.007266 -0.024710 0.000000
0.007284 -0.024835 0.000000
0.007313 -0.024705 0.000000
0.007329 -0.024829 0.000000
0.007360 -0.024698 0.000000
0.007375 -0.024821 0.000000
0.007407 -0.024689 0.000000
0.007420 -0.024812 0.000000
0.007454 -0.024680 0.000000
0.007466 -0.024802 0.000000
0.002757 -0.013992 0.000000
0.003844 -0.009453 0.000000
0.001421 -0.005741 0.000000
0.006816 -0.025657 0.000000
0.006870 -0.025703 0.000000
0.008579 -0.024177 0.000000
0.008659 -0.024051 0.000000
0.007225 -0.026640 0.000000
0.002911 -0.011993 0.000000
0.009885 -0.017002 0.000000
0.007546 -0.019244 0.000000
0.007501 -0.024668 0.000000
0.012759 -0.007212 0.000000
0.012368 -0.002171 0.000000
0.012451 -0.001742 0.000000
0.012308 -0.001747 0.000000
0.010852 -0.006765 0.000000
0.008888 -0.023697 0.000000
0.008924 -0.023608 0.000000
0.011946 -0.010835 0.000000
0.007557 -0.024776 0.000000
0.008868 -0.020780 0.000000
0.008798 -0.021004 0.000000
0.008802 -0.021195 0.000000
0.008729 -0.021224 0.000000
0.008733 -0.021411 0.000000
0.008940 -0.020552 0.000000
0.004125 -0.018350 0.000000
0.006207 -0.025136 0.000000
0.008017 -0.024335 0.000000
0.008065 -0.024307 0.000000
0.007634 -0.024503 0.000000
0.005838 -0.021349 0.000000
0.005911 -0.021369 0.000000
0.004046 -0.018524 0.000000
0.004054 -0.018737 0.000000
0.003962 -0.018476 0.000000
0.013437 -0.005583 0.000000
0.004145 -0.018994 0.000000
0.004064 -0.018946 0.000000
0.009534 -0.008026 0.000000
0.009666 -0.008018 0.000000
0.006173 -0.013467 0.000000
0.006057 -0.013461 0.000000
0.005280 -0.022169 0.000000
0.008365 -0.024439 0.000000
0.008343 -0.024530 0.000000
0.008386 -0.024343 0.000000
0.011553 -0.016118 0.000000
0.008472 -0.023799 0.000000
0.003689 -0.017892 0.000000
0.010937 -0.007528 0.000000
0.004442 -0.010948 0.000000
0.011220 -0.015654 0.000000
0.010256 -0.016354 0.000000
0.005134 -0.021764 0.000000
0.007293 -0.026517 0.000000
0.005663 -0.008457 0.000000
0.005794 -0.008461 0.000000
0.007669 -0.025873 0.000000
0.007648 -0.025918 0.000000
0.012744 -0.009888 0.000000
0.012860 -0.009833 0.000000
0.012856 -0.009525 0.000000
0.006664 -0.026001 0.000000
0.006675 -0.026055 0.000000
0.004402 -0.020618 0.000000
0.004332 -0.020564 0.000000
0.009162 -0.021026 0.000000
0.009157 -0.021207 0.000000
0.009263 -0.013036 0.000000
0.009297 -0.013357 0.000000
0.009378 -0.013022 0.000000
0.009201 -0.022252 0.000000
0.007828 -0.024551 0.000000
0.007826 -0.024431 0.000000
0.007874 -0.024409 0.000000
0.008147 -0.024968 0.000000
0.005520 -0.017831 0.000000
0.005497 -0.018086 0.000000
0.007784 -0.024801 0.000000
0.005987 -0.024863 0.000000
0.005320 -0.023727 0.000000
0.005366 -0.023796 0.000000
0.005283 -0.023654 0.000000
0.007436 -0.026227 0.000000
0.008673 -0.023805 0.000000
0.007848 -0.025370 0.000000
0.004825 -0.020906 0.000000
0.004744 -0.020681 0.000000
0.003509 -0.011821 0.000000
0.003752 -0.006798 0.000000
0.005679 -0.023143 0.000000
0.005686 -0.023284 0.000000
0.005742 -0.023318 0.000000
0.005749 -0.023455 0.000000
0.005803 -0.023489 0.000000
0.005810 -0.023622 0.000000
0.005863 -0.023655 0.000000
0.005870 -0.023784 0.000000
0.005922 -0.023817 0.000000
0.005929 -0.023943 0.000000
0.005979 -0.023975 0.000000
0.005973 -0.023848 0.000000
0.006029 -0.024005 0.000000
0.006025 -0.023878 0.000000
0.006079 -0.024034 0.000000
0.005857 -0.023521 0.000000
0.005819 -0.023750 0.000000
0.006077 -0.023906 0.000000
0.006084 -0.024158 0.000000
0.006130 -0.024062 0.000000
0.005969 -0.023717 0.000000
0.007917 -0.025451 0.000000
0.006211 -0.023082 0.000000
0.002314 -0.007768 0.000000
0.009741 -0.021118 0.000000
0.002251 -0.013982 0.000000
0.005661 -0.016489 0.000000
0.006695 -0.006095 0.000000
0.009557 -0.013640 0.000000
0.010831 -0.010448 0.000000
0.007241 -0.026555 0.000000
0.007221 -0.026557 0.000000
0.010357 -0.017063 0.000000
0.007863 -0.013143 0.000000
0.009887 -0.019293 0.000000
0.009894 -0.019085 0.000000
0.009807 -0.019337 0.000000
0.007619 -0.025294 0.000000
0.011036 -0.014985 0.000000
0.011035 -0.014718 0.000000
0.003681 -0.014911 0.000000
0.006079 -0.020353 0.000000
0.013394 -0.001276 0.000000
0.004154 -0.019199 0.000000
0.007753 -0.025677 0.000000
0.009022 -0.022393 0.000000
0.001471 -0.009260 0.000000
0.001353 -0.009211 0.000000
0.001346 -0.009525 0.000000
0.001234 -0.009158 0.000000
0.001242 -0.008842 0.000000
0.008485 -0.023677 0.000000
0.003051 -0.002646 0.000000
0.007521 -0.025965 0.000000
0.008549 -0.023512 0.000000
0.005234 -0.015561 0.000000
0.005261 -0.021671 0.000000
0.005329 -0.021706 0.000000
0.005171 -0.013062 0.000000
0.006145 -0.025128 0.000000
0.006711 -0.026131 0.000000
0.011403 -0.008216 0.000000
0.010391 -0.012533 0.000000
0.003495 -0.017342 0.000000
0.012526 -0.011201 0.000000
0.007471 -0.022490 0.000000
0.007539 -0.022482 0.000000
0.007602 -0.025891 0.000000
0.004430 -0.020127 0.000000
0.002835 -0.009303 0.000000
0.008537 -0.022696 0.000000
0.008475 -0.022727 0.000000
0.008474 -0.022881 0.000000
0.008414 -0.022912 0.000000
0.008412 -0.023063 0.000000
0.008353 -0.023092 0.000000
0.008354 -0.022940 0.000000
0.008295 -0.023120 0.000000
0.007318 -0.015390 0.000000
0.008144 -0.013461 0.000000
0.004547 -0.003972 0.000000
0.006246 -0.008086 0.000000
0.006114 -0.008083 0.000000
0.006377 -0.008088 0.000000
0.007884 -0.016263 0.000000
0.007822 -0.016556 0.000000
0.007863 -0.016839 0.000000
0.007762 -0.016845 0.000000
0.007719 -0.016562 0.000000
0.007660 -0.016851 0.000000
0.007616 -0.016567 0.000000
0.005694 -0.016206 0.000000
0.005590 -0.016193 0.000000
0.005623 -0.015907 0.000000
0.005519 -0.015894 0.000000
0.007392 -0.024562 0.000000
0.004227 -0.008377 0.000000
0.009029 -0.022768 0.000000
0.006332 -0.024157 0.000000
0.006329 -0.024285 0.000000
0.008596 -0.021652 0.000000
0.008526 -0.021679 0.000000
0.007295 -0.024576 0.000000
0.005468 -0.023990 0.000000
0.005663 -0.022538 0.000000
0.003186 -0.016249 0.000000
0.008913 -0.014042 0.000000
0.009845 -0.010587 0.000000
0.009969 -0.010573 0.000000
0.010055 -0.010208 0.000000
0.007535 -0.020871 0.000000
0.004481 -0.010600 0.000000
0.010895 -0.009738 0.000000
0.008609 -0.019099 0.000000
0.007468 -0.026008 0.000000
0.003886 -0.006807 0.000000
0.003971 -0.007205 0.000000
0.003966 -0.008355 0.000000
0.009326 -0.017428 0.000000
0.006180 -0.023958 0.000000
0.004637 -0.007246 0.000000
0.005457 -0.016460 0.000000
0.007521 -0.023357 0.000000
0.007999 -0.025283 0.000000
0.007969 -0.025326 0.000000
0.007944 -0.025387 0.000000
0.007992 -0.025260 0.000000
0.006936 -0.024710 0.000000
0.006983 -0.024714 0.000000
0.006791 -0.025165 0.000000
0.006781 -0.025271 0.000000
0.006749 -0.025154 0.000000
0.007463 -0.025786 0.000000
0.006786 -0.023033 0.000000
0.006762 -0.023201 0.000000
0.006723 -0.023026 0.000000
0.006701 -0.023193 0.000000
0.006660 -0.023017 0.000000
0.006639 -0.023184 0.000000
0.004532 -0.021577 0.000000
0.006987 -0.021317 0.000000
0.009117 -0.017216 0.000000
0.007369 -0.015692 0.000000
0.005799 -0.017067 0.000000
0.007857 -0.022244 0.000000
0.006625 -0.021706 0.000000
0.006578 -0.021497 0.000000
0.009982 -0.018829 0.000000
0.009899 -0.018872 0.000000
0.009987 -0.018613 0.000000
0.009903 -0.018655 0.000000
0.009991 -0.018392 0.000000
0.010077 -0.018350 0.000000
0.007740 -0.024930 0.000000
0.007783 -0.024908 0.000000
0.007009 -0.018754 0.000000
0.003788 -0.012847 0.000000
0.004675 -0.013326 0.000000
0.004592 -0.012991 0.000000
0.006188 -0.017924 0.000000
0.005700 -0.017054 0.000000
0.005720 -0.008073 0.000000
0.008014 -0.011774 0.000000
0.009073 -0.015545 0.000000
0.008086 -0.021619 0.000000
0.007675 -0.016274 0.000000
0.007571 -0.016279 0.000000
0.007476 -0.015689 0.000000
0.004624 -0.015160 0.000000
0.002546 -0.013342 0.000000
0.008382 -0.024484 0.000000
0.007308 -0.003139 0.000000
0.007280 -0.012482 0.000000
0.005741 -0.024386 0.000000
0.005126 -0.021596 0.000000
0.005059 -0.021556 0.000000
0.004993 -0.018701 0.000000
0.006631 -0.016279 0.000000
0.008819 -0.022812 0.000000
0.010770 -0.013073 0.000000
0.004939 -0.017954 0.000000
0.010097 -0.007214 0.000000
0.009714 -0.008397 0.000000
0.009797 -0.008009 0.000000
0.009845 -0.008387 0.000000
0.009929 -0.008000 0.000000
0.009975 -0.008377 0.000000
0.008168 -0.016814 0.000000
0.010511 -0.014631 0.000000
0.007035 -0.022692 0.000000
0.006295 -0.023726 0.000000
0.006343 -0.023887 0.000000
0.006350 -0.023745 0.000000
0.007032 -0.025719 0.000000
0.007047 -0.025625 0.000000
0.008874 -0.012746 0.000000
0.008951 -0.012404 0.000000
0.005608 -0.020026 0.000000
0.006546 -0.025367 0.000000
0.006506 -0.025253 0.000000
0.006468 -0.025230 0.000000
0.005361 -0.002253 0.000000
0.005428 -0.001810 0.000000
0.005500 -0.002254 0.000000
0.005568 -0.001811 0.000000
0.009400 -0.019316 0.000000
0.007519 -0.021300 0.000000
0.005779 -0.024418 0.000000
0.006850 -0.026428 0.000000
0.007049 -0.024311 0.000000
0.007918 -0.022938 0.000000
0.007868 -0.023118 0.000000
0.007929 -0.023101 0.000000
0.007880 -0.023277 0.000000
0.007940 -0.023259 0.000000
0.007890 -0.023431 0.000000
0.007832 -0.023449 0.000000
0.006929 -0.026039 0.000000
0.007377 -0.003573 0.000000
0.007516 -0.025731 0.000000
0.007359 -0.026075 0.000000
0.005636 -0.020886 0.000000
0.008804 -0.021381 0.000000
0.007778 -0.024451 0.000000
0.005834 -0.019387 0.000000
0.005857 -0.019151 0.000000
0.005920 -0.019402 0.000000
0.003464 -0.009405 0.000000
0.005403 -0.005666 0.000000
0.006601 -0.010720 0.000000
0.006449 -0.025563 0.000000
0.007670 -0.025882 0.000000
0.005626 -0.021084 0.000000
0.005691 -0.021303 0.000000
0.005757 -0.009595 0.000000
0.007418 -0.015989 0.000000
0.005969 -0.022993 0.000000
0.003807 -0.009810 0.000000
0.003897 -0.010178 0.000000
0.008736 -0.021594 0.000000
0.008352 -0.023240 0.000000
0.003025 -0.012025 0.000000
0.003041 -0.011711 0.000000
0.002738 -0.007464 0.000000
0.009103 -0.013702 0.000000
0.007066 -0.025722 0.000000
0.007083 -0.025627 0.000000
0.006415 -0.025549 0.000000
0.006214 -0.016256 0.000000
0.008620 -0.020453 0.000000
0.005533 -0.012086 0.000000
0.006020 -0.020118 0.000000
0.006103 -0.020132 0.000000
0.002030 -0.013332 0.000000
0.009362 -0.013984 0.000000
0.007718 -0.014447 0.000000
0.007669 -0.014130 0.000000
0.007555 -0.014134 0.000000
0.003523 -0.018748 0.000000
0.003502 -0.018553 0.000000
0.003402 -0.018291 0.000000
0.003602 -0.018812 0.000000
0.006141 -0.025042 0.000000
0.007794 -0.010352 0.000000
0.007489 -0.024543 0.000000
0.007537 -0.024531 0.000000
0.006044 -0.015950 0.000000
0.007249 -0.026528 0.000000
0.007227 -0.026530 0.000000
0.007256 -0.026499 0.000000
0.007233 -0.026500 0.000000
0.008729 -0.019539 0.000000
0.007417 -0.025338 0.000000
0.007355 -0.025387 0.000000
0.008196 -0.024870 0.000000
0.006043 -0.019893 0.000000
0.000921 -0.005257 0.000000
0.004142 -0.007990 0.000000
0.006304 -0.025376 0.000000
0.008422 -0.002256 0.000000
0.008494 -0.001812 0.000000
0.008562 -0.002255 0.000000
0.008634 -0.001811 0.000000
0.008701 -0.002254 0.000000
0.008774 -0.001810 0.000000
0.008837 -0.014365 0.000000
0.008725 -0.014377 0.000000
0.005489 -0.022745 0.000000
0.008059 -0.024423 0.000000
0.006354 -0.025481 0.000000
0.009721 -0.010600 0.000000
0.006037 -0.020781 0.000000
0.008118 -0.025095 0.000000
0.008762 -0.014684 0.000000
0.008652 -0.014696 0.000000
0.007762 -0.007698 0.000000
0.001758 -0.008353 0.000000
0.008307 -0.012108 0.000000
0.005167 -0.009194 0.000000
0.003933 -0.014113 0.000000
0.004042 -0.014140 0.000000
0.003951 -0.013816 0.000000
0.003080 -0.013561 0.000000
0.005640 -0.002255 0.000000
0.005707 -0.001812 0.000000
0.005779 -0.002256 0.000000
0.005847 -0.001813 0.000000
0.005918 -0.002257 0.000000
0.005986 -0.001813 0.000000
0.003768 -0.013157 0.000000
0.008593 -0.020026 0.000000
0.002443 -0.013566 0.000000
0.004405 -0.011291 0.000000
0.004283 -0.011276 0.000000
0.004370 -0.011630 0.000000
0.002723 -0.006314 0.000000
0.009701 -0.021865 0.000000
0.007513 -0.016571 0.000000
0.007990 -0.023082 0.000000
0.007999 -0.023239 0.000000
0.008051 -0.023062 0.000000
0.008058 -0.023218 0.000000
0.004978 -0.022685 0.000000
0.004383 -0.018472 0.000000
0.004296 -0.018206 0.000000
0.004384 -0.018244 0.000000
0.004297 -0.017975 0.000000
0.004208 -0.017937 0.000000
0.004209 -0.017702 0.000000
0.004386 -0.018012 0.000000
0.004472 -0.018280 0.000000
0.004476 -0.018047 0.000000
0.004390 -0.017774 0.000000
0.010481 -0.019724 0.000000
0.011065 -0.017890 0.000000
0.011147 -0.017818 0.000000
0.008112 -0.023041 0.000000
0.008118 -0.023196 0.000000
0.008172 -0.023018 0.000000
0.008177 -0.023172 0.000000
0.008233 -0.022993 0.000000
0.007411 -0.025405 0.000000
0.007351 -0.025453 0.000000
0.007404 -0.025470 0.000000
0.007346 -0.025518 0.000000
0.007398 -0.025534 0.000000
0.007341 -0.025581 0.000000
0.005648 -0.020683 0.000000
0.007920 -0.010349 0.000000
0.007668 -0.010355 0.000000
0.007601 -0.010720 0.000000
0.005498 -0.022891 0.000000
0.005430 -0.022707 0.000000
0.012304 -0.011894 0.000000
0.007848 -0.025372 0.000000
0.008247 -0.024604 0.000000
0.008195 -0.024634 0.000000
0.007485 -0.026200 0.000000
0.004941 -0.022201 0.000000
0.001861 -0.003013 0.000000
0.012413 -0.011836 0.000000
0.012409 -0.012119 0.000000
0.012522 -0.011776 0.000000
0.006874 -0.019005 0.000000
0.006405 -0.015677 0.000000
0.006512 -0.015682 0.000000
0.007101 -0.025722 0.000000
0.004586 -0.005640 0.000000
0.011634 -0.003053 0.000000
0.008841 -0.002253 0.000000
0.008913 -0.001809 0.000000
0.005732 -0.024096 0.000000
0.005957 -0.009973 0.000000
0.002226 -0.012627 0.000000
0.006703 -0.025554 0.000000
0.006644 -0.025495 0.000000
0.009234 -0.020988 0.000000
0.002661 -0.014474 0.000000
0.011829 -0.010874 0.000000
0.011816 -0.010555 0.000000
0.011712 -0.010910 0.000000
0.007515 -0.003573 0.000000
0.004507 -0.005226 0.000000
0.007929 -0.025339 0.000000
0.011443 -0.013436 0.000000
0.007101 -0.019258 0.000000
0.005618 -0.021278 0.000000
0.008018 -0.025075 0.000000
0.008035 -0.024991 0.000000
0.007997 -0.025026 0.000000
0.008050 -0.024902 0.000000
0.005778 -0.010332 0.000000
0.007374 -0.026316 0.000000
0.006058 -0.002258 0.000000
0.003333 -0.002655 0.000000
0.003186 -0.004752 0.000000
0.006638 -0.025975 0.000000
0.006651 -0.026029 0.000000
0.005217 -0.022129 0.000000
0.005289 -0.022326 0.000000
0.008271 -0.024531 0.000000
0.012129 -0.009468 0.000000
0.000693 -0.003298 0.000000
0.000655 -0.003677 0.000000
0.000552 -0.003274 0.000000
0.000752 -0.004085 0.000000
0.000625 -0.004043 0.000000
0.003883 -0.009092 0.000000
0.003199 -0.011094 0.000000
0.007482 -0.023525 0.000000
0.007541 -0.023516 0.000000
0.003169 -0.015505 0.000000
0.003068 -0.015200 0.000000
0.007641 -0.025707 0.000000
0.006268 -0.025001 0.000000
0.006307 -0.025030 0.000000
0.006229 -0.024969 0.000000
0.006242 -0.025060 0.000000
0.009309 -0.015793 0.000000
0.009412 -0.015773 0.000000
0.006372 -0.025511 0.000000
0.008319 -0.024617 0.000000
0.007542 -0.010357 0.000000
0.007476 -0.010722 0.000000
0.005631 -0.023247 0.000000
0.001170 -0.007480 0.000000
0.001046 -0.007435 0.000000
0.001155 -0.007815 0.000000
0.001032 -0.007768 0.000000
0.000937 -0.007053 0.000000
0.010434 -0.005602 0.000000
0.006938 -0.026362 0.000000
0.007803 -0.017124 0.000000
0.009306 -0.022920 0.000000
0.009393 -0.022748 0.000000
0.009352 -0.022847 0.000000
0.009441 -0.022674 0.000000
0.009482 -0.022572 0.000000
0.006525 -0.009616 0.000000
0.006653 -0.009618 0.000000
0.007466 -0.025360 0.000000
0.012838 -0.008895 0.000000
0.005871 -0.015638 0.000000
0.005764 -0.015628 0.000000
0.006290 -0.025450 0.000000
0.003880 -0.013182 0.000000
0.003369 -0.016104 0.000000
0.004982 -0.022105 0.000000
0.006920 -0.026176 0.000000
0.006752 -0.026154 0.000000
0.007752 -0.025563 0.000000
0.004243 -0.020335 0.000000
0.004262 -0.020508 0.000000
0.004172 -0.020278 0.000000
0.004193 -0.020450 0.000000
0.004745 -0.022493 0.000000
0.008476 -0.024441 0.000000
0.008442 -0.024514 0.000000
0.008508 -0.024363 0.000000
0.008027 -0.007693 0.000000
0.011253 -0.006727 0.000000
0.011736 -0.011537 0.000000
0.003969 -0.015560 0.000000
0.006456 -0.021882 0.000000
0.008677 -0.018842 0.000000
0.004101 -0.020219 0.000000
0.008230 -0.018925 0.000000
0.010881 -0.013041 0.000000
0.004666 -0.006050 0.000000
0.004801 -0.006056 0.000000
0.004745 -0.006457 0.000000
0.004880 -0.006462 0.000000
0.007915 -0.025429 0.000000
0.005128 -0.015545 0.000000
0.005851 -0.008077 0.000000
0.006735 -0.016282 0.000000
0.006787 -0.026249 0.000000
0.006809 -0.026269 0.000000
0.006802 -0.026220 0.000000
0.006830 -0.026289 0.000000
0.006824 -0.026238 0.000000
0.006766 -0.026227 0.000000
0.006852 -0.026306 0.000000
0.005924 -0.008465 0.000000
0.007625 -0.025959 0.000000
0.007646 -0.025922 0.000000
0.002797 -0.011958 0.000000
0.007054 -0.018497 0.000000
0.007006 -0.018235 0.000000
0.007101 -0.018235 0.000000
0.007053 -0.017969 0.000000
0.008688 -0.014999 0.000000
0.008579 -0.015010 0.000000
0.004070 -0.015592 0.000000
0.012764 -0.002982 0.000000
0.004131 -0.014460 0.000000
0.010638 -0.018415 0.000000
0.011338 -0.008952 0.000000
0.007706 -0.006501 0.000000
0.004917 -0.015509 0.000000
0.009965 -0.021452 0.000000
0.007366 -0.026401 0.000000
0.003467 -0.016398 0.000000
0.004395 -0.021060 0.000000
0.007903 -0.017117 0.000000
0.008980 -0.002252 0.000000
0.009053 -0.001808 0.000000
0.002128 -0.004267 0.000000
0.002038 -0.003852 0.000000
0.006842 -0.026075 0.000000
0.005955 -0.024604 0.000000
0.005931 -0.024531 0.000000
0.004501 -0.021865 0.000000
0.006981 -0.026381 0.000000
0.007360 -0.025883 0.000000
0.009723 -0.021924 0.000000
0.011136 -0.014402 0.000000
0.003355 -0.007917 0.000000
0.010981 -0.005567 0.000000
0.004083 -0.015316 0.000000
0.010262 -0.017581 0.000000
0.005872 -0.011411 0.000000
0.006847 -0.026255 0.000000
0.006873 -0.026322 0.000000
0.006678 -0.015986 0.000000
0.006842 -0.026139 0.000000
0.004151 -0.014165 0.000000
0.005877 -0.024483 0.000000
0.012490 -0.004227 0.000000
0.010092 -0.010558 0.000000
0.008320 -0.018910 0.000000
0.009084 -0.022718 0.000000
0.008112 -0.024278 0.000000
0.008105 -0.024393 0.000000
0.002012 -0.011360 0.000000
0.002120 -0.011707 0.000000
0.001903 -0.011010 0.000000
0.008869 -0.021878 0.000000
0.008936 -0.021842 0.000000
0.008805 -0.021563 0.000000
0.006575 -0.025759 0.000000
0.002282 -0.010196 0.000000
0.006127 -0.019907 0.000000
0.006068 -0.019664 0.000000
0.006765 -0.026193 0.000000
0.002226 -0.012341 0.000000
0.007003 -0.026388 0.000000
0.008588 -0.018861 0.000000
0.005749 -0.011405 0.000000
0.005676 -0.011047 0.000000
0.005627 -0.011398 0.000000
0.007239 -0.003573 0.000000
0.010557 -0.018473 0.000000
0.010095 -0.013229 0.000000
0.009905 -0.018433 0.000000
0.005995 -0.011416 0.000000
0.006135 -0.012119 0.000000
0.004080 -0.020043 0.000000
0.004008 -0.019984 0.000000
0.001809 -0.003423 0.000000
0.011725 -0.007426 0.000000
0.011822 -0.007036 0.000000
0.008159 -0.007691 0.000000
0.009120 -0.002250 0.000000
0.009193 -0.001807 0.000000
0.009260 -0.002249 0.000000
0.009333 -0.001806 0.000000
0.009400 -0.002247 0.000000
0.009474 -0.001804 0.000000
0.009540 -0.002246 0.000000
0.009614 -0.001803 0.000000
0.007981 -0.025230 0.000000
0.003591 -0.009422 0.000000
0.009818 -0.018695 0.000000
0.008913 -0.023380 0.000000
0.008864 -0.023434 0.000000
0.004306 -0.020841 0.000000
0.008006 -0.023392 0.000000
0.006464 -0.025134 0.000000
0.006425 -0.025111 0.000000
0.003187 -0.008271 0.000000
0.006324 -0.012469 0.000000
0.005340 -0.015577 0.000000
0.004592 -0.021228 0.000000
0.006236 -0.025191 0.000000
0.007119 -0.025627 0.000000
0.007135 -0.025722 0.000000
0.009680 -0.002244 0.000000
0.009754 -0.001801 0.000000
0.009820 -0.002242 0.000000
0.009895 -0.001800 0.000000
0.009961 -0.002239 0.000000
0.010036 -0.001798 0.000000
0.011529 -0.001333 0.000000
0.006597 -0.023007 0.000000
0.011531 -0.008195 0.000000
0.010101 -0.002237 0.000000
0.010177 -0.001796 0.000000
0.010242 -0.002235 0.000000
0.010318 -0.001794 0.000000
0.010383 -0.002232 0.000000
0.010459 -0.001792 0.000000
0.010251 -0.001352 0.000000
0.010524 -0.002229 0.000000
0.010600 -0.001789 0.000000
0.003987 -0.019805 0.000000
0.003913 -0.019745 0.000000
0.003575 -0.017163 0.000000
0.007154 -0.025625 0.000000
0.007169 -0.025719 0.000000
0.007190 -0.025622 0.000000
0.007027 -0.025524 0.000000
0.011786 -0.006662 0.000000
0.011919 -0.006644 0.000000
0.008710 -0.023903 0.000000
0.001801 -0.007661 0.000000
0.006323 -0.025492 0.000000
0.006378 -0.025580 0.000000
0.008122 -0.023347 0.000000
0.008180 -0.023322 0.000000
0.007204 -0.025716 0.000000
0.007226 -0.025618 0.000000
0.007238 -0.025711 0.000000
0.007261 -0.025612 0.000000
0.007272 -0.025705 0.000000
0.007297 -0.025605 0.000000
0.007311 -0.025925 0.000000
0.006880 -0.026477 0.000000
0.006219 -0.025111 0.000000
0.002992 -0.006342 0.000000
0.009993 -0.018167 0.000000
0.008765 -0.023703 0.000000
0.010858 -0.010786 0.000000
0.010953 -0.010426 0.000000
0.010763 -0.011142 0.000000
0.007689 -0.018986 0.000000
0.007319 -0.026468 0.000000
0.001989 -0.004255 0.000000
0.006869 -0.025597 0.000000
0.007412 -0.026310 0.000000
0.010665 -0.002226 0.000000
0.010741 -0.001787 0.000000
0.010806 -0.002223 0.000000
0.010883 -0.001784 0.000000
0.010675 -0.001347 0.000000
0.001956 -0.007333 0.000000
0.002286 -0.008126 0.000000
0.007469 -0.018746 0.000000
0.007270 -0.026565 0.000000
0.002235 -0.008825 0.000000
0.011230 -0.002212 0.000000
0.011167 -0.001779 0.000000
0.011244 -0.001338 0.000000
0.006940 -0.020666 0.000000
0.010947 -0.002220 0.000000
0.007779 -0.018978 0.000000
0.007813 -0.019223 0.000000
0.007870 -0.018970 0.000000
0.007902 -0.019214 0.000000
0.007960 -0.018960 0.000000
0.003892 -0.019563 0.000000
0.001390 -0.006109 0.000000
0.002333 -0.012678 0.000000
0.006867 -0.026451 0.000000
0.011957 -0.001324 0.000000
0.009014 -0.023096 0.000000
0.009092 -0.022921 0.000000
0.011671 -0.001331 0.000000
0.007391 -0.022860 0.000000
0.007365 -0.022683 0.000000
0.007306 -0.025697 0.000000
0.007333 -0.025597 0.000000
0.007341 -0.025687 0.000000
0.007368 -0.025587 0.000000
0.007375 -0.025677 0.000000
0.007404 -0.025575 0.000000
0.010518 -0.005190 0.000000
0.010381 -0.005197 0.000000
0.010655 -0.005182 0.000000
0.010930 -0.005166 0.000000
0.009969 -0.001355 0.000000
0.012819 -0.001300 0.000000
0.012963 -0.001295 0.000000
0.009687 -0.001357 0.000000
0.007495 -0.019492 0.000000
0.006259 -0.025404 0.000000
0.007101 -0.020668 0.000000
0.009195 -0.022613 0.000000
0.007341 -0.023378 0.000000
0.007365 -0.023539 0.000000
0.007409 -0.025664 0.000000
0.010435 -0.015493 0.000000
0.009406 -0.001359 0.000000
0.011101 -0.001341 0.000000
0.001288 -0.005714 0.000000
0.009236 -0.021953 0.000000
0.012101 -0.001321 0.000000
0.009142 -0.022301 0.000000
0.009126 -0.001361 0.000000
0.006334 -0.001367 0.000000
0.009730 -0.020671 0.000000
0.010085 -0.019734 0.000000
0.011006 -0.016487 0.000000
0.011108 -0.016195 0.000000
0.012675 -0.001305 0.000000
0.006833 -0.025587 0.000000
0.006804 -0.025482 0.000000
0.008846 -0.001363 0.000000
0.008566 -0.001364 0.000000
0.010406 -0.014663 0.000000
0.010502 -0.018109 0.000000
0.008286 -0.001365 0.000000
0.008147 -0.001366 0.000000
0.011315 -0.015599 0.000000
0.007306 -0.023545 0.000000
0.009315 -0.021749 0.000000
0.012423 -0.008010 0.000000
0.006893 -0.026500 0.000000
0.010979 -0.012706 0.000000
0.010499 -0.014346 0.000000
0.009816 -0.020443 0.000000
0.009888 -0.020390 0.000000
0.009905 -0.020211 0.000000
0.010785 -0.013373 0.000000
0.003526 -0.001347 0.000000
0.006434 -0.022072 0.000000
0.006482 -0.022269 0.000000
0.006413 -0.022257 0.000000
0.006461 -0.022451 0.000000
0.004514 -0.001357 0.000000
0.012736 -0.006859 0.000000
0.005775 -0.001365 0.000000
0.011697 -0.010590 0.000000
0.005496 -0.001364 0.000000
0.013045 -0.005685 0.000000
0.005216 -0.001362 0.000000
0.013350 -0.004489 0.000000
0.002673 -0.001333 0.000000
0.004233 -0.001355 0.000000
0.011595 -0.010945 0.000000
0.004655 -0.001358 0.000000
0.000664 -0.001269 0.000000
0.003668 -0.001348 0.000000
0.003743 -0.001792 0.000000
0.006194 -0.001366 0.000000
0.011800 -0.010230 0.000000
0.003809 -0.001350 0.000000
0.012632 -0.007246 0.000000
0.007234 -0.026620 0.000000
0.007269 -0.026562 0.000000
0.012943 -0.006079 0.000000
0.005076 -0.001361 0.000000
0.002530 -0.001331 0.000000
0.002466 -0.001765 0.000000
0.002387 -0.001328 0.000000
0.002323 -0.001761 0.000000
0.002244 -0.001324 0.000000
0.002180 -0.001756 0.000000
0.002101 -0.001321 0.000000
0.000521 -0.001260 0.000000
0.000465 -0.001666 0.000000
0.007222 -0.026636 0.000000
0.013450 -0.004085 0.000000
0.013585 -0.004057 0.000000
0.013548 -0.003681 0.000000
0.013680 -0.003660 0.000000
0.013645 -0.003275 0.000000
0.004010 -0.020897 0.000000
0.003973 -0.020749 0.000000
0.004036 -0.020821 0.000000
0.003939 -0.020600 0.000000
0.012972 -0.009475 0.000000
0.012967 -0.009158 0.000000
0.000379 -0.001250 0.000000
0.005330 -0.023722 0.000000
0.007827 -0.024879 0.000000
0.007885 -0.024871 0.000000
0.011770 -0.015523 0.000000
0.011788 -0.015286 0.000000
0.003875 -0.020527 0.000000
0.003841 -0.020375 0.000000
0.003907 -0.020447 0.000000
0.003809 -0.020219 0.000000
0.002432 -0.015523 0.000000
0.002540 -0.015822 0.000000
0.002632 -0.015890 0.000000
0.009531 -0.022497 0.000000
0.009572 -0.022391 0.000000
0.013823 -0.001250 0.000000
0.006632 -0.025010 0.000000
0.006572 -0.025020 0.000000
0.006582 -0.025092 0.000000
0.006514 -0.025025 0.000000
0.006503 -0.024951 0.000000
0.006445 -0.024954 0.000000
0.006457 -0.025026 0.000000
0.006388 -0.024952 0.000000
0.006402 -0.025023 0.000000
0.006332 -0.024944 0.000000
0.006317 -0.024873 0.000000
0.006348 -0.025015 0.000000
0.006278 -0.024933 0.000000
0.001229 -0.009469 0.000000
0.001341 -0.009833 0.000000
0.001453 -0.010787 0.000000
0.011643 -0.016048 0.000000
0.011534 -0.016342 0.000000
0.013373 -0.006667 0.000000
0.013265 -0.007053 0.000000
0.005770 -0.024299 0.000000
0.000662 -0.005181 0.000000
0.013479 -0.006284 0.000000
0.002308 -0.014978 0.000000
0.011382 -0.017059 0.000000
0.004803 -0.022772 0.000000
0.004761 -0.022674 0.000000
0.008216 -0.024563 0.000000
0.008142 -0.024660 0.000000
0.008479 -0.024272 0.000000
0.003742 -0.020143 0.000000
0.003710 -0.019985 0.000000
0.010857 -0.018910 0.000000
0.012395 -0.012665 0.000000
0.001807 -0.012665 0.000000
0.001118 -0.009105 0.000000
0.009795 -0.021904 0.000000
0.008707 -0.023994 0.000000
0.008740 -0.023920 0.000000
0.002864 -0.016701 0.000000
0.006860 -0.023378 0.000000
0.008720 -0.024005 0.000000
0.008685 -0.024075 0.000000
0.008728 -0.024008 0.000000
0.008651 -0.024143 0.000000
0.008692 -0.024075 0.000000
0.001452 -0.010494 0.000000
0.001340 -0.010431 0.000000
0.001679 -0.010605 0.000000
0.004982 -0.023087 0.000000
0.002649 -0.016118 0.000000
0.002562 -0.016055 0.000000
0.007256 -0.024961 0.000000
0.007320 -0.026173 0.000000
0.011966 -0.013455 0.000000
0.011862 -0.013512 0.000000
0.003178 -0.017545 0.000000
0.005430 -0.023926 0.000000
0.005392 -0.023845 0.000000
0.012061 -0.013659 0.000000
0.012162 -0.013594 0.000000
0.012147 -0.013858 0.000000
0.008603 -0.022178 0.000000
0.006976 -0.024447 0.000000
0.006946 -0.024306 0.000000
0.003499 -0.009047 0.000000
0.006125 -0.013790 0.000000
0.001595 -0.006890 0.000000
0.010102 -0.020892 0.000000
0.003483 -0.018354 0.000000
0.007101 -0.002702 0.000000
0.007031 -0.002261 0.000000
0.003223 -0.010762 0.000000
0.007843 -0.023599 0.000000
0.005572 -0.017308 0.000000
0.011405 -0.016849 0.000000
0.004505 -0.020174 0.000000
0.010060 -0.007990 0.000000
0.010105 -0.008367 0.000000
0.010607 -0.019305 0.000000
0.007482 -0.019970 0.000000
0.007440 -0.025562 0.000000
0.005683 -0.021493 0.000000
0.005611 -0.021467 0.000000
0.011439 -0.013150 0.000000
0.007801 -0.025628 0.000000
0.007823 -0.025580 0.000000
0.004249 -0.011614 0.000000
0.004336 -0.011964 0.000000
0.004162 -0.011260 0.000000
0.004332 -0.019694 0.000000
0.008324 -0.024483 0.000000
0.010050 -0.020101 0.000000
0.010122 -0.020043 0.000000
0.010263 -0.020600 0.000000
0.010327 -0.020526 0.000000
0.002739 -0.016186 0.000000
0.009525 -0.021441 0.000000
0.009460 -0.021492 0.000000
0.009616 -0.007634 0.000000
0.000688 -0.004827 0.000000
0.007866 -0.025479 0.000000
0.007888 -0.025426 0.000000
0.007850 -0.025457 0.000000
0.007909 -0.025371 0.000000
0.002009 -0.011657 0.000000
0.003506 -0.017566 0.000000
0.005249 -0.013397 0.000000
0.005134 -0.013384 0.000000
0.005364 -0.013408 0.000000
0.002653 -0.013942 0.000000
0.002758 -0.014262 0.000000
0.005862 -0.024706 0.000000
0.005929 -0.024824 0.000000
0.005965 -0.024881 0.000000
0.007891 -0.025487 0.000000
0.006337 -0.025540 0.000000
0.006388 -0.025632 0.000000
0.002709 -0.015721 0.000000
0.003533 -0.011495 0.000000
0.008863 -0.020581 0.000000
0.005258 -0.021496 0.000000
0.005919 -0.024525 0.000000
0.010020 -0.008750 0.000000
0.010149 -0.008738 0.000000
0.011745 -0.011842 0.000000
0.001454 -0.005367 0.000000
0.002495 -0.004704 0.000000
0.005986 -0.024097 0.000000
0.005938 -0.024064 0.000000
0.001248 -0.003371 0.000000
0.010653 -0.019411 0.000000
0.010723 -0.019342 0.000000
0.004961 -0.022343 0.000000
0.005019 -0.022395 0.000000
0.012062 -0.010794 0.000000
0.009780 -0.016777 0.000000
0.006137 -0.020584 0.000000
0.009854 -0.021387 0.000000
0.005413 -0.023860 0.000000
0.005375 -0.023776 0.000000
0.009105 -0.022583 0.000000
0.003811 -0.012533 0.000000
0.007688 -0.025025 0.000000
0.007699 -0.024951 0.000000
0.007918 -0.025444 0.000000
0.004686 -0.003976 0.000000
0.004728 -0.001804 0.000000
0.004795 -0.001359 0.000000
0.005484 -0.023583 0.000000
0.005464 -0.023466 0.000000
0.008444 -0.023587 0.000000
0.006259 -0.024905 0.000000
0.002414 -0.008150 0.000000
0.006307 -0.007696 0.000000
0.007659 -0.025876 0.000000
0.007698 -0.025156 0.000000
0.004119 -0.017663 0.000000
0.004120 -0.017425 0.000000
0.004211 -0.017462 0.000000
0.004119 -0.017897 0.000000
0.007565 -0.024893 0.000000
0.004314 -0.019293 0.000000
0.007870 -0.025402 0.000000
0.006709 -0.008479 0.000000
0.006640 -0.008091 0.000000
0.006776 -0.008864 0.000000
0.007514 -0.022298 0.000000
0.004455 -0.011980 0.000000
0.004422 -0.012310 0.000000
0.007656 -0.025653 0.000000
0.007601 -0.025719 0.000000
0.003102 -0.010737 0.000000
0.009226 -0.012711 0.000000
0.005532 -0.008452 0.000000
0.002675 -0.005522 0.000000
0.001908 -0.010705 0.000000
0.008614 -0.014388 0.000000
0.007433 -0.007305 0.000000
0.007498 -0.007700 0.000000
0.002447 -0.005102 0.000000
0.007416 -0.010359 0.000000
0.007351 -0.010723 0.000000
0.007411 -0.011082 0.000000
0.007287 -0.011083 0.000000
0.007347 -0.011438 0.000000
0.007224 -0.011439 0.000000
0.004975 -0.012711 0.000000
0.004748 -0.003550 0.000000
0.007777 -0.025111 0.000000
0.001886 -0.006579 0.000000
0.008695 -0.024067 0.000000
0.007997 -0.012465 0.000000
0.004825 -0.006860 0.000000
0.004959 -0.006865 0.000000
0.006080 -0.025028 0.000000
0.007653 -0.025736 0.000000
0.007664 -0.025667 0.000000
0.009697 -0.013930 0.000000
0.009722 -0.014233 0.000000
0.009638 -0.014553 0.000000
0.009746 -0.014531 0.000000
0.009661 -0.014848 0.000000
0.009832 -0.014211 0.000000
0.006655 -0.017416 0.000000
0.006754 -0.017419 0.000000
0.001798 -0.012395 0.000000
0.007262 -0.015694 0.000000
0.008598 -0.022664 0.000000
0.001142 -0.008145 0.000000
0.001020 -0.008095 0.000000
0.009412 -0.013342 0.000000
0.009494 -0.013007 0.000000
0.007269 -0.014458 0.000000
0.007212 -0.014773 0.000000
0.007328 -0.014138 0.000000
0.007589 -0.025948 0.000000
0.007628 -0.025863 0.000000
0.007630 -0.015982 0.000000
0.005028 -0.016663 0.000000
0.004929 -0.016642 0.000000
0.004849 -0.016349 0.000000
0.004829 -0.016619 0.000000
0.004909 -0.016908 0.000000
0.004811 -0.016885 0.000000
0.004891 -0.017170 0.000000
0.004748 -0.016326 0.000000
0.004768 -0.016052 0.000000
0.006888 -0.026216 0.000000
0.006928 -0.026252 0.000000
0.006653 -0.021505 0.000000
0.006606 -0.021293 0.000000
0.006530 -0.021285 0.000000
0.006558 -0.021077 0.000000
0.006635 -0.021084 0.000000
0.006587 -0.020864 0.000000
0.006666 -0.020871 0.000000
0.006432 -0.025507 0.000000
0.005552 -0.011040 0.000000
0.007947 -0.015966 0.000000
0.007681 -0.025802 0.000000
0.008020 -0.019442 0.000000
0.007000 -0.022507 0.000000
0.010693 -0.011821 0.000000
0.006578 -0.023174 0.000000
0.009768 -0.016516 0.000000
0.009070 -0.012393 0.000000
0.008345 -0.019151 0.000000
0.008409 -0.018895 0.000000
0.005528 -0.024067 0.000000
0.006487 -0.025489 0.000000
0.007644 -0.021077 0.000000
0.007721 -0.021068 0.000000
0.007772 -0.020847 0.000000
0.007798 -0.021058 0.000000
0.009608 -0.021636 0.000000
0.009632 -0.021486 0.000000
0.007617 -0.013809 0.000000
0.010185 -0.012894 0.000000
0.010159 -0.012577 0.000000
0.003672 -0.015186 0.000000
0.003577 -0.014876 0.000000
0.003766 -0.015493 0.000000
0.009029 -0.012058 0.000000
0.006822 -0.025716 0.000000
0.006875 -0.025761 0.000000
0.006617 -0.022837 0.000000
0.006553 -0.022826 0.000000
0.003933 -0.004374 0.000000
0.007529 -0.025901 0.000000
0.005724 -0.024457 0.000000
0.005560 -0.020862 0.000000
0.002360 -0.005883 0.000000
0.006105 -0.025087 0.000000
0.008527 -0.020264 0.000000
0.008446 -0.020284 0.000000
0.008929 -0.022008 0.000000
0.006035 -0.022859 0.000000
0.006042 -0.022695 0.000000
0.006105 -0.022716 0.000000
0.012356 -0.009063 0.000000
0.008172 -0.010342 0.000000
0.008298 -0.010337 0.000000
0.008351 -0.010697 0.000000
0.004565 -0.010961 0.000000
0.004605 -0.010612 0.000000
0.006593 -0.009988 0.000000
0.007862 -0.025545 0.000000
0.003818 -0.019501 0.000000
0.003797 -0.019316 0.000000
0.007525 -0.024402 0.000000
0.008229 -0.022835 0.000000
0.007895 -0.014121 0.000000
0.008009 -0.014116 0.000000
0.008433 -0.024470 0.000000
0.007284 -0.011790 0.000000
0.008307 -0.024762 0.000000
0.008242 -0.024879 0.000000
0.005552 -0.015604 0.000000
0.003960 -0.002235 0.000000
0.004036 -0.002672 0.000000
0.009205 -0.015813 0.000000
0.009127 -0.016113 0.000000
0.004478 -0.021924 0.000000
0.007505 -0.025786 0.000000
0.008578 -0.024226 0.000000
0.002547 -0.013060 0.000000
0.007736 -0.009986 0.000000
0.006283 -0.025444 0.000000
0.006256 -0.025399 0.000000
0.003238 -0.012399 0.000000
0.004507 -0.021428 0.000000
0.008011 -0.024937 0.000000
0.008064 -0.024809 0.000000
0.006430 -0.025205 0.000000
0.006386 -0.025085 0.000000
0.004795 -0.017146 0.000000
0.004714 -0.016860 0.000000
0.004875 -0.017428 0.000000
0.009590 -0.021387 0.000000
0.012351 -0.004241 0.000000
0.012396 -0.004637 0.000000
0.008882 -0.023670 0.000000
0.008960 -0.023515 0.000000
0.004287 -0.021320 0.000000
0.007565 -0.025811 0.000000
0.002310 -0.005089 0.000000
0.005655 -0.024336 0.000000
0.005620 -0.024274 0.000000
0.011366 -0.009303 0.000000
0.007626 -0.025759 0.000000
0.005945 -0.019166 0.000000
0.004589 -0.020407 0.000000
0.005759 -0.024514 0.000000
0.010937 -0.018353 0.000000
0.011017 -0.018279 0.000000
0.010990 -0.018471 0.000000
0.011866 -0.013239 0.000000
0.002545 -0.004300 0.000000
0.005567 -0.018354 0.000000
0.005475 -0.018336 0.000000
0.004123 -0.020389 0.000000
0.006628 -0.025824 0.000000
0.007697 -0.025788 0.000000
0.003833 -0.003099 0.000000
0.008395 -0.024520 0.000000
0.006857 -0.026353 0.000000
0.013024 -0.001716 0.000000
0.013106 -0.001290 0.000000
0.008103 -0.017100 0.000000
0.008203 -0.017090 0.000000
0.011493 -0.003059 0.000000
0.005157 -0.015254 0.000000
0.006797 -0.026293 0.000000
0.004330 -0.021654 0.000000
0.004272 -0.021578 0.000000
0.007368 -0.006906 0.000000
0.004812 -0.015489 0.000000
0.007415 -0.026319 0.000000
0.007432 -0.026292 0.000000
0.009389 -0.015489 0.000000
0.009494 -0.015468 0.000000
0.001264 -0.008193 0.000000
0.007442 -0.025608 0.000000
0.007386 -0.025657 0.000000
0.011882 -0.006266 0.000000
0.012015 -0.006248 0.000000
0.005882 -0.018910 0.000000
0.007728 -0.025755 0.000000
0.011176 -0.000897 0.000000
0.007640 -0.025917 0.000000
0.006466 -0.025617 0.000000
0.006506 -0.025637 0.000000
0.011210 -0.006342 0.000000
0.006190 -0.024937 0.000000
0.003037 -0.005952 0.000000
0.003173 -0.005963 0.000000
0.010431 -0.011539 0.000000
0.008293 -0.018665 0.000000
0.007443 -0.025651 0.000000
0.010366 -0.012213 0.000000
0.010601 -0.004775 0.000000
0.007437 -0.006503 0.000000
0.002815 -0.006712 0.000000
0.008638 -0.024051 0.000000
0.002489 -0.010910 0.000000
0.002504 -0.010590 0.000000
0.002476 -0.011226 0.000000
0.008539 -0.024281 0.000000
0.010446 -0.002666 0.000000
0.006915 -0.025510 0.000000
0.006927 -0.025409 0.000000
0.001668 -0.003412 0.000000
0.006627 -0.012817 0.000000
0.006563 -0.012476 0.000000
0.006690 -0.013153 0.000000
0.006637 -0.013483 0.000000
0.007249 -0.025799 0.000000
0.006266 -0.025401 0.000000
0.006929 -0.025705 0.000000
0.002195 -0.009503 0.000000
0.006357 -0.025530 0.000000
0.006412 -0.025614 0.000000
0.007518 -0.020200 0.000000
0.007101 -0.025527 0.000000
0.010171 -0.017855 0.000000
0.010259 -0.017812 0.000000
0.006742 -0.025259 0.000000
0.006708 -0.025141 0.000000
0.006716 -0.025032 0.000000
0.006673 -0.025019 0.000000
0.006681 -0.024907 0.000000
0.006637 -0.024893 0.000000
0.006645 -0.024776 0.000000
0.006690 -0.024790 0.000000
0.006654 -0.024656 0.000000
0.008744 -0.023647 0.000000
0.008767 -0.023535 0.000000
0.011292 -0.002641 0.000000
0.009703 -0.022094 0.000000
0.009650 -0.022167 0.000000
0.010242 -0.015830 0.000000
0.010142 -0.015863 0.000000
0.007347 -0.025774 0.000000
0.005605 -0.024104 0.000000
0.005563 -0.024051 0.000000
0.007503 -0.020654 0.000000
0.007456 -0.020877 0.000000
0.010451 -0.016530 0.000000
0.010450 -0.016278 0.000000
0.010869 -0.002655 0.000000
0.011605 -0.000892 0.000000
0.007334 -0.021101 0.000000
0.007291 -0.021315 0.000000
0.007215 -0.021317 0.000000
0.002037 -0.001752 0.000000
0.001957 -0.001318 0.000000
0.002118 -0.002183 0.000000
0.012388 -0.001314 0.000000
0.006896 -0.026496 0.000000
0.006481 -0.021068 0.000000
0.010348 -0.016059 0.000000
0.007290 -0.023043 0.000000
0.005647 -0.024155 0.000000
0.006618 -0.020647 0.000000
0.006698 -0.020654 0.000000
0.010992 -0.013009 0.000000
0.010684 -0.017785 0.000000
0.010783 -0.017510 0.000000
0.010869 -0.017453 0.000000
0.010883 -0.017232 0.000000
0.010970 -0.017174 0.000000
0.010984 -0.016950 0.000000
0.010489 -0.018322 0.000000
0.010394 -0.018585 0.000000
0.010285 -0.019045 0.000000
0.010192 -0.019297 0.000000
0.008217 -0.000914 0.000000
0.005755 -0.024346 0.000000
0.005820 -0.024484 0.000000
0.005859 -0.024530 0.000000
0.005883 -0.024617 0.000000
0.005921 -0.024662 0.000000
0.005945 -0.024745 0.000000
0.005908 -0.024699 0.000000
0.011429 -0.015044 0.000000
0.011435 -0.014788 0.000000
0.012007 -0.009503 0.000000
0.012111 -0.009134 0.000000
0.007223 -0.026637 0.000000
0.007212 -0.026645 0.000000
0.004582 -0.000909 0.000000
0.002024 -0.000883 0.000000
0.003594 -0.000902 0.000000
0.002958 -0.001338 0.000000
0.003100 -0.001341 0.000000
0.012606 -0.006890 0.000000
0.012913 -0.005714 0.000000
0.001239 -0.001295 0.000000
0.001095 -0.001290 0.000000
0.001383 -0.001300 0.000000
0.006899 -0.025296 0.000000
0.007001 -0.026555 0.000000
0.006937 -0.025961 0.000000
0.006957 -0.026199 0.000000
0.007201 -0.026555 0.000000
0.007277 -0.025800 0.000000
0.006920 -0.025685 0.000000
0.006906 -0.025432 0.000000
0.007253 -0.026109 0.000000
0.007185 -0.026632 0.000000
0.007289 -0.025562 0.000000
0.007295 -0.025432 0.000000
0.007241 -0.026242 0.000000
0.007304 -0.025294 0.000000
0.001928 -0.013266 0.000000
0.002040 -0.013594 0.000000
0.012512 -0.012064 0.000000
0.004405 -0.021901 0.000000
0.002689 -0.016559 0.000000
0.008607 -0.024107 0.000000
0.006692 -0.024997 0.000000
0.009399 -0.022773 0.000000
0.009310 -0.022942 0.000000
0.006113 -0.024682 0.000000
0.006038 -0.024586 0.000000
0.006188 -0.024773 0.000000
0.003084 -0.018022 0.000000
0.007246 -0.026200 0.000000
0.007258 -0.026062 0.000000
0.007296 -0.025234 0.000000
0.006996 -0.026527 0.000000
0.006968 -0.026500 0.000000
0.006952 -0.026156 0.000000
0.006165 -0.024702 0.000000
0.012637 -0.011739 0.000000
0.003108 -0.018209 0.000000
0.003213 -0.018469 0.000000
0.012976 -0.009769 0.000000
0.001697 -0.012336 0.000000
0.003644 -0.019916 0.000000
0.003613 -0.019756 0.000000
0.003679 -0.019823 0.000000
0.003579 -0.019583 0.000000
0.003504 -0.019519 0.000000
0.003476 -0.019340 0.000000
0.003403 -0.019254 0.000000
0.012406 -0.012905 0.000000
0.008163 -0.024587 0.000000
0.008088 -0.024683 0.000000
0.008433 -0.024297 0.000000
0.008294 -0.024449 0.000000
0.000916 -0.007693 0.000000
0.000896 -0.007990 0.000000
0.006992 -0.026497 0.000000
0.007009 -0.026584 0.000000
0.007183 -0.026652 0.000000
0.006939 -0.026011 0.000000
0.006900 -0.026026 0.000000
0.006944 -0.026062 0.000000
0.006910 -0.025498 0.000000
0.007238 -0.026282 0.000000
0.007285 -0.025624 0.000000
0.007279 -0.025743 0.000000
0.012275 -0.013527 0.000000
0.012887 -0.010394 0.000000
0.012855 -0.010715 0.000000
0.003379 -0.019095 0.000000
0.001017 -0.008407 0.000000
0.013093 -0.009393 0.000000
0.009362 -0.022855 0.000000
0.009267 -0.023033 0.000000
0.004443 -0.022019 0.000000
0.004538 -0.022207 0.000000
0.001462 -0.011086 0.000000
0.010297 -0.020677 0.000000
0.010387 -0.020456 0.000000
0.010442 -0.020274 0.000000
0.011898 -0.015196 0.000000
0.011899 -0.014978 0.000000
0.009900 -0.021689 0.000000
0.006893 -0.025154 0.000000
0.006889 -0.025080 0.000000
0.007020 -0.026547 0.000000
0.006987 -0.026183 0.000000
0.007270 -0.025908 0.000000
0.007265 -0.025963 0.000000
0.007221 -0.026091 0.000000
0.007212 -0.026226 0.000000
0.007243 -0.025269 0.000000
0.007904 -0.024785 0.000000
0.007958 -0.024787 0.000000
0.001926 -0.013527 0.000000
0.002051 -0.013851 0.000000
0.006823 -0.025020 0.000000
0.004842 -0.022860 0.000000
0.011374 -0.017254 0.000000
0.009757 -0.022018 0.000000
0.013800 -0.003257 0.000000
0.013742 -0.002866 0.000000
0.005246 -0.023578 0.000000
0.005199 -0.023507 0.000000
0.005162 -0.023435 0.000000
0.005116 -0.023361 0.000000
0.000614 -0.005514 0.000000
0.004713 -0.022599 0.000000
0.004670 -0.022497 0.000000
0.004625 -0.022428 0.000000
0.006429 -0.024879 0.000000
0.011493 -0.016775 0.000000
0.013716 -0.004027 0.000000
0.004178 -0.021376 0.000000
0.013907 -0.000820 0.000000
0.004045 -0.021035 0.000000
0.000563 -0.004808 0.000000
0.005646 -0.024157 0.000000
0.013392 -0.007001 0.000000
0.013281 -0.007385 0.000000
0.013403 -0.007341 0.000000
0.013290 -0.007726 0.000000
0.013286 -0.008080 0.000000
0.013174 -0.008088 0.000000
0.013172 -0.008429 0.000000
0.013064 -0.008462 0.000000
0.013287 -0.008395 0.000000
0.011624 -0.016269 0.000000
0.001222 -0.009773 0.000000
0.011099 -0.018203 0.000000
0.009624 -0.022313 0.000000
0.009579 -0.022423 0.000000
0.000322 -0.001653 0.000000
0.000413 -0.002065 0.000000
0.000236 -0.001221 0.000000
0.000295 -0.000817 0.000000
0.011066 -0.018402 0.000000
0.011212 -0.017916 0.000000
0.013965 -0.001225 0.000000
0.013882 -0.001655 0.000000
0.013930 -0.002088 0.000000
0.006624 -0.024936 0.000000
0.000274 -0.002046 0.000000
0.000368 -0.002452 0.000000
0.013190 -0.008720 0.000000
0.006486 -0.024874 0.000000
0.006352 -0.024807 0.000000
0.013792 -0.002077 0.000000
0.006691 -0.024920 0.000000
0.011737 -0.015960 0.000000
0.011601 -0.016493 0.000000
0.009720 -0.022121 0.000000
0.000227 -0.002480 0.000000
0.011130 -0.018000 0.000000
0.011236 -0.017731 0.000000
0.013837 -0.002481 0.000000
0.013499 -0.006619 0.000000
0.013595 -0.006256 0.000000
0.011255 -0.017544 0.000000
0.008788 -0.023860 0.000000
0.008820 -0.023791 0.000000
0.008762 -0.023861 0.000000
0.008871 -0.023723 0.000000
0.008918 -0.023654 0.000000
0.008956 -0.023579 0.000000
0.009003 -0.023507 0.000000
0.009049 -0.023432 0.000000
0.009090 -0.023355 0.000000
0.009135 -0.023277 0.000000
0.009177 -0.023200 0.000000
0.009039 -0.023435 0.000000
0.008983 -0.023516 0.000000
0.004582 -0.022322 0.000000
0.004526 -0.022234 0.000000
0.005900 -0.024428 0.000000
0.006620 -0.023347 0.000000
0.008608 -0.024206 0.000000
0.008574 -0.024274 0.000000
0.008531 -0.024334 0.000000
0.008487 -0.024390 0.000000
0.008457 -0.024457 0.000000
0.008413 -0.024509 0.000000
0.008383 -0.024575 0.000000
0.005777 -0.024139 0.000000
0.006740 -0.023365 0.000000
0.005582 -0.023675 0.000000
0.005648 -0.023834 0.000000
0.004719 -0.022572 0.000000
0.006394 -0.022439 0.000000
0.006345 -0.022244 0.000000
0.003160 -0.017332 0.000000
0.003057 -0.017051 0.000000
0.008426 -0.024522 0.000000
0.008354 -0.024640 0.000000
0.008312 -0.024690 0.000000
0.008284 -0.024754 0.000000
0.008241 -0.024800 0.000000
0.004215 -0.020617 0.000000
0.006607 -0.024642 0.000000
0.008754 -0.023933 0.000000
0.007501 -0.023680 0.000000
0.007251 -0.026154 0.000000
0.008293 -0.022968 0.000000
0.010103 -0.011928 0.000000
0.007069 -0.022873 0.000000
0.007038 -0.023048 0.000000
0.007899 -0.023581 0.000000
0.001338 -0.010136 0.000000
0.001226 -0.010081 0.000000
0.001110 -0.009398 0.000000
0.001227 -0.010403 0.000000
0.000982 -0.008979 0.000000
0.007167 -0.024968 0.000000
0.007101 -0.022693 0.000000
0.007134 -0.022509 0.000000
0.007202 -0.022507 0.000000
0.009124 -0.022444 0.000000
0.007446 -0.019735 0.000000
0.007360 -0.019739 0.000000
0.005391 -0.023861 0.000000
0.001492 -0.006501 0.000000
0.005352 -0.023781 0.000000
0.005314 -0.023697 0.000000
0.005273 -0.023631 0.000000
0.005235 -0.023544 0.000000
0.005277 -0.023608 0.000000
0.002118 -0.012001 0.000000
0.002228 -0.012050 0.000000
0.008125 -0.023493 0.000000
0.010669 -0.011495 0.000000
0.007475 -0.025548 0.000000
0.006504 -0.025156 0.000000
0.006462 -0.025035 0.000000
0.008810 -0.023861 0.000000
0.007344 -0.024949 0.000000
0.003263 -0.017608 0.000000
0.003281 -0.017819 0.000000
0.006311 -0.025487 0.000000
0.003144 -0.017114 0.000000
0.006011 -0.013784 0.000000
0.005941 -0.013454 0.000000
0.005445 -0.015591 0.000000
0.007434 -0.025470 0.000000
0.011954 -0.007016 0.000000
0.003936 -0.019922 0.000000
0.007432 -0.024930 0.000000
0.006204 -0.025026 0.000000
0.003721 -0.019254 0.000000
0.001898 -0.003840 0.000000
0.008236 -0.023147 0.000000
0.008237 -0.023296 0.000000
0.008294 -0.023269 0.000000
0.010132 -0.012255 0.000000
0.005414 -0.015880 0.000000
0.003127 -0.010403 0.000000
0.004579 -0.020219 0.000000
0.003011 -0.012335 0.000000
0.006229 -0.025343 0.000000
0.003167 -0.015247 0.000000
0.010295 -0.020447 0.000000
0.010228 -0.020518 0.000000
0.010623 -0.019583 0.000000
0.010696 -0.019521 0.000000
0.010593 -0.019749 0.000000
0.011609 -0.011263 0.000000
0.011493 -0.011298 0.000000
0.008118 -0.024158 0.000000
0.008167 -0.024129 0.000000
0.010492 -0.019986 0.000000
0.010557 -0.019917 0.000000
0.010460 -0.020145 0.000000
0.007430 -0.026124 0.000000
0.007441 -0.026080 0.000000
0.010838 -0.019081 0.000000
0.004283 -0.020676 0.000000
0.005896 -0.013776 0.000000
0.006962 -0.026470 0.000000
0.006987 -0.026465 0.000000
0.006956 -0.026437 0.000000
0.006983 -0.026432 0.000000
0.006950 -0.026403 0.000000
0.006978 -0.026398 0.000000
0.006945 -0.026368 0.000000
0.006972 -0.026360 0.000000
0.006939 -0.026331 0.000000
0.006969 -0.026322 0.000000
0.011073 -0.016891 0.000000
0.006206 -0.024846 0.000000
0.004129 -0.011597 0.000000
0.003249 -0.010426 0.000000
0.003030 -0.010039 0.000000
0.007477 -0.024919 0.000000
0.007604 -0.025995 0.000000
0.007582 -0.026032 0.000000
0.004075 -0.019150 0.000000
0.003983 -0.018896 0.000000
0.004165 -0.019400 0.000000
0.010039 -0.011260 0.000000
0.011075 -0.006354 0.000000
0.011514 -0.016562 0.000000
0.005326 -0.013727 0.000000
0.007419 -0.026165 0.000000
0.007408 -0.026205 0.000000
0.007449 -0.026154 0.000000
0.006380 -0.024987 0.000000
0.008352 -0.022784 0.000000
0.005631 -0.023718 0.000000
0.005198 -0.023452 0.000000
0.005154 -0.023386 0.000000
0.005117 -0.023291 0.000000
0.007273 -0.025854 0.000000
0.007234 -0.025832 0.000000
0.006185 -0.020145 0.000000
0.006212 -0.019919 0.000000
0.010180 -0.010193 0.000000
0.010143 -0.009840 0.000000
0.010216 -0.010542 0.000000
0.012527 -0.007629 0.000000
0.009866 -0.016486 0.000000
0.004304 -0.012293 0.000000
0.007061 -0.020889 0.000000
0.007101 -0.021106 0.000000
0.007823 -0.024306 0.000000
0.007774 -0.024326 0.000000
0.006255 -0.025145 0.000000
0.008476 -0.022568 0.000000
0.007614 -0.025665 0.000000
0.012244 -0.001318 0.000000
0.003755 -0.009078 0.000000
0.002860 -0.014311 0.000000
0.002862 -0.014578 0.000000
0.002963 -0.014627 0.000000
0.002965 -0.014891 0.000000
0.007360 -0.025493 0.000000
0.012628 -0.004211 0.000000
0.012722 -0.003800 0.000000
0.010013 -0.007609 0.000000
0.010038 -0.020961 0.000000
0.001388 -0.003386 0.000000
0.004630 -0.022392 0.000000
0.011543 -0.012818 0.000000
0.001035 -0.001708 0.000000
0.000951 -0.001283 0.000000
0.000808 -0.001276 0.000000
0.000727 -0.000852 0.000000
0.011426 -0.016633 0.000000
0.003192 -0.002650 0.000000
0.005040 -0.022533 0.000000
0.005097 -0.022583 0.000000
0.005117 -0.022718 0.000000
0.005173 -0.022768 0.000000
0.005193 -0.022900 0.000000
0.005248 -0.022949 0.000000
0.005268 -0.023077 0.000000
0.005321 -0.023125 0.000000
0.005341 -0.023250 0.000000
0.005393 -0.023298 0.000000
0.005228 -0.022285 0.000000
0.007947 -0.025336 0.000000
0.007970 -0.025281 0.000000
0.004391 -0.012635 0.000000
0.010985 -0.006753 0.000000
0.011029 -0.005963 0.000000
0.011117 -0.005557 0.000000
0.011319 -0.016919 0.000000
0.011814 -0.001328 0.000000
0.005995 -0.024215 0.000000
0.005947 -0.024181 0.000000
0.005355 -0.023760 0.000000
0.005432 -0.023908 0.000000
0.008724 -0.021032 0.000000
0.004561 -0.013309 0.000000
0.002259 -0.008478 0.000000
0.012905 -0.002970 0.000000
0.012994 -0.002551 0.000000
0.005469 -0.024003 0.000000
0.003772 -0.010161 0.000000
0.007629 -0.025019 0.000000
0.007640 -0.024941 0.000000
0.007713 -0.024875 0.000000
0.007574 -0.024931 0.000000
0.007567 -0.025005 0.000000
0.007504 -0.024992 0.000000
0.007497 -0.025069 0.000000
0.007434 -0.025059 0.000000
0.007363 -0.025117 0.000000
0.007370 -0.025050 0.000000
0.007299 -0.025104 0.000000
0.007302 -0.025025 0.000000
0.007232 -0.025085 0.000000
0.010062 -0.009118 0.000000
0.010191 -0.009105 0.000000
0.007780 -0.025674 0.000000
0.002866 -0.014841 0.000000
0.010191 -0.007980 0.000000
0.006197 -0.002259 0.000000
0.008641 -0.024137 0.000000
0.008706 -0.001364 0.000000
0.007263 -0.026469 0.000000
0.007286 -0.026465 0.000000
0.011269 -0.009673 0.000000
0.004758 -0.013657 0.000000
0.004871 -0.013673 0.000000
0.003001 -0.007498 0.000000
0.006299 -0.024934 0.000000
0.008657 -0.021252 0.000000
0.008344 -0.024386 0.000000
0.008406 -0.024243 0.000000
0.008362 -0.024285 0.000000
0.008424 -0.024139 0.000000
0.011058 -0.017114 0.000000
0.012165 -0.001752 0.000000
0.001796 -0.012905 0.000000
0.007020 -0.020668 0.000000
0.004419 -0.019936 0.000000
0.005327 -0.021530 0.000000
0.005397 -0.021740 0.000000
0.004476 -0.012974 0.000000
0.005676 -0.021679 0.000000
0.005606 -0.021652 0.000000
0.005540 -0.021440 0.000000
0.005536 -0.021624 0.000000
0.005602 -0.021832 0.000000
0.005533 -0.021803 0.000000
0.005599 -0.022007 0.000000
0.005666 -0.022036 0.000000
0.005532 -0.021977 0.000000
0.005598 -0.022178 0.000000
0.005466 -0.021594 0.000000
0.008602 -0.022007 0.000000
0.007645 -0.025907 0.000000
0.005462 -0.023920 0.000000
0.002775 -0.007091 0.000000
0.003719 -0.012191 0.000000
0.003743 -0.019438 0.000000
0.003794 -0.008713 0.000000
0.003836 -0.008343 0.000000
0.006933 -0.026292 0.000000
0.006964 -0.026284 0.000000
0.006996 -0.026308 0.000000
0.006097 -0.025007 0.000000
0.008172 -0.024005 0.000000
0.005760 -0.024525 0.000000
0.006856 -0.025518 0.000000
0.006913 -0.025562 0.000000
0.006916 -0.025624 0.000000
0.003132 -0.007514 0.000000
0.001917 -0.002598 0.000000
0.006240 -0.013796 0.000000
0.002031 -0.008071 0.000000
0.009994 -0.019974 0.000000
0.006079 -0.014109 0.000000
0.003057 -0.009696 0.000000
0.010896 -0.007149 0.000000
0.002830 -0.016251 0.000000
0.002846 -0.016478 0.000000
0.005507 -0.024052 0.000000
0.006715 -0.025214 0.000000
0.003972 -0.018688 0.000000
0.003879 -0.018427 0.000000
0.007619 -0.025092 0.000000
0.009004 -0.023452 0.000000
0.009039 -0.023355 0.000000
0.009120 -0.023191 0.000000
0.008994 -0.023418 0.000000
0.006654 -0.025557 0.000000
0.006595 -0.025495 0.000000
0.004239 -0.020780 0.000000
0.011433 -0.012860 0.000000
0.011647 -0.012482 0.000000
0.007300 -0.007306 0.000000
0.006768 -0.025667 0.000000
0.008069 -0.024187 0.000000
0.008020 -0.024214 0.000000
0.012194 -0.011949 0.000000
0.007689 -0.025823 0.000000
0.007626 -0.025953 0.000000
0.007397 -0.026130 0.000000
0.006548 -0.025490 0.000000
0.012654 -0.007595 0.000000
0.004532 -0.013621 0.000000
0.002090 -0.003444 0.000000
0.004387 -0.021726 0.000000
0.008281 -0.024662 0.000000
0.008680 -0.023994 0.000000
0.004824 -0.003979 0.000000
0.008668 -0.021803 0.000000
0.006959 -0.026241 0.000000
0.004507 -0.012652 0.000000
0.003344 -0.010786 0.000000
0.005514 -0.023511 0.000000
0.005497 -0.023389 0.000000
0.008330 -0.024651 0.000000
0.007026 -0.026708 0.000000
0.007043 -0.026728 0.000000
0.007048 -0.026743 0.000000
0.007037 -0.026712 0.000000
0.007032 -0.026694 0.000000
0.005495 -0.023994 0.000000
0.005521 -0.023993 0.000000
0.008967 -0.023544 0.000000
0.009009 -0.023478 0.000000
0.004420 -0.020789 0.000000
0.013167 -0.001708 0.000000
0.010030 -0.020278 0.000000
0.010101 -0.020219 0.000000
0.006503 -0.025056 0.000000
0.010392 -0.014377 0.000000
0.007335 -0.026447 0.000000
0.007363 -0.026393 0.000000
0.001491 -0.004988 0.000000
0.005754 -0.021517 0.000000
0.007562 -0.026068 0.000000
0.011336 -0.013479 0.000000
0.009790 -0.017033 0.000000
0.009705 -0.017316 0.000000
0.005898 -0.021562 0.000000
0.005971 -0.021582 0.000000
0.005985 -0.021389 0.000000
0.006043 -0.021601 0.000000
0.006029 -0.021791 0.000000
0.003409 -0.005174 0.000000
0.005994 -0.024937 0.000000
0.005960 -0.024879 0.000000
0.006030 -0.024992 0.000000
0.006002 -0.024935 0.000000
0.002302 -0.015187 0.000000
0.006561 -0.024944 0.000000
0.008104 -0.024774 0.000000
0.001252 -0.008520 0.000000
0.003801 -0.006406 0.000000
0.003936 -0.006415 0.000000
0.004343 -0.019888 0.000000
0.005425 -0.017813 0.000000
0.006688 -0.026106 0.000000
0.006666 -0.026078 0.000000
0.007890 -0.025072 0.000000
0.007940 -0.025055 0.000000
0.007873 -0.025139 0.000000
0.007922 -0.025122 0.000000
0.007989 -0.025034 0.000000
0.007969 -0.025099 0.000000
0.008037 -0.025008 0.000000
0.008016 -0.025073 0.000000
0.008083 -0.024978 0.000000
0.008128 -0.024944 0.000000
0.008152 -0.024880 0.000000
0.007856 -0.025205 0.000000
0.007807 -0.025219 0.000000
0.007903 -0.025186 0.000000
0.008058 -0.024942 0.000000
0.008009 -0.024967 0.000000
0.007586 -0.024518 0.000000
0.007625 -0.024375 0.000000
0.007674 -0.024360 0.000000
0.007770 -0.024879 0.000000
0.001320 -0.005343 0.000000
0.001187 -0.005317 0.000000
0.001086 -0.004917 0.000000
0.004625 -0.004397 0.000000
0.005078 -0.022444 0.000000
0.004122 -0.017182 0.000000
0.004029 -0.017144 0.000000
0.004216 -0.017218 0.000000
0.004221 -0.016968 0.000000
0.004309 -0.017252 0.000000
0.005828 -0.024460 0.000000
0.010078 -0.020389 0.000000
0.009992 -0.004384 0.000000
0.010050 -0.004799 0.000000
0.010188 -0.004794 0.000000
0.010106 -0.005210 0.000000
0.009969 -0.005216 0.000000
0.009912 -0.004804 0.000000
0.009774 -0.004809 0.000000
0.009832 -0.005221 0.000000
0.009695 -0.005226 0.000000
0.009637 -0.004814 0.000000
0.009558 -0.005231 0.000000
0.009499 -0.004818 0.000000
0.009421 -0.005236 0.000000
0.009362 -0.004822 0.000000
0.009284 -0.005240 0.000000
0.009224 -0.004826 0.000000
0.009148 -0.005244 0.000000
0.009087 -0.004829 0.000000
0.009011 -0.005247 0.000000
0.008950 -0.004832 0.000000
0.008874 -0.005251 0.000000
0.008935 -0.005662 0.000000
0.008799 -0.005666 0.000000
0.008738 -0.005254 0.000000
0.008663 -0.005669 0.000000
0.008723 -0.006077 0.000000
0.010025 -0.005623 0.000000
0.009227 -0.021168 0.000000
0.009151 -0.021384 0.000000
0.008464 -0.005259 0.000000
0.008601 -0.005257 0.000000
0.008538 -0.004840 0.000000
0.008675 -0.004838 0.000000
0.010955 -0.017393 0.000000
0.006186 -0.025073 0.000000
0.006252 -0.025163 0.000000
0.003603 -0.017839 0.000000
0.011211 -0.015899 0.000000
0.010392 -0.001350 0.000000
0.010325 -0.000904 0.000000
0.010534 -0.001348 0.000000
0.007687 -0.025842 0.000000
0.004754 -0.020862 0.000000
0.004834 -0.021084 0.000000
0.009644 -0.021931 0.000000
0.007323 -0.025502 0.000000
0.004041 -0.011243 0.000000
0.005026 -0.003556 0.000000
0.006839 -0.008480 0.000000
0.006906 -0.008864 0.000000
0.007191 -0.026607 0.000000
0.006998 -0.024309 0.000000
0.006969 -0.024164 0.000000
0.006916 -0.024160 0.000000
0.011956 -0.011146 0.000000
0.007330 -0.023702 0.000000
0.007272 -0.023707 0.000000
0.007387 -0.023696 0.000000
0.007240 -0.023864 0.000000
0.007215 -0.023710 0.000000
0.008072 -0.024954 0.000000
0.003254 -0.002220 0.000000
0.003272 -0.003082 0.000000
0.009483 -0.007642 0.000000
0.008934 -0.020349 0.000000
0.009013 -0.020319 0.000000
0.009007 -0.020113 0.000000
0.009087 -0.020083 0.000000
0.009081 -0.019873 0.000000
0.009162 -0.019842 0.000000
0.009157 -0.019629 0.000000
0.009239 -0.019598 0.000000
0.009150 -0.019411 0.000000
0.006923 -0.025744 0.000000
0.006927 -0.025801 0.000000
0.007424 -0.026271 0.000000
0.003954 -0.018259 0.000000
0.004868 -0.001806 0.000000
0.004802 -0.002247 0.000000
0.007059 -0.026771 0.000000
0.007070 -0.026787 0.000000
0.007064 -0.026778 0.000000
0.007075 -0.026795 0.000000
0.005008 -0.001807 0.000000
0.004489 -0.020843 0.000000
0.008379 -0.024180 0.000000
0.010806 -0.007542 0.000000
0.010847 -0.007917 0.000000
0.013371 -0.003319 0.000000
0.005915 -0.001365 0.000000
0.006055 -0.001366 0.000000
0.006823 -0.026040 0.000000
0.006776 -0.025992 0.000000
0.006739 -0.025989 0.000000
0.005015 -0.006467 0.000000
0.003582 -0.018615 0.000000
0.004769 -0.022644 0.000000
0.004808 -0.022748 0.000000
0.007946 -0.025145 0.000000
0.004936 -0.001360 0.000000
0.007407 -0.026085 0.000000
0.007452 -0.026035 0.000000
0.007363 -0.026131 0.000000
0.007327 -0.026129 0.000000
0.007463 -0.025989 0.000000
0.005351 -0.022365 0.000000
0.006686 -0.003573 0.000000
0.006756 -0.004003 0.000000
0.006894 -0.004003 0.000000
0.006826 -0.004429 0.000000
0.006689 -0.004429 0.000000
0.006759 -0.004851 0.000000
0.006622 -0.004851 0.000000
0.006692 -0.005270 0.000000
0.006556 -0.005269 0.000000
0.006485 -0.004850 0.000000
0.006419 -0.005268 0.000000
0.006348 -0.004849 0.000000
0.006283 -0.005267 0.000000
0.006211 -0.004848 0.000000
0.006146 -0.005265 0.000000
0.006074 -0.004846 0.000000
0.006010 -0.005263 0.000000
0.005937 -0.004844 0.000000
0.005874 -0.005261 0.000000
0.005800 -0.004842 0.000000
0.005737 -0.005259 0.000000
0.005663 -0.004840 0.000000
0.005601 -0.005257 0.000000
0.005589 -0.004418 0.000000
0.003486 -0.017113 0.000000
0.003396 -0.017061 0.000000
0.006999 -0.026440 0.000000
0.005139 -0.022849 0.000000
0.005802 -0.015332 0.000000
0.005360 -0.022518 0.000000
0.012738 -0.009577 0.000000
0.009586 -0.021996 0.000000
0.007571 -0.006502 0.000000
0.007641 -0.006094 0.000000
0.006438 -0.025713 0.000000
0.006485 -0.025800 0.000000
0.006462 -0.025761 0.000000
0.006510 -0.025843 0.000000
0.006532 -0.025882 0.000000
0.006488 -0.025803 0.000000
0.006535 -0.025882 0.000000
0.006413 -0.025674 0.000000
0.009500 -0.022190 0.000000
0.006504 -0.025788 0.000000
0.006485 -0.025741 0.000000
0.004029 -0.017623 0.000000
0.010763 -0.007162 0.000000
0.009929 -0.021580 0.000000
0.010019 -0.021388 0.000000
0.006945 -0.026499 0.000000
0.007139 -0.026728 0.000000
0.007150 -0.026697 0.000000
0.007162 -0.026691 0.000000
0.007137 -0.026703 0.000000
0.007162 -0.026662 0.000000
0.007714 -0.025421 0.000000
0.007666 -0.025429 0.000000
0.007728 -0.025359 0.000000
0.007679 -0.025366 0.000000
0.007983 -0.005680 0.000000
0.007912 -0.006092 0.000000
0.011117 -0.015953 0.000000
0.009488 -0.022599 0.000000
0.009532 -0.022532 0.000000
0.006312 -0.025072 0.000000
0.008805 -0.022951 0.000000
0.008749 -0.022993 0.000000
0.010817 -0.001345 0.000000
0.010750 -0.000901 0.000000
0.004032 -0.016897 0.000000
0.008396 -0.024586 0.000000
0.010739 -0.004768 0.000000
0.010632 -0.019124 0.000000
0.003065 -0.014939 0.000000
0.011445 -0.016412 0.000000
0.010793 -0.005174 0.000000
0.009158 -0.022152 0.000000
0.008850 -0.023781 0.000000
0.004624 -0.012668 0.000000
0.002602 -0.015419 0.000000
0.008283 -0.024525 0.000000
0.006073 -0.024944 0.000000
0.007084 -0.026735 0.000000
0.007076 -0.026706 0.000000
0.007064 -0.026703 0.000000
0.007089 -0.026708 0.000000
0.007101 -0.026709 0.000000
0.004010 -0.007980 0.000000
0.009546 -0.021693 0.000000
0.004677 -0.021441 0.000000
0.004759 -0.021650 0.000000
0.004741 -0.021492 0.000000
0.006584 -0.025433 0.000000
0.005038 -0.004407 0.000000
0.006180 -0.024088 0.000000
0.006231 -0.024239 0.000000
0.008257 -0.024745 0.000000
0.006911 -0.026122 0.000000
0.006948 -0.026110 0.000000
0.006771 -0.026147 0.000000
0.003438 -0.011143 0.000000
0.007368 -0.026253 0.000000
0.007397 -0.026244 0.000000
0.004092 -0.001353 0.000000
0.003073 -0.003498 0.000000
0.013617 -0.004427 0.000000
0.013749 -0.004388 0.000000
0.013647 -0.004797 0.000000
0.013668 -0.005191 0.000000
0.010278 -0.008726 0.000000
0.008062 -0.004425 0.000000
0.007594 -0.025788 0.000000
0.004317 -0.002678 0.000000
0.007292 -0.025498 0.000000
0.003084 -0.015953 0.000000
0.003093 -0.016195 0.000000
0.004983 -0.022480 0.000000
0.004069 -0.020742 0.000000
0.006544 -0.025274 0.000000
0.006583 -0.025387 0.000000
0.005923 -0.003135 0.000000
0.011304 -0.012300 0.000000
0.011291 -0.011993 0.000000
0.011191 -0.012335 0.000000
0.011392 -0.011647 0.000000
0.011694 -0.015354 0.000000
0.006014 -0.024924 0.000000
0.004290 -0.004804 0.000000
0.005255 -0.021316 0.000000
0.011804 -0.015047 0.000000
0.011914 -0.014736 0.000000
0.012006 -0.014677 0.000000
0.012020 -0.014431 0.000000
0.007827 -0.024778 0.000000
0.005356 -0.001363 0.000000
0.008422 -0.023837 0.000000
0.008409 -0.023956 0.000000
0.006797 -0.025470 0.000000
0.004020 -0.006816 0.000000
0.004104 -0.007214 0.000000
0.011858 -0.011799 0.000000
0.004937 -0.006060 0.000000
0.005149 -0.006472 0.000000
0.007891 -0.025496 0.000000
0.009320 -0.022739 0.000000
0.009236 -0.022915 0.000000
0.007226 -0.010724 0.000000
0.009218 -0.022480 0.000000
0.008909 -0.012068 0.000000
0.006835 -0.025829 0.000000
0.009782 -0.013602 0.000000
0.007845 -0.025530 0.000000
0.007902 -0.025442 0.000000
0.003124 -0.012368 0.000000
0.008856 -0.020377 0.000000
0.011145 -0.009696 0.000000
0.009543 -0.021280 0.000000
0.009477 -0.021330 0.000000
0.007205 -0.026527 0.000000
0.007210 -0.026497 0.000000
0.007239 -0.026470 0.000000
0.007214 -0.026466 0.000000
0.012620 -0.009626 0.000000
0.001800 -0.010348 0.000000
0.011736 -0.001765 0.000000
0.005881 -0.024601 0.000000
0.006372 -0.025428 0.000000
0.006414 -0.025450 0.000000
0.007486 -0.026026 0.000000
0.009945 -0.021176 0.000000
0.006414 -0.004427 0.000000
0.006552 -0.004428 0.000000
0.011032 -0.014445 0.000000
0.011133 -0.014127 0.000000
0.010933 -0.014760 0.000000
0.010830 -0.014800 0.000000
0.006439 -0.007698 0.000000
0.006537 -0.025167 0.000000
0.006593 -0.025164 0.000000
0.007026 -0.024450 0.000000
0.007771 -0.025162 0.000000
0.007823 -0.025153 0.000000
0.003995 -0.019098 0.000000
0.005845 -0.024569 0.000000
0.004255 -0.019646 0.000000
0.002163 -0.010159 0.000000
0.007170 -0.002261 0.000000
0.007101 -0.001816 0.000000
0.006962 -0.001816 0.000000
0.007031 -0.001367 0.000000
0.007170 -0.001367 0.000000
0.006892 -0.001367 0.000000
0.012633 -0.011440 0.000000
0.006932 -0.025910 0.000000
0.006973 -0.025940 0.000000
0.007149 -0.017969 0.000000
0.007196 -0.018235 0.000000
0.006873 -0.026442 0.000000
0.006841 -0.026396 0.000000
0.006828 -0.026366 0.000000
0.006807 -0.026346 0.000000
0.009872 -0.021000 0.000000
0.005601 -0.010685 0.000000
0.008136 -0.011770 0.000000
0.002816 -0.001336 0.000000
0.002740 -0.000893 0.000000
0.003056 -0.017820 0.000000
0.002949 -0.017546 0.000000
0.007445 -0.004003 0.000000
0.007583 -0.004002 0.000000
0.007743 -0.025295 0.000000
0.005371 -0.015284 0.000000
0.007791 -0.025284 0.000000
0.007023 -0.026205 0.000000
0.007040 -0.026275 0.000000
0.007031 -0.026336 0.000000
0.007055 -0.026340 0.000000
0.007064 -0.026278 0.000000
0.007078 -0.026342 0.000000
0.007068 -0.026401 0.000000
0.007090 -0.026402 0.000000
0.007101 -0.026343 0.000000
0.007112 -0.026402 0.000000
0.007124 -0.026342 0.000000
0.007133 -0.026401 0.000000
0.007147 -0.026340 0.000000
0.007155 -0.026398 0.000000
0.007170 -0.026336 0.000000
0.007177 -0.026394 0.000000
0.007193 -0.026331 0.000000
0.007199 -0.026388 0.000000
0.007216 -0.026325 0.000000
0.007220 -0.026381 0.000000
0.007239 -0.026317 0.000000
0.007242 -0.026372 0.000000
0.007262 -0.026307 0.000000
0.007264 -0.026362 0.000000
0.007285 -0.026296 0.000000
0.007285 -0.026350 0.000000
0.007308 -0.026284 0.000000
0.007113 -0.026279 0.000000
0.007307 -0.026337 0.000000
0.007162 -0.026275 0.000000
0.007211 -0.026265 0.000000
0.007260 -0.026249 0.000000
0.007309 -0.026227 0.000000
0.007331 -0.026270 0.000000
0.007243 -0.026423 0.000000
0.007284 -0.026399 0.000000
0.007304 -0.026385 0.000000
0.007182 -0.026447 0.000000
0.007281 -0.026444 0.000000
0.007141 -0.026455 0.000000
0.007101 -0.026458 0.000000
0.007046 -0.026398 0.000000
0.007025 -0.026394 0.000000
0.007203 -0.026440 0.000000
0.005229 -0.022817 0.000000
0.004662 -0.002246 0.000000
0.004736 -0.002685 0.000000
0.004481 -0.017808 0.000000
0.008496 -0.023550 0.000000
0.002441 -0.015759 0.000000
0.007263 -0.026412 0.000000
0.009242 -0.008806 0.000000
0.009163 -0.009186 0.000000
0.009192 -0.008429 0.000000
0.009271 -0.008040 0.000000
0.009212 -0.009555 0.000000
0.009084 -0.009563 0.000000
0.009034 -0.009194 0.000000
0.009113 -0.008813 0.000000
0.008983 -0.008820 0.000000
0.008905 -0.009201 0.000000
0.001568 -0.011431 0.000000
0.001460 -0.011351 0.000000
0.001561 -0.011733 0.000000
0.010584 -0.006788 0.000000
0.007874 -0.024528 0.000000
0.007922 -0.024386 0.000000
0.007922 -0.024263 0.000000
0.005401 -0.014054 0.000000
0.007924 -0.025390 0.000000
0.009597 -0.010612 0.000000
0.005320 -0.023670 0.000000
0.004645 -0.021922 0.000000
0.010640 -0.016444 0.000000
0.010544 -0.016734 0.000000
0.010288 -0.019745 0.000000
0.010258 -0.020360 0.000000
0.010678 -0.010125 0.000000
0.007115 -0.026795 0.000000
0.007115 -0.026805 0.000000
0.007120 -0.026801 0.000000
0.007114 -0.026810 0.000000
0.007109 -0.026808 0.000000
0.007104 -0.026809 0.000000
0.012226 -0.002177 0.000000
0.012284 -0.002598 0.000000
0.005703 -0.007288 0.000000
0.002969 -0.015150 0.000000
0.007863 -0.025528 0.000000
0.006127 -0.008853 0.000000
0.006254 -0.025268 0.000000
0.006273 -0.025339 0.000000
0.006221 -0.025230 0.000000
0.007301 -0.026027 0.000000
0.010005 -0.010919 0.000000
0.004330 -0.021000 0.000000
0.008470 -0.024096 0.000000
0.007101 -0.004430 0.000000
0.008475 -0.004420 0.000000
0.008612 -0.004418 0.000000
0.011462 -0.016186 0.000000
0.006588 -0.025665 0.000000
0.007936 -0.001815 0.000000
0.007868 -0.001367 0.000000
0.007728 -0.001367 0.000000
0.007437 -0.026249 0.000000
0.007205 -0.026605 0.000000
0.007202 -0.026636 0.000000
0.007216 -0.026624 0.000000
0.007189 -0.026646 0.000000
0.004736 -0.020495 0.000000
0.004730 -0.020304 0.000000
0.004805 -0.020344 0.000000
0.007582 -0.022290 0.000000
0.007606 -0.022473 0.000000
0.009718 -0.021275 0.000000
0.004530 -0.006045 0.000000
0.009140 -0.008047 0.000000
0.009883 -0.021242 0.000000
0.008649 -0.023909 0.000000
0.008560 -0.023382 0.000000
0.008614 -0.023343 0.000000
0.008626 -0.023210 0.000000
0.002933 -0.009673 0.000000
0.006639 -0.026068 0.000000
0.006618 -0.026030 0.000000
0.006639 -0.026062 0.000000
0.006597 -0.025995 0.000000
0.004021 -0.010193 0.000000
0.003986 -0.010542 0.000000
0.004764 -0.022441 0.000000
0.004677 -0.022253 0.000000
0.009461 -0.012684 0.000000
0.009577 -0.012668 0.000000
0.006291 -0.025178 0.000000
0.006340 -0.025293 0.000000
0.006183 -0.025075 0.000000
0.004373 -0.001356 0.000000
0.008462 -0.021886 0.000000
0.008455 -0.021704 0.000000
0.002444 -0.007791 0.000000
0.005972 -0.018925 0.000000
0.006896 -0.004852 0.000000
0.003188 -0.013598 0.000000
0.003286 -0.013923 0.000000
0.003393 -0.013959 0.000000
0.003384 -0.014244 0.000000
0.003180 -0.013886 0.000000
0.005066 -0.023251 0.000000
0.005027 -0.023157 0.000000
0.001453 -0.010194 0.000000
0.004226 -0.021251 0.000000
0.003603 -0.012167 0.000000
0.006004 -0.024328 0.000000
0.005213 -0.023213 0.000000
0.005163 -0.023157 0.000000
0.005085 -0.022984 0.000000
0.005240 -0.023325 0.000000
0.005114 -0.023099 0.000000
0.007101 -0.026797 0.000000
0.007098 -0.026810 0.000000
0.007092 -0.026808 0.000000
0.003195 -0.016487 0.000000
0.007464 -0.025418 0.000000
0.012839 -0.006470 0.000000
0.005188 -0.021460 0.000000
0.005826 -0.021540 0.000000
0.005413 -0.023419 0.000000
0.005440 -0.013739 0.000000
0.005554 -0.013749 0.000000
0.007106 -0.026737 0.000000
0.007113 -0.026708 0.000000
0.009880 -0.007618 0.000000
0.013249 -0.004889 0.000000
0.013215 -0.004515 0.000000
0.007910 -0.025286 0.000000
0.007890 -0.025345 0.000000
0.008529 -0.024227 0.000000
0.008555 -0.024156 0.000000
0.007295 -0.026434 0.000000
0.006627 -0.025917 0.000000
0.006600 -0.025891 0.000000
0.006588 -0.025829 0.000000
0.013332 -0.005975 0.000000
0.004646 -0.022127 0.000000
0.012674 -0.007940 0.000000
0.004730 -0.016595 0.000000
0.007771 -0.025205 0.000000
0.007521 -0.024907 0.000000
0.007528 -0.025019 0.000000
0.010269 -0.009825 0.000000
0.008615 -0.015310 0.000000
0.003558 -0.011165 0.000000
0.006236 -0.007299 0.000000
0.004590 -0.022281 0.000000
0.006128 -0.023932 0.000000
0.006075 -0.023773 0.000000
0.007161 -0.026715 0.000000
0.003860 -0.013488 0.000000
0.007257 -0.026368 0.000000
0.007227 -0.026362 0.000000
0.007223 -0.026398 0.000000
0.007218 -0.026433 0.000000
0.003626 -0.011845 0.000000
0.009187 -0.022978 0.000000
0.004396 -0.010235 0.000000
0.010905 -0.016776 0.000000
0.009583 -0.021781 0.000000
0.006678 -0.026133 0.000000
0.006660 -0.026094 0.000000
0.004389 -0.019128 0.000000
0.011274 -0.008235 0.000000
0.008298 -0.024570 0.000000
0.003321 -0.018225 0.000000
0.003300 -0.018024 0.000000
0.010319 -0.009092 0.000000
0.010447 -0.009078 0.000000
0.001793 -0.010656 0.000000
0.001789 -0.010959 0.000000
0.001025 -0.005653 0.000000
0.013738 -0.001669 0.000000
0.013698 -0.002484 0.000000
0.007036 -0.008865 0.000000
0.005082 -0.023191 0.000000
0.007399 -0.026302 0.000000
0.007412 -0.026267 0.000000
0.010605 -0.014314 0.000000
0.010593 -0.014025 0.000000
0.010701 -0.013993 0.000000
0.010689 -0.013701 0.000000
0.010808 -0.013959 0.000000
0.009760 -0.010948 0.000000
0.013457 -0.005940 0.000000
0.006916 -0.026350 0.000000
0.009964 -0.007223 0.000000
0.006480 -0.025407 0.000000
0.009680 -0.010247 0.000000
0.000978 -0.002120 0.000000
0.001120 -0.002131 0.000000
0.006153 -0.024827 0.000000
0.008374 -0.024640 0.000000
0.011434 -0.008575 0.000000
0.011562 -0.008553 0.000000
0.007505 -0.024918 0.000000
0.006987 -0.025236 0.000000
0.002018 -0.006602 0.000000
0.001919 -0.006208 0.000000
0.007571 -0.025004 0.000000
0.011035 -0.015247 0.000000
0.010936 -0.015293 0.000000
0.006757 -0.026246 0.000000
0.009530 -0.003118 0.000000
0.012259 -0.004652 0.000000
0.012302 -0.005044 0.000000
0.012439 -0.005026 0.000000
0.012165 -0.005060 0.000000
0.012207 -0.005448 0.000000
0.012071 -0.005465 0.000000
0.007558 -0.023670 0.000000
0.007599 -0.023505 0.000000
0.007615 -0.023659 0.000000
0.007657 -0.023493 0.000000
0.007209 -0.025442 0.000000
0.007243 -0.026469 0.000000
0.004639 -0.019666 0.000000
0.004721 -0.019909 0.000000
0.004719 -0.019705 0.000000
0.004799 -0.019947 0.000000
0.002696 -0.015481 0.000000
0.005834 -0.024557 0.000000
0.011049 -0.010063 0.000000
0.004704 -0.021982 0.000000
0.008361 -0.023994 0.000000
0.007269 -0.026521 0.000000
0.009239 -0.020803 0.000000
0.009312 -0.020764 0.000000
0.009317 -0.020576 0.000000
0.009391 -0.020536 0.000000
0.009396 -0.020344 0.000000
0.009472 -0.020304 0.000000
0.009477 -0.020109 0.000000
0.009554 -0.020068 0.000000
0.009559 -0.019870 0.000000
0.009637 -0.019828 0.000000
0.009642 -0.019626 0.000000
0.009721 -0.019585 0.000000
0.009646 -0.019419 0.000000
0.009730 -0.019169 0.000000
0.009732 -0.018954 0.000000
0.009385 -0.020723 0.000000
0.009915 -0.021320 0.000000
0.012628 -0.009940 0.000000
0.006909 -0.026334 0.000000
0.001916 -0.010394 0.000000
0.007879 -0.025492 0.000000
0.005867 -0.008846 0.000000
0.010023 -0.019596 0.000000
0.006600 -0.025716 0.000000
0.006631 -0.025739 0.000000
0.002942 -0.011362 0.000000
0.008076 -0.013790 0.000000
0.006242 -0.024790 0.000000
0.006760 -0.025053 0.000000
0.007833 -0.025588 0.000000
0.010533 -0.019373 0.000000
0.004486 -0.004393 0.000000
0.005276 -0.023654 0.000000
0.001438 -0.002982 0.000000
0.006831 -0.006096 0.000000
0.006722 -0.025284 0.000000
0.006030 -0.024945 0.000000
0.009673 -0.020543 0.000000
0.007945 -0.025399 0.000000
0.004690 -0.009900 0.000000
0.004816 -0.009910 0.000000
0.004772 -0.010269 0.000000
0.004862 -0.009547 0.000000
0.004943 -0.009920 0.000000
0.004990 -0.009555 0.000000
0.004647 -0.010259 0.000000
0.004729 -0.010624 0.000000
0.004853 -0.010635 0.000000
0.004811 -0.010985 0.000000
0.004934 -0.010996 0.000000
0.004897 -0.010279 0.000000
0.005023 -0.010289 0.000000
0.007839 -0.025582 0.000000
0.009564 -0.007246 0.000000
0.009351 -0.007649 0.000000
0.007052 -0.026761 0.000000
0.007059 -0.026768 0.000000
0.007053 -0.026756 0.000000
0.007064 -0.026769 0.000000
0.008211 -0.024932 0.000000
0.007045 -0.014459 0.000000
0.005402 -0.008447 0.000000
0.004655 -0.018112 0.000000
0.007445 -0.022305 0.000000
0.007619 -0.025387 0.000000
0.008736 -0.023129 0.000000
0.005664 -0.022208 0.000000
0.005663 -0.022375 0.000000
0.005599 -0.022344 0.000000
0.005730 -0.022236 0.000000
0.009879 -0.019496 0.000000
0.007503 -0.013812 0.000000
0.007815 -0.025403 0.000000
0.007862 -0.025293 0.000000
0.005806 -0.024586 0.000000
0.005734 -0.024465 0.000000
0.007929 -0.012806 0.000000
0.007811 -0.012810 0.000000
0.007746 -0.013147 0.000000
0.007758 -0.012473 0.000000
0.007211 -0.024965 0.000000
0.006174 -0.007693 0.000000
0.006042 -0.007691 0.000000
0.007235 -0.026257 0.000000
0.001082 -0.000433 0.000000
0.012939 -0.002140 0.000000
0.008382 -0.023750 0.000000
0.006889 -0.024705 0.000000
0.006918 -0.024835 0.000000
0.007153 -0.026643 0.000000
0.008220 -0.024790 0.000000
0.004404 -0.008009 0.000000
0.009038 -0.023157 0.000000
0.004892 -0.011343 0.000000
0.012169 -0.010438 0.000000
0.001233 -0.006438 0.000000
0.005736 -0.023177 0.000000
0.005526 -0.004838 0.000000
0.005055 -0.013050 0.000000
0.005019 -0.013371 0.000000
0.005098 -0.013702 0.000000
0.013913 -0.003465 0.000000
0.007936 -0.025401 0.000000
0.008032 -0.025186 0.000000
0.009187 -0.011354 0.000000
0.009697 -0.007239 0.000000
0.006019 -0.006088 0.000000
0.009792 -0.021453 0.000000
0.008424 -0.010332 0.000000
0.008371 -0.009968 0.000000
0.010194 -0.019984 0.000000
0.009163 -0.004407 0.000000
0.007214 -0.014139 0.000000
0.007273 -0.013815 0.000000
0.006667 -0.025833 0.000000
0.006662 -0.025760 0.000000
0.006693 -0.025780 0.000000
0.006658 -0.025683 0.000000
0.006626 -0.025663 0.000000
0.006622 -0.025582 0.000000
0.006656 -0.025601 0.000000
0.008222 -0.024776 0.000000
0.010177 -0.019490 0.000000
0.002521 -0.010263 0.000000
0.006945 -0.026582 0.000000
0.006931 -0.026565 0.000000
0.006943 -0.026585 0.000000
0.007149 -0.026761 0.000000
0.007143 -0.026768 0.000000
0.007149 -0.026755 0.000000
0.007137 -0.026779 0.000000
0.007131 -0.026787 0.000000
0.007135 -0.026779 0.000000
0.007740 -0.025035 0.000000
0.003712 -0.018322 0.000000
0.003700 -0.018109 0.000000
0.003784 -0.018161 0.000000
0.006989 -0.025521 0.000000
0.002669 -0.016343 0.000000
0.002582 -0.016270 0.000000
0.002643 -0.007074 0.000000
0.007681 -0.025514 0.000000
0.004593 -0.021636 0.000000
0.008016 -0.008472 0.000000
0.009277 -0.022626 0.000000
0.008130 -0.022177 0.000000
0.008186 -0.021976 0.000000
0.008255 -0.021956 0.000000
0.008244 -0.021771 0.000000
0.008315 -0.021750 0.000000
0.008173 -0.021791 0.000000
0.008303 -0.021562 0.000000
0.012083 -0.002183 0.000000
0.003486 -0.012141 0.000000
0.004789 -0.015773 0.000000
0.007734 -0.025735 0.000000
0.003938 -0.016859 0.000000
0.002933 -0.003492 0.000000
0.007479 -0.025284 0.000000
0.010788 -0.011472 0.000000
0.010643 -0.011165 0.000000
0.005894 -0.024762 0.000000
0.008766 -0.018822 0.000000
0.008855 -0.018800 0.000000
0.008871 -0.019035 0.000000
0.005344 -0.022207 0.000000
0.005421 -0.022557 0.000000
0.005371 -0.022667 0.000000
0.007304 -0.005685 0.000000
0.003372 -0.009030 0.000000
0.003408 -0.008669 0.000000
0.004039 -0.018305 0.000000
0.004034 -0.018083 0.000000
0.003656 -0.016488 0.000000
0.003657 -0.016734 0.000000
0.005670 -0.021859 0.000000
0.005822 -0.024180 0.000000
0.007197 -0.025419 0.000000
0.004648 -0.011319 0.000000
0.004394 -0.019337 0.000000
0.011213 -0.017201 0.000000
0.007730 -0.024470 0.000000
0.007457 -0.026203 0.000000
0.007404 -0.026293 0.000000
0.007603 -0.025987 0.000000
0.007101 -0.025901 0.000000
0.011086 -0.016664 0.000000
0.008434 -0.023714 0.000000
0.003762 -0.020277 0.000000
0.004359 -0.021871 0.000000
0.011707 -0.004704 0.000000
0.011657 -0.004300 0.000000
0.011744 -0.003882 0.000000
0.011884 -0.003873 0.000000
0.007789 -0.025614 0.000000
0.007274 -0.025409 0.000000
0.001805 -0.004637 0.000000
0.007162 -0.011791 0.000000
0.007101 -0.011439 0.000000
0.004308 -0.019085 0.000000
0.006829 -0.025773 0.000000
0.005545 -0.017572 0.000000
0.006519 -0.025769 0.000000
0.006466 -0.025693 0.000000
0.006447 -0.025644 0.000000
0.007196 -0.026581 0.000000
0.007178 -0.026575 0.000000
0.007712 -0.025582 0.000000
0.008687 -0.014065 0.000000
0.002219 -0.004679 0.000000
0.007064 -0.025527 0.000000
0.007043 -0.025422 0.000000
0.006887 -0.025784 0.000000
0.005479 -0.013419 0.000000
0.005595 -0.013429 0.000000
0.009035 -0.022242 0.000000
0.004071 -0.006423 0.000000
0.004540 -0.012326 0.000000
0.008793 -0.020809 0.000000
0.006998 -0.016578 0.000000
0.006895 -0.016576 0.000000
0.006948 -0.016864 0.000000
0.003830 -0.010868 0.000000
0.003469 -0.015111 0.000000
0.005396 -0.021563 0.000000
0.003691 -0.014631 0.000000
0.007041 -0.026715 0.000000
0.007028 -0.026683 0.000000
0.007015 -0.026673 0.000000
0.007013 -0.026646 0.000000
0.007040 -0.026691 0.000000
0.005630 -0.016766 0.000000
0.008973 -0.003127 0.000000
0.001855 -0.006945 0.000000
0.003198 -0.017754 0.000000
0.007780 -0.025012 0.000000
0.007821 -0.024987 0.000000
0.008797 -0.013085 0.000000
0.008756 -0.012756 0.000000
0.009137 -0.023268 0.000000
0.007873 -0.024643 0.000000
0.008258 -0.011764 0.000000
0.008330 -0.011411 0.000000
0.004217 -0.011947 0.000000
0.001202 -0.003767 0.000000
0.001109 -0.003356 0.000000
0.005505 -0.023696 0.000000
0.006379 -0.024306 0.000000
0.006383 -0.024177 0.000000
0.007895 -0.007696 0.000000
0.007824 -0.008088 0.000000
0.007589 -0.017687 0.000000
0.007645 -0.017411 0.000000
0.007546 -0.017416 0.000000
0.001356 -0.004966 0.000000
0.008860 -0.023250 0.000000
0.008809 -0.023298 0.000000
0.008738 -0.023466 0.000000
0.008718 -0.023583 0.000000
0.006298 -0.025186 0.000000
0.009806 -0.017532 0.000000
0.009713 -0.017565 0.000000
0.009629 -0.017840 0.000000
0.009621 -0.017596 0.000000
0.009538 -0.017871 0.000000
0.009546 -0.018112 0.000000
0.009456 -0.018142 0.000000
0.009446 -0.017900 0.000000
0.009366 -0.018171 0.000000
0.009376 -0.018410 0.000000
0.009354 -0.017928 0.000000
0.009799 -0.017285 0.000000
0.009553 -0.018348 0.000000
0.013119 -0.000433 0.000000
0.006018 -0.024834 0.000000
0.005959 -0.024706 0.000000
0.003854 -0.019185 0.000000
0.003759 -0.018932 0.000000
0.003680 -0.018873 0.000000
0.011651 -0.013890 0.000000
0.011647 -0.014157 0.000000
0.011754 -0.013836 0.000000
0.009166 -0.020840 0.000000
0.008519 -0.021493 0.000000
0.008447 -0.021517 0.000000
0.013408 -0.000429 0.000000
0.013331 -0.000857 0.000000
0.003948 -0.018038 0.000000
0.009927 -0.015650 0.000000
0.009941 -0.015924 0.000000
0.010029 -0.015622 0.000000
0.010119 -0.015316 0.000000
0.010131 -0.015592 0.000000
0.010042 -0.015894 0.000000
0.009953 -0.016192 0.000000
0.010072 -0.018569 0.000000
0.010162 -0.018305 0.000000
0.008000 -0.025154 0.000000
0.008035 -0.025116 0.000000
0.008771 -0.022707 0.000000
0.005865 -0.004422 0.000000
0.000955 -0.006712 0.000000
0.000832 -0.006675 0.000000
0.000816 -0.007001 0.000000
0.000706 -0.006294 0.000000
0.000926 -0.007377 0.000000
0.004140 -0.021244 0.000000
0.004082 -0.021170 0.000000
0.004779 -0.021803 0.000000
0.004841 -0.021855 0.000000
0.003903 -0.020672 0.000000
0.003937 -0.017104 0.000000
0.005432 -0.023936 0.000000
0.007511 -0.024790 0.000000
0.002969 -0.017758 0.000000
0.006680 -0.026079 0.000000
0.007615 -0.025886 0.000000
0.011338 -0.016701 0.000000
0.006115 -0.020796 0.000000
0.009797 -0.011291 0.000000
0.002990 -0.015899 0.000000
0.004876 -0.002687 0.000000
0.007135 -0.026754 0.000000
0.007149 -0.026741 0.000000
0.007154 -0.026725 0.000000
0.007382 -0.026183 0.000000
0.007487 -0.026048 0.000000
0.008575 -0.011398 0.000000
0.002589 -0.015176 0.000000
0.001457 -0.009888 0.000000
0.010127 -0.019150 0.000000
0.009164 -0.007265 0.000000
0.006920 -0.025792 0.000000
0.007110 -0.026510 0.000000
0.002860 -0.014039 0.000000
0.010165 -0.016646 0.000000
0.010261 -0.016609 0.000000
0.008973 -0.022817 0.000000
0.009059 -0.014338 0.000000
0.006730 -0.025456 0.000000
0.008372 -0.024648 0.000000
0.008441 -0.024525 0.000000
0.006991 -0.025442 0.000000
0.000287 -0.003465 0.000000
0.000416 -0.003737 0.000000
0.000447 -0.004151 0.000000
0.007974 -0.021239 0.000000
0.001711 -0.009351 0.000000
0.007101 -0.023049 0.000000
0.007008 -0.023220 0.000000
0.007041 -0.023388 0.000000
0.006980 -0.023386 0.000000
0.006920 -0.023383 0.000000
0.006895 -0.023545 0.000000
0.003177 -0.011420 0.000000
0.007198 -0.024584 0.000000
0.005797 -0.023351 0.000000
0.005853 -0.023383 0.000000
0.005912 -0.023552 0.000000
0.005793 -0.023209 0.000000
0.005850 -0.023240 0.000000
0.005790 -0.023063 0.000000
0.009631 -0.008781 0.000000
0.002921 -0.017336 0.000000
0.007121 -0.026799 0.000000
0.009001 -0.019902 0.000000
0.006959 -0.026469 0.000000
0.006958 -0.026423 0.000000
0.006130 -0.023660 0.000000
0.008438 -0.016501 0.000000
0.008471 -0.016780 0.000000
0.008572 -0.016766 0.000000
0.008502 -0.017054 0.000000
0.008402 -0.017067 0.000000
0.008601 -0.017039 0.000000
0.004887 -0.003553 0.000000
0.006280 -0.024263 0.000000
0.006280 -0.024386 0.000000
0.006232 -0.024361 0.000000
0.006327 -0.024409 0.000000
0.006281 -0.024504 0.000000
0.006234 -0.024479 0.000000
0.007724 -0.024344 0.000000
0.006674 -0.011788 0.000000
0.006552 -0.011785 0.000000
0.007169 -0.026136 0.000000
0.008470 -0.023031 0.000000
0.008466 -0.023177 0.000000
0.001341 -0.003784 0.000000
0.004408 -0.003968 0.000000
0.006397 -0.023905 0.000000
0.008324 -0.021934 0.000000
0.008265 -0.022136 0.000000
0.007624 -0.025763 0.000000
0.006262 -0.023259 0.000000
0.006311 -0.023431 0.000000
0.006272 -0.023101 0.000000
0.006221 -0.022921 0.000000
0.005726 -0.010692 0.000000
0.006800 -0.023373 0.000000
0.007195 -0.025973 0.000000
0.006143 -0.025203 0.000000
0.007856 -0.025541 0.000000
0.006934 -0.020212 0.000000
0.006251 -0.024805 0.000000
0.008659 -0.022630 0.000000
0.008593 -0.022816 0.000000
0.006847 -0.009991 0.000000
0.006781 -0.009619 0.000000
0.005478 -0.008832 0.000000
0.005246 -0.009571 0.000000
0.007549 -0.021505 0.000000
0.008553 -0.023834 0.000000
0.008048 -0.019677 0.000000
0.006798 -0.025575 0.000000
0.002869 -0.007482 0.000000
0.009828 -0.001356 0.000000
0.007146 -0.019008 0.000000
0.006084 -0.024678 0.000000
0.007307 -0.016576 0.000000
0.007355 -0.016862 0.000000
0.006775 -0.015388 0.000000
0.007313 -0.019978 0.000000
0.004283 -0.013888 0.000000
0.004172 -0.013865 0.000000
0.004083 -0.013538 0.000000
0.004010 -0.011579 0.000000
0.002346 -0.007405 0.000000
0.009265 -0.006060 0.000000
0.008164 -0.020781 0.000000
0.008224 -0.020553 0.000000
0.008203 -0.020338 0.000000
0.006836 -0.007701 0.000000
0.006768 -0.007305 0.000000
0.006704 -0.007700 0.000000
0.007457 -0.019249 0.000000
0.008331 -0.013120 0.000000
0.007131 -0.026638 0.000000
0.007209 -0.015391 0.000000
0.007071 -0.026638 0.000000
0.007904 -0.020610 0.000000
0.007400 -0.012480 0.000000
0.010169 -0.016897 0.000000
0.005007 -0.016931 0.000000
0.005106 -0.016952 0.000000
0.007797 -0.020402 0.000000
0.009439 -0.004401 0.000000
0.007527 -0.011788 0.000000
0.010043 -0.012598 0.000000
0.009610 -0.012991 0.000000
0.007443 -0.025044 0.000000
0.007878 -0.012469 0.000000
0.009934 -0.009130 0.000000
0.009890 -0.008761 0.000000
0.007142 -0.020443 0.000000
0.002785 -0.009989 0.000000
0.003546 -0.018938 0.000000
0.007758 -0.019472 0.000000
0.008429 -0.020067 0.000000
0.008365 -0.020303 0.000000
0.009611 -0.017346 0.000000
0.003867 -0.015527 0.000000
0.008370 -0.016792 0.000000
0.008303 -0.017079 0.000000
0.007164 -0.010360 0.000000
0.007290 -0.010360 0.000000
0.007176 -0.024450 0.000000
0.008134 -0.003998 0.000000
0.009403 -0.008033 0.000000
0.009637 -0.010961 0.000000
0.005013 -0.012381 0.000000
0.007080 -0.026457 0.000000
0.008140 -0.018938 0.000000
0.007845 -0.019463 0.000000
0.005305 -0.023646 0.000000
0.003577 -0.019845 0.000000
0.006990 -0.014773 0.000000
0.007217 -0.013489 0.000000
0.008197 -0.024328 0.000000
0.008141 -0.024471 0.000000
0.008130 -0.024577 0.000000
0.008087 -0.024610 0.000000
0.008076 -0.024712 0.000000
0.008035 -0.024744 0.000000
0.008118 -0.024678 0.000000
0.005751 -0.018387 0.000000
0.005659 -0.018371 0.000000
0.005728 -0.015919 0.000000
0.007142 -0.026723 0.000000
0.007159 -0.026707 0.000000
0.007163 -0.026690 0.000000
0.007178 -0.026689 0.000000
0.007180 -0.026672 0.000000
0.009093 -0.020489 0.000000
0.006556 -0.025907 0.000000
0.010340 -0.011889 0.000000
0.007421 -0.009619 0.000000
0.005839 -0.024285 0.000000
0.007300 -0.024956 0.000000
0.007272 -0.025078 0.000000
0.005700 -0.024174 0.000000
0.005774 -0.024256 0.000000
0.003885 -0.020711 0.000000
0.011002 -0.011094 0.000000
0.005079 -0.021886 0.000000
0.005068 -0.021723 0.000000
0.003065 -0.014673 0.000000
0.008167 -0.014424 0.000000
0.009245 -0.020018 0.000000
0.007562 -0.023184 0.000000
0.011818 -0.014803 0.000000
0.012863 -0.010136 0.000000
0.004248 -0.016192 0.000000
0.005093 -0.012724 0.000000
0.005274 -0.018539 0.000000
0.005364 -0.018560 0.000000
0.005383 -0.018316 0.000000
0.008650 -0.021059 0.000000
0.008629 -0.002695 0.000000
0.004896 -0.022920 0.000000
0.004801 -0.020148 0.000000
0.004879 -0.020185 0.000000
0.004878 -0.019983 0.000000
0.004956 -0.020221 0.000000
0.004957 -0.020018 0.000000
0.005033 -0.020255 0.000000
0.005036 -0.020051 0.000000
0.005111 -0.020288 0.000000
0.005115 -0.020083 0.000000
0.005039 -0.019842 0.000000
0.005120 -0.019873 0.000000
0.005045 -0.019629 0.000000
0.005127 -0.019658 0.000000
0.005051 -0.019411 0.000000
0.005135 -0.019439 0.000000
0.005060 -0.019188 0.000000
0.004975 -0.019159 0.000000
0.004963 -0.019598 0.000000
0.005145 -0.019215 0.000000
0.005219 -0.019466 0.000000
0.004879 -0.019777 0.000000
0.004881 -0.020383 0.000000
0.004983 -0.018932 0.000000
0.004968 -0.019381 0.000000
0.004881 -0.019565 0.000000
0.012273 -0.007690 0.000000
0.012170 -0.008071 0.000000
0.012194 -0.008420 0.000000
0.006461 -0.023779 0.000000
0.006473 -0.023632 0.000000
0.006416 -0.023616 0.000000
0.006442 -0.024061 0.000000
0.008538 -0.008457 0.000000
0.008482 -0.008073 0.000000
0.008350 -0.008077 0.000000
0.008424 -0.007684 0.000000
0.008557 -0.007680 0.000000
0.008498 -0.007288 0.000000
0.008632 -0.007284 0.000000
0.008765 -0.007280 0.000000
0.008707 -0.006884 0.000000
0.009304 -0.010279 0.000000
0.011541 -0.014474 0.000000
0.008292 -0.015341 0.000000
0.004521 -0.010247 0.000000
0.005258 -0.020750 0.000000
0.005033 -0.020650 0.000000
0.008401 -0.004842 0.000000
0.003666 -0.015456 0.000000
0.003760 -0.015759 0.000000
0.005449 -0.017555 0.000000
0.005353 -0.017537 0.000000
0.003279 -0.008652 0.000000
0.004564 -0.016004 0.000000
0.004356 -0.020078 0.000000
0.006817 -0.026124 0.000000
0.005959 -0.020764 0.000000
0.003472 -0.016641 0.000000
0.005448 -0.023933 0.000000
0.011426 -0.007091 0.000000
0.011520 -0.006697 0.000000
0.011653 -0.006680 0.000000
0.011613 -0.006299 0.000000
0.002695 -0.011612 0.000000
0.006055 -0.024968 0.000000
0.010948 -0.018888 0.000000
0.005381 -0.023757 0.000000
0.005928 -0.022311 0.000000
0.005986 -0.022505 0.000000
0.008533 -0.022850 0.000000
0.008832 -0.012414 0.000000
0.008865 -0.011727 0.000000
0.002262 -0.014238 0.000000
0.006550 -0.022280 0.000000
0.008231 -0.021582 0.000000
0.010008 -0.021108 0.000000
0.006420 -0.024572 0.000000
0.006374 -0.024551 0.000000
0.007039 -0.026738 0.000000
0.009688 -0.022048 0.000000
0.008542 -0.014707 0.000000
0.008470 -0.015021 0.000000
0.008361 -0.015031 0.000000
0.008400 -0.015332 0.000000
0.005588 -0.023343 0.000000
0.005641 -0.023382 0.000000
0.005705 -0.023550 0.000000
0.007204 -0.024309 0.000000
0.004603 -0.015446 0.000000
0.007008 -0.026331 0.000000
0.006859 -0.020663 0.000000
0.005051 -0.021384 0.000000
0.004982 -0.021343 0.000000
0.004992 -0.021514 0.000000
0.012253 -0.013990 0.000000
0.003151 -0.008635 0.000000
0.006427 -0.023465 0.000000
0.006872 -0.024829 0.000000
0.006975 -0.023046 0.000000
0.005764 -0.021326 0.000000
0.009469 -0.022318 0.000000
0.009498 -0.021982 0.000000
0.006760 -0.014136 0.000000
0.006699 -0.013812 0.000000
0.006584 -0.013809 0.000000
0.008688 -0.020219 0.000000
0.006035 -0.024129 0.000000
0.006089 -0.024278 0.000000
0.006137 -0.024307 0.000000
0.007128 -0.026779 0.000000
0.008910 -0.018295 0.000000
0.006612 -0.023965 0.000000
0.007161 -0.012482 0.000000
0.005911 -0.022810 0.000000
0.008383 -0.020517 0.000000
0.007144 -0.025089 0.000000
0.006599 -0.017135 0.000000
0.006767 -0.025470 0.000000
0.008052 -0.024535 0.000000
0.009082 -0.021423 0.000000
0.005384 -0.016165 0.000000
0.010007 -0.013560 0.000000
0.009919 -0.013888 0.000000
0.001660 -0.000440 0.000000
0.001736 -0.000878 0.000000
0.010413 -0.012847 0.000000
0.006127 -0.022374 0.000000
0.006603 -0.023505 0.000000
0.005453 -0.022993 0.000000
0.005509 -0.023033 0.000000
0.004472 -0.020671 0.000000
0.004574 -0.021063 0.000000
0.005887 -0.021750 0.000000
0.006321 -0.023277 0.000000
0.006407 -0.010352 0.000000
0.005484 -0.020836 0.000000
0.006405 -0.023763 0.000000
0.003638 -0.013434 0.000000
0.006159 -0.022901 0.000000
0.006169 -0.022736 0.000000
0.006116 -0.022547 0.000000
0.003158 -0.011741 0.000000
0.006923 -0.026405 0.000000
0.006894 -0.026165 0.000000
0.007067 -0.022509 0.000000
0.005368 -0.003129 0.000000
0.006811 -0.022860 0.000000
0.011328 -0.017620 0.000000
0.010625 -0.019844 0.000000
0.007081 -0.026799 0.000000
0.008270 -0.017628 0.000000
0.006717 -0.015080 0.000000
0.006667 -0.015385 0.000000
0.006662 -0.025231 0.000000
0.005622 -0.015010 0.000000
0.005694 -0.015321 0.000000
0.006755 -0.025814 0.000000
0.007006 -0.025895 0.000000
0.004488 -0.008397 0.000000
0.004441 -0.008771 0.000000
0.006696 -0.026057 0.000000
0.006139 -0.004425 0.000000
0.005690 -0.020047 0.000000
0.005777 -0.007684 0.000000
0.006528 -0.022463 0.000000
0.005653 -0.012094 0.000000
0.004590 -0.022061 0.000000
0.010810 -0.011796 0.000000
0.007491 -0.017691 0.000000
0.006152 -0.021224 0.000000
0.006076 -0.021208 0.000000
0.006095 -0.021004 0.000000
0.007207 -0.015993 0.000000
0.006925 -0.013157 0.000000
0.004603 -0.017092 0.000000
0.004519 -0.016806 0.000000
0.008029 -0.025239 0.000000
0.002776 -0.012564 0.000000
0.002785 -0.012264 0.000000
0.002673 -0.012225 0.000000
0.006970 -0.008481 0.000000
0.006635 -0.007304 0.000000
0.006571 -0.007699 0.000000
0.006200 -0.003137 0.000000
0.006548 -0.003572 0.000000
0.005128 -0.016683 0.000000
0.005482 -0.024005 0.000000
0.006614 -0.002260 0.000000
0.006683 -0.001816 0.000000
0.006613 -0.001367 0.000000
0.006473 -0.001367 0.000000
0.006403 -0.000915 0.000000
0.009151 -0.016390 0.000000
0.009073 -0.016683 0.000000
0.009049 -0.016410 0.000000
0.008973 -0.016702 0.000000
0.008997 -0.016972 0.000000
0.008899 -0.016990 0.000000
0.008873 -0.016720 0.000000
0.008800 -0.017008 0.000000
0.009024 -0.016131 0.000000
0.008922 -0.017256 0.000000
0.012037 -0.014175 0.000000
0.006509 -0.008090 0.000000
0.007599 -0.018992 0.000000
0.007404 -0.022496 0.000000
0.007337 -0.022501 0.000000
0.007299 -0.022687 0.000000
0.007948 -0.023412 0.000000
0.007101 -0.014774 0.000000
0.010962 -0.004343 0.000000
0.011101 -0.004335 0.000000
0.007148 -0.026687 0.000000
0.010230 -0.013514 0.000000
0.009875 -0.014802 0.000000
0.008290 -0.021369 0.000000
0.007137 -0.021731 0.000000
0.007101 -0.021527 0.000000
0.007026 -0.026408 0.000000
0.008072 -0.024062 0.000000
0.006290 -0.006092 0.000000
0.008191 -0.013784 0.000000
0.010616 -0.014597 0.000000
0.006790 -0.021096 0.000000
0.007613 -0.025829 0.000000
0.006050 -0.022527 0.000000
0.007747 -0.021275 0.000000
0.007671 -0.021285 0.000000
0.000464 -0.005240 0.000000
0.010470 -0.013761 0.000000
0.007447 -0.017419 0.000000
0.007502 -0.017140 0.000000
0.005312 -0.022626 0.000000
0.006720 -0.009990 0.000000
0.005404 -0.013085 0.000000
0.008087 -0.025152 0.000000
0.009053 -0.010298 0.000000
0.012135 -0.014107 0.000000
0.007784 -0.017675 0.000000
0.006517 -0.020187 0.000000
0.007033 -0.026136 0.000000
0.007415 -0.025829 0.000000
0.003463 -0.015898 0.000000
0.003366 -0.015853 0.000000
0.006332 -0.018970 0.000000
0.006422 -0.018978 0.000000
0.006477 -0.019231 0.000000
0.006512 -0.018986 0.000000
0.006457 -0.018729 0.000000
0.006549 -0.018736 0.000000
0.006603 -0.018992 0.000000
0.006366 -0.018721 0.000000
0.006308 -0.018460 0.000000
0.006401 -0.018468 0.000000
0.009807 -0.006039 0.000000
0.008642 -0.016475 0.000000
0.003094 -0.000450 0.000000
0.003236 -0.000451 0.000000
0.003310 -0.000899 0.000000
0.012408 -0.013309 0.000000
0.012480 -0.012974 0.000000
0.006851 -0.020209 0.000000
0.006084 -0.023196 0.000000
0.007352 -0.023855 0.000000
0.004600 -0.020591 0.000000
0.008507 -0.023419 0.000000
0.005879 -0.023909 0.000000
0.005829 -0.023874 0.000000
0.004933 -0.000457 0.000000
0.013097 -0.009703 0.000000
0.011959 -0.015256 0.000000
0.007010 -0.026073 0.000000
0.004202 -0.021508 0.000000
0.004297 -0.021682 0.000000
0.007428 -0.025373 0.000000
0.003939 -0.017581 0.000000
0.007893 -0.011779 0.000000
0.002447 -0.013836 0.000000
0.003586 -0.014597 0.000000
0.006315 -0.025470 0.000000
0.008800 -0.019289 0.000000
0.008814 -0.019516 0.000000
0.007780 -0.016269 0.000000
0.010145 -0.007599 0.000000
0.002379 -0.000446 0.000000
0.004905 -0.018673 0.000000
0.007698 -0.024951 0.000000
0.007699 -0.025056 0.000000
0.007658 -0.025177 0.000000
0.006476 -0.025711 0.000000
0.006431 -0.025616 0.000000
0.012101 -0.014622 0.000000
0.006829 -0.024003 0.000000
0.006775 -0.023996 0.000000
0.006757 -0.024139 0.000000
0.006704 -0.024130 0.000000
0.006741 -0.024278 0.000000
0.006690 -0.024268 0.000000
0.006810 -0.024147 0.000000
0.008541 -0.024339 0.000000
0.007101 -0.024846 0.000000
0.007055 -0.024845 0.000000
0.007869 -0.000459 0.000000
0.002704 -0.017035 0.000000
0.002828 -0.017254 0.000000
0.007869 -0.024157 0.000000
0.007971 -0.024112 0.000000
0.004290 -0.015372 0.000000
0.004202 -0.015063 0.000000
0.006641 -0.025874 0.000000
0.003869 -0.018211 0.000000
0.003775 -0.017943 0.000000
0.004226 -0.019040 0.000000
0.004228 -0.000455 0.000000
0.012612 -0.012274 0.000000
0.010239 -0.020916 0.000000
0.010157 -0.021067 0.000000
0.009921 -0.021693 0.000000
0.008189 -0.024505 0.000000
0.007205 -0.025695 0.000000
0.007095 -0.026819 0.000000
0.007063 -0.026739 0.000000
0.007051 -0.026665 0.000000
0.007031 -0.026649 0.000000
0.007027 -0.026626 0.000000
0.006999 -0.025811 0.000000
0.006142 -0.024423 0.000000
0.006184 -0.024335 0.000000
0.008290 -0.023552 0.000000
0.006419 -0.014126 0.000000
0.004639 -0.018806 0.000000
0.010837 -0.015597 0.000000
0.005835 -0.017616 0.000000
0.007989 -0.014749 0.000000
0.008233 -0.016523 0.000000
0.009151 -0.015237 0.000000
0.006556 -0.017411 0.000000
0.006499 -0.017130 0.000000
0.006627 -0.018223 0.000000
0.007732 -0.013805 0.000000
0.006784 -0.019002 0.000000
0.008414 -0.022756 0.000000
0.007641 -0.025802 0.000000
0.007669 -0.025773 0.000000
0.006574 -0.022652 0.000000
0.006508 -0.022641 0.000000
0.006489 -0.022815 0.000000
0.011497 -0.017033 0.000000
0.010795 -0.019358 0.000000
0.010074 -0.021320 0.000000
0.009368 -0.022851 0.000000
0.008427 -0.024256 0.000000
0.008038 -0.024617 0.000000
0.007885 -0.024732 0.000000
0.007208 -0.025572 0.000000
0.007180 -0.026372 0.000000
0.007169 -0.026508 0.000000
0.007103 -0.026820 0.000000
0.007088 -0.026812 0.000000
0.007086 -0.026808 0.000000
0.007056 -0.026705 0.000000
0.007044 -0.026620 0.000000
0.007029 -0.026476 0.000000
0.006996 -0.025695 0.000000
0.004755 -0.022701 0.000000
0.004915 -0.023001 0.000000
0.004913 -0.022998 0.000000
0.006169 -0.015056 0.000000
0.006234 -0.015365 0.000000
0.006126 -0.015358 0.000000
0.006342 -0.015372 0.000000
0.006191 -0.015664 0.000000
0.005176 -0.014029 0.000000
0.004863 -0.014908 0.000000
0.004943 -0.015219 0.000000
0.007041 -0.026630 0.000000
0.005262 -0.020552 0.000000
0.006761 -0.024553 0.000000
0.006713 -0.024543 0.000000
0.006726 -0.024413 0.000000
0.006676 -0.024402 0.000000
0.006664 -0.024531 0.000000
0.006626 -0.024389 0.000000
0.006593 -0.025641 0.000000
0.007540 -0.025760 0.000000
0.007101 -0.026641 0.000000
0.007513 -0.026025 0.000000
0.007495 -0.025987 0.000000
0.007535 -0.025833 0.000000
0.009407 -0.017146 0.000000
0.009040 -0.017497 0.000000
0.008727 -0.018336 0.000000
0.008656 -0.017572 0.000000
0.008727 -0.017292 0.000000
0.008463 -0.017602 0.000000
0.008173 -0.017640 0.000000
0.006881 -0.019500 0.000000
0.007409 -0.024287 0.000000
0.007426 -0.024422 0.000000
0.007574 -0.023820 0.000000
0.006215 -0.018450 0.000000
0.009196 -0.022807 0.000000
0.009224 -0.022685 0.000000
0.009305 -0.022500 0.000000
0.007825 -0.022615 0.000000
0.007767 -0.014760 0.000000
0.007735 -0.015978 0.000000
0.008052 -0.015958 0.000000
0.008011 -0.015664 0.000000
0.008906 -0.014972 0.000000
0.008604 -0.023958 0.000000
0.007685 -0.023162 0.000000
0.009554 -0.014869 0.000000
0.012112 -0.005850 0.000000
0.007463 -0.023840 0.000000
0.009344 -0.021426 0.000000
0.006533 -0.014130 0.000000
0.008777 -0.009207 0.000000
0.010322 -0.007969 0.000000
0.007655 -0.025367 0.000000
0.007714 -0.025489 0.000000
0.005775 -0.024522 0.000000
0.007388 -0.024940 0.000000
0.004870 -0.016073 0.000000
0.005213 -0.000458 0.000000
0.005774 -0.000459 0.000000
0.007685 -0.023794 0.000000
0.007729 -0.023632 0.000000
0.007672 -0.023646 0.000000
0.007716 -0.023479 0.000000
0.007665 -0.024229 0.000000
0.008554 -0.020683 0.000000
0.008243 -0.020764 0.000000
0.008143 -0.021407 0.000000
0.005478 -0.006077 0.000000
0.004829 -0.008798 0.000000
0.007698 -0.021488 0.000000
0.005327 -0.005251 0.000000
0.003465 -0.018150 0.000000
0.007357 -0.021724 0.000000
0.007284 -0.021728 0.000000
0.007358 -0.025064 0.000000
0.006178 -0.024843 0.000000
0.008096 -0.022716 0.000000
0.007286 -0.025510 0.000000
0.007712 -0.025679 0.000000
0.006906 -0.026075 0.000000
0.006752 -0.000459 0.000000
0.007293 -0.009620 0.000000
0.006223 -0.017660 0.000000
0.004232 -0.005216 0.000000
0.005812 -0.009223 0.000000
0.002637 -0.016775 0.000000
0.001722 -0.012974 0.000000
0.011160 -0.011711 0.000000
0.007521 -0.018487 0.000000
0.006113 -0.024866 0.000000
0.006938 -0.024014 0.000000
0.007768 -0.024196 0.000000
0.006064 -0.024990 0.000000
0.005521 -0.023996 0.000000
0.005492 -0.023903 0.000000
0.005419 -0.023751 0.000000
0.007846 -0.021466 0.000000
0.007823 -0.021264 0.000000
0.007698 -0.022083 0.000000
0.007720 -0.022269 0.000000
0.007487 -0.022109 0.000000
0.005726 -0.022568 0.000000
0.004798 -0.019741 0.000000
0.004718 -0.019496 0.000000
0.004637 -0.019458 0.000000
0.007239 -0.022318 0.000000
0.011758 -0.013566 0.000000
0.007034 -0.026501 0.000000
0.006814 -0.021922 0.000000
0.006742 -0.021917 0.000000
0.005015 -0.011354 0.000000
0.005044 -0.021207 0.000000
0.007770 -0.025615 0.000000
0.007725 -0.025711 0.000000
0.007744 -0.020631 0.000000
0.007566 -0.021084 0.000000
0.007489 -0.021091 0.000000
0.008661 -0.019785 0.000000
0.007187 -0.026270 0.000000
0.005494 -0.000458 0.000000
0.006739 -0.012136 0.000000
0.007046 -0.024020 0.000000
0.007962 -0.023706 0.000000
0.008012 -0.023540 0.000000
0.006588 -0.024988 0.000000
0.011336 -0.014841 0.000000
0.007838 -0.022059 0.000000
0.008061 -0.022196 0.000000
0.011651 -0.012773 0.000000
0.007990 -0.019919 0.000000
0.008653 -0.023431 0.000000
0.008538 -0.022208 0.000000
0.007759 -0.022629 0.000000
0.007807 -0.022439 0.000000
0.007740 -0.022451 0.000000
0.010083 -0.017663 0.000000
0.007562 -0.022662 0.000000
0.007416 -0.023033 0.000000
0.007673 -0.022463 0.000000
0.007651 -0.022280 0.000000
0.007628 -0.022652 0.000000
0.008285 -0.020321 0.000000
0.006443 -0.012473 0.000000
0.008539 -0.022375 0.000000
0.007980 -0.022921 0.000000
0.008394 -0.021910 0.000000
0.008582 -0.024081 0.000000
0.005943 -0.024467 0.000000
0.007693 -0.008090 0.000000
0.007332 -0.026088 0.000000
0.005227 -0.006876 0.000000
0.010645 -0.009776 0.000000
0.006932 -0.022505 0.000000
0.005457 -0.008064 0.000000
0.005588 -0.008068 0.000000
0.006446 -0.025581 0.000000
0.006460 -0.025648 0.000000
0.008385 -0.021728 0.000000
0.011359 -0.011010 0.000000
0.006284 -0.022938 0.000000
0.009187 -0.021842 0.000000
0.006113 -0.025145 0.000000
0.006172 -0.025251 0.000000
0.007060 -0.026138 0.000000
0.004890 -0.019128 0.000000
0.005488 -0.019311 0.000000
0.005505 -0.019079 0.000000
0.005435 -0.018822 0.000000
0.007558 -0.022102 0.000000
0.012412 -0.010959 0.000000
0.006771 -0.022677 0.000000
0.008803 -0.021912 0.000000
0.008873 -0.021706 0.000000
0.006639 -0.022662 0.000000
0.005812 -0.019618 0.000000
0.006670 -0.021910 0.000000
0.005894 -0.012108 0.000000
0.006521 -0.013480 0.000000
0.007788 -0.022257 0.000000
0.007121 -0.026457 0.000000
0.010715 -0.012141 0.000000
0.010051 -0.014165 0.000000
0.008080 -0.018440 0.000000
0.007978 -0.017660 0.000000
0.007708 -0.018475 0.000000
0.007101 -0.020214 0.000000
0.006684 -0.020200 0.000000
0.006296 -0.019931 0.000000
0.006487 -0.020411 0.000000
0.007150 -0.017425 0.000000
0.007051 -0.017425 0.000000
0.007101 -0.017699 0.000000
0.007003 -0.017699 0.000000
0.006952 -0.017424 0.000000
0.006906 -0.017697 0.000000
0.006889 -0.015991 0.000000
0.004361 -0.012955 0.000000
0.008498 -0.009963 0.000000
0.004847 -0.017928 0.000000
0.008650 -0.011040 0.000000
0.008526 -0.011047 0.000000
0.006957 -0.026046 0.000000
0.006951 -0.026118 0.000000
0.006122 -0.019192 0.000000
0.006034 -0.019180 0.000000
0.005936 -0.018416 0.000000
0.009553 -0.011319 0.000000
0.007000 -0.017147 0.000000
0.007953 -0.021034 0.000000
0.009307 -0.012369 0.000000
0.009188 -0.012381 0.000000
0.008620 -0.024204 0.000000
0.006474 -0.025526 0.000000
0.010407 -0.008713 0.000000
0.009543 -0.012341 0.000000
0.009396 -0.019097 0.000000
0.009317 -0.019349 0.000000
0.010756 -0.008302 0.000000
0.010885 -0.008287 0.000000
0.010716 -0.007931 0.000000
0.008376 -0.013446 0.000000
0.008681 -0.013095 0.000000
0.006967 -0.026582 0.000000
0.006986 -0.026624 0.000000
0.006741 -0.026227 0.000000
0.006765 -0.026249 0.000000
0.006751 -0.026214 0.000000
0.006779 -0.026283 0.000000
0.008122 -0.020353 0.000000
0.006951 -0.021525 0.000000
0.006991 -0.021730 0.000000
0.010864 -0.009387 0.000000
0.009402 -0.019531 0.000000
0.005646 -0.003132 0.000000
0.009715 -0.004393 0.000000
0.012414 -0.011257 0.000000
0.005294 -0.002692 0.000000
0.005355 -0.016444 0.000000
0.007690 -0.015682 0.000000
0.007583 -0.015686 0.000000
0.007904 -0.015671 0.000000
0.007790 -0.019709 0.000000
0.008273 -0.024824 0.000000
0.008207 -0.024937 0.000000
0.009281 -0.014307 0.000000
0.009250 -0.014000 0.000000
0.010977 -0.007902 0.000000
0.006526 -0.016274 0.000000
0.009261 -0.022201 0.000000
0.008452 -0.011405 0.000000
0.007535 -0.015385 0.000000
0.007453 -0.025840 0.000000
0.007411 -0.025837 0.000000
0.010065 -0.018784 0.000000
0.002998 -0.012639 0.000000
0.008447 -0.024346 0.000000
0.010104 -0.009481 0.000000
0.005792 -0.018895 0.000000
0.006956 -0.017968 0.000000
0.008521 -0.019117 0.000000
0.007494 -0.014454 0.000000
0.009421 -0.017402 0.000000
0.006999 -0.026631 0.000000
0.006779 -0.020659 0.000000
0.006572 -0.015982 0.000000
0.007178 -0.021105 0.000000
0.007265 -0.015084 0.000000
0.007965 -0.016831 0.000000
0.006698 -0.021713 0.000000
0.006727 -0.021512 0.000000
0.009343 -0.012698 0.000000
0.007312 -0.015991 0.000000
0.007466 -0.016282 0.000000
0.007524 -0.015986 0.000000
0.007126 -0.026794 0.000000
0.008672 -0.016752 0.000000
0.007841 -0.015972 0.000000
0.006053 -0.000459 0.000000
0.007310 -0.000459 0.000000
0.007380 -0.000915 0.000000
0.007519 -0.000915 0.000000
0.007589 -0.000459 0.000000
0.008568 -0.000458 0.000000
0.009129 -0.000457 0.000000
0.012253 -0.000443 0.000000
0.006163 -0.024616 0.000000
0.003030 -0.018134 0.000000
0.002318 -0.015560 0.000000
0.002019 -0.014319 0.000000
0.002131 -0.014537 0.000000
0.000558 -0.006072 0.000000
0.012478 -0.005411 0.000000
0.007575 -0.024389 0.000000
0.006237 -0.016831 0.000000
0.006135 -0.016823 0.000000
0.003728 -0.020289 0.000000
0.007921 -0.021453 0.000000
0.007899 -0.021252 0.000000
0.012780 -0.007559 0.000000
0.007031 -0.000459 0.000000
0.008848 -0.000458 0.000000
0.009973 -0.000455 0.000000
0.012541 -0.000440 0.000000
0.005533 -0.023962 0.000000
0.003180 -0.018653 0.000000
0.002858 -0.017575 0.000000
0.002489 -0.016187 0.000000
0.002168 -0.014945 0.000000
0.001868 -0.013638 0.000000
0.001591 -0.012275 0.000000
0.004106 -0.013229 0.000000
0.006756 -0.025890 0.000000
0.007875 -0.021046 0.000000
0.007851 -0.020836 0.000000
0.009410 -0.000457 0.000000
0.010681 -0.000452 0.000000
0.012830 -0.000437 0.000000
0.006014 -0.024505 0.000000
0.005074 -0.023281 0.000000
0.011966 -0.008825 0.000000
0.009194 -0.016931 0.000000
0.008543 -0.018371 0.000000
0.007050 -0.016865 0.000000
0.004369 -0.014211 0.000000
0.007444 -0.023689 0.000000
0.008502 -0.014398 0.000000
0.009648 -0.018771 0.000000
0.005289 -0.023380 0.000000
0.005316 -0.023489 0.000000
0.004904 -0.013357 0.000000
0.007114 -0.026140 0.000000
0.010536 -0.017211 0.000000
0.010446 -0.017258 0.000000
0.010190 -0.020427 0.000000
0.007416 -0.026040 0.000000
0.006204 -0.012465 0.000000
0.006256 -0.012124 0.000000
0.007075 -0.026211 0.000000
0.009227 -0.019159 0.000000
0.003876 -0.004788 0.000000
0.003795 -0.004368 0.000000
0.006479 -0.021687 0.000000
0.006406 -0.021676 0.000000
0.006504 -0.021488 0.000000
0.006154 -0.018184 0.000000
0.005964 -0.017361 0.000000
0.005932 -0.017628 0.000000
0.005866 -0.017350 0.000000
0.006879 -0.026476 0.000000
0.007583 -0.025614 0.000000
0.008350 -0.002697 0.000000
0.006911 -0.018233 0.000000
0.006681 -0.018487 0.000000
0.008066 -0.012119 0.000000
0.009691 -0.000456 0.000000
0.007307 -0.024301 0.000000
0.007326 -0.024437 0.000000
0.007276 -0.024443 0.000000
0.005274 -0.020142 0.000000
0.007757 -0.025229 0.000000
0.006745 -0.020877 0.000000
0.006713 -0.021091 0.000000
0.011560 -0.010294 0.000000
0.007226 -0.024447 0.000000
0.005081 -0.018728 0.000000
0.010512 -0.017892 0.000000
0.006714 -0.022109 0.000000
0.004688 -0.010974 0.000000
0.006720 -0.023525 0.000000
0.002684 -0.004310 0.000000
0.006302 -0.023581 0.000000
0.005093 -0.006871 0.000000
0.005037 -0.007265 0.000000
0.005413 -0.012077 0.000000
0.010104 -0.015036 0.000000
0.006388 -0.015068 0.000000
0.003666 -0.006397 0.000000
0.009893 -0.017252 0.000000
0.005798 -0.016218 0.000000
0.007442 -0.014136 0.000000
0.006965 -0.019007 0.000000
0.006699 -0.017140 0.000000
0.006800 -0.017143 0.000000
0.008825 -0.017274 0.000000
0.006333 -0.023118 0.000000
0.004495 -0.019982 0.000000
0.006760 -0.025608 0.000000
0.006864 -0.012821 0.000000
0.005853 -0.014094 0.000000
0.005782 -0.013768 0.000000
0.004952 -0.014000 0.000000
0.004261 -0.015924 0.000000
0.004050 -0.016128 0.000000
0.006586 -0.025886 0.000000
0.005702 -0.024400 0.000000
0.005660 -0.024339 0.000000
0.005586 -0.024209 0.000000
0.006895 -0.026257 0.000000
0.006855 -0.026217 0.000000
0.006847 -0.026175 0.000000
0.007894 -0.018460 0.000000
0.006706 -0.019492 0.000000
0.006444 -0.019472 0.000000
0.004765 -0.021039 0.000000
0.009045 -0.018987 0.000000
0.007032 -0.022320 0.000000
0.006963 -0.022318 0.000000
0.008756 -0.015591 0.000000
0.005212 -0.013715 0.000000
0.005673 -0.022999 0.000000
0.008244 -0.009973 0.000000
0.007180 -0.026334 0.000000
0.007446 -0.025814 0.000000
0.005452 -0.004416 0.000000
0.006428 -0.024326 0.000000
0.008047 -0.025149 0.000000
0.006607 -0.015077 0.000000
0.006736 -0.024802 0.000000
0.006289 -0.013472 0.000000
0.007472 -0.025942 0.000000
0.007511 -0.025619 0.000000
0.005769 -0.024470 0.000000
0.007264 -0.026553 0.000000
0.007471 -0.025456 0.000000
0.003271 -0.005166 0.000000
0.006988 -0.025306 0.000000
0.003338 -0.009387 0.000000
0.005991 -0.024932 0.000000
0.009706 -0.019982 0.000000
0.008790 -0.023087 0.000000
0.006276 -0.016549 0.000000
0.007342 -0.020663 0.000000
0.005755 -0.020284 0.000000
0.003404 -0.013668 0.000000
0.003501 -0.013993 0.000000
0.004042 -0.019679 0.000000
0.006682 -0.022846 0.000000
0.009703 -0.015423 0.000000
0.009539 -0.020452 0.000000
0.009993 -0.017702 0.000000
0.008408 -0.024570 0.000000
0.009096 -0.016952 0.000000
0.007574 -0.026001 0.000000
0.007550 -0.026029 0.000000
0.008031 -0.021827 0.000000
0.008102 -0.021809 0.000000
0.002465 -0.011537 0.000000
0.005527 -0.020004 0.000000
0.005594 -0.020242 0.000000
0.005514 -0.020219 0.000000
0.007807 -0.023134 0.000000
0.013156 -0.007432 0.000000
0.005597 -0.024111 0.000000
0.007874 -0.022424 0.000000
0.003371 -0.010448 0.000000
0.007224 -0.026125 0.000000
0.004642 -0.021114 0.000000
0.010230 -0.007205 0.000000
0.006938 -0.026553 0.000000
0.006959 -0.026596 0.000000
0.006946 -0.026580 0.000000
0.006784 -0.022116 0.000000
0.006993 -0.025572 0.000000
0.007320 -0.019500 0.000000
0.008061 -0.009608 0.000000
0.007990 -0.009980 0.000000
0.007863 -0.009984 0.000000
0.003382 -0.018088 0.000000
0.007255 -0.023217 0.000000
0.005600 -0.022506 0.000000
0.006895 -0.024301 0.000000
0.007030 -0.024717 0.000000
0.006025 -0.023172 0.000000
0.007659 -0.011078 0.000000
0.005593 -0.019099 0.000000
0.007057 -0.019503 0.000000
0.006801 -0.025055 0.000000
0.009138 -0.014015 0.000000
0.004884 -0.020576 0.000000
0.006246 -0.023561 0.000000
0.007962 -0.019689 0.000000
0.008874 -0.021164 0.000000
0.008875 -0.021349 0.000000
0.008182 -0.020118 0.000000
0.006680 -0.023357 0.000000
0.008541 -0.019351 0.000000
0.006682 -0.021300 0.000000
0.006812 -0.025384 0.000000
0.012525 -0.010906 0.000000
0.007285 -0.026167 0.000000
0.002542 -0.008174 0.000000
0.002513 -0.008530 0.000000
0.006476 -0.010717 0.000000
0.006691 -0.025933 0.000000
0.005293 -0.012068 0.000000
0.012770 -0.011539 0.000000
0.007040 -0.011791 0.000000
0.006978 -0.011439 0.000000
0.007039 -0.011084 0.000000
0.006726 -0.010722 0.000000
0.010312 -0.018637 0.000000
0.004718 -0.007642 0.000000
0.005577 -0.009957 0.000000
0.004437 -0.009878 0.000000
0.003618 -0.006788 0.000000
0.010854 -0.017669 0.000000
0.006059 -0.015048 0.000000
0.006018 -0.015350 0.000000
0.006746 -0.022854 0.000000
0.006373 -0.025546 0.000000
0.006585 -0.025476 0.000000
0.006822 -0.025762 0.000000
0.004648 -0.014869 0.000000
0.005749 -0.006083 0.000000
0.007026 -0.021526 0.000000
0.006268 -0.020157 0.000000
0.007158 -0.013816 0.000000
0.002864 -0.008952 0.000000
0.009229 -0.011697 0.000000
0.010935 -0.015552 0.000000
0.007046 -0.015085 0.000000
0.006908 -0.026517 0.000000
0.006321 -0.017668 0.000000
0.004988 -0.017194 0.000000
0.009321 -0.020383 0.000000
0.005937 -0.020102 0.000000
0.006284 -0.017933 0.000000
0.005642 -0.017588 0.000000
0.007073 -0.026786 0.000000
0.006061 -0.022354 0.000000
0.005493 -0.020635 0.000000
0.006248 -0.018194 0.000000
0.003946 -0.000454 0.000000
0.007148 -0.026505 0.000000
0.000686 -0.006932 0.000000
0.000363 -0.004331 0.000000
0.006181 -0.022566 0.000000
0.005377 -0.017275 0.000000
0.005926 -0.021172 0.000000
0.007175 -0.026443 0.000000
0.013976 -0.002518 0.000000
0.008713 -0.012423 0.000000
0.004178 -0.019596 0.000000
0.008099 -0.014742 0.000000
0.008001 -0.003137 0.000000
0.007930 -0.003571 0.000000
0.008409 -0.023209 0.000000
0.008349 -0.023383 0.000000
0.008344 -0.023521 0.000000
0.006174 -0.016542 0.000000
0.006021 -0.023609 0.000000
0.005966 -0.023581 0.000000
0.008788 -0.023419 0.000000
0.004925 -0.021471 0.000000
0.006667 -0.023977 0.000000
0.003755 -0.016021 0.000000
0.002461 -0.009226 0.000000
0.003993 -0.015007 0.000000
0.005310 -0.018047 0.000000
0.006946 -0.024961 0.000000
0.004631 -0.016570 0.000000
0.005559 -0.016475 0.000000
0.010231 -0.009468 0.000000
0.010707 -0.017342 0.000000
0.005593 -0.024141 0.000000
0.006620 -0.025496 0.000000
0.004780 -0.017402 0.000000
0.008849 -0.017537 0.000000
0.006531 -0.019480 0.000000
0.006900 -0.026029 0.000000
0.008575 -0.014076 0.000000
0.006604 -0.025971 0.000000
0.005768 -0.017337 0.000000
0.005072 -0.023225 0.000000
0.004224 -0.020157 0.000000
0.002024 -0.010750 0.000000
0.007296 -0.026522 0.000000
0.008117 -0.021996 0.000000
0.001371 -0.000437 0.000000
0.004572 -0.017840 0.000000
0.009439 -0.022039 0.000000
0.009523 -0.021840 0.000000
0.010171 -0.020158 0.000000
0.007969 -0.022755 0.000000
0.008223 -0.022672 0.000000
0.008590 -0.021467 0.000000
0.011197 -0.010378 0.000000
0.004403 -0.017285 0.000000
0.006169 -0.025186 0.000000
0.003266 -0.015293 0.000000
0.006369 -0.007301 0.000000
0.008303 -0.020536 0.000000
0.003490 -0.014280 0.000000
0.006343 -0.018203 0.000000
0.003902 -0.012871 0.000000
0.010730 -0.016641 0.000000
0.005264 -0.015269 0.000000
0.004260 -0.014189 0.000000
0.006582 -0.025294 0.000000
0.007157 -0.014459 0.000000
0.004208 -0.018167 0.000000
0.005574 -0.019332 0.000000
0.006473 -0.025320 0.000000
0.007387 -0.026060 0.000000
0.005403 -0.018067 0.000000
0.007714 -0.025803 0.000000
0.009506 -0.020993 0.000000
0.009575 -0.020944 0.000000
0.009846 -0.020078 0.000000
0.008738 -0.023805 0.000000
0.007278 -0.026110 0.000000
0.005441 -0.022852 0.000000
0.007510 -0.025532 0.000000
0.007351 -0.025394 0.000000
0.007828 -0.024667 0.000000
0.007344 -0.024570 0.000000
0.007246 -0.024581 0.000000
0.007376 -0.024431 0.000000
0.007074 -0.024168 0.000000
0.008149 -0.025034 0.000000
0.011179 -0.008616 0.000000
0.007831 -0.014443 0.000000
0.007051 -0.025812 0.000000
0.007038 -0.025899 0.000000
0.008281 -0.019402 0.000000
0.008368 -0.019387 0.000000
0.008433 -0.019135 0.000000
0.007284 -0.026238 0.000000
0.007503 -0.026164 0.000000
0.005115 -0.007661 0.000000
0.007855 -0.025059 0.000000
0.007809 -0.025179 0.000000
0.007609 -0.024877 0.000000
0.005436 -0.023703 0.000000
0.007735 -0.024592 0.000000
0.007245 -0.026437 0.000000
0.007060 -0.026455 0.000000
0.007423 -0.023533 0.000000
0.005921 -0.022482 0.000000
0.007235 -0.026582 0.000000
0.006901 -0.025299 0.000000
0.007867 -0.024860 0.000000
0.008008 -0.024564 0.000000
0.004897 -0.022500 0.000000
0.007581 -0.023347 0.000000
0.007933 -0.019454 0.000000
0.006182 -0.023823 0.000000
0.003419 -0.018985 0.000000
0.001986 -0.006970 0.000000
0.006814 -0.013814 0.000000
0.007595 -0.021293 0.000000
0.007273 -0.019742 0.000000
0.008181 -0.023609 0.000000
0.008318 -0.024326 0.000000
0.008317 -0.009600 0.000000
0.008445 -0.009595 0.000000
0.006171 -0.011068 0.000000
0.005581 -0.020453 0.000000
0.004903 -0.022290 0.000000
0.007825 -0.024885 0.000000
0.008457 -0.023917 0.000000
0.010009 -0.020450 0.000000
0.007162 -0.026452 0.000000
0.006096 -0.024393 0.000000
0.004394 -0.006039 0.000000
0.003716 -0.006002 0.000000
0.007716 -0.025800 0.000000
0.005637 -0.013104 0.000000
0.010935 -0.015029 0.000000
0.007973 -0.025343 0.000000
0.008159 -0.021601 0.000000
0.006469 -0.013805 0.000000
0.008171 -0.024945 0.000000
0.008994 -0.021969 0.000000
0.005101 -0.015831 0.000000
0.010964 -0.012399 0.000000
0.009247 -0.017706 0.000000
0.004187 -0.012274 0.000000
0.004767 -0.017653 0.000000
0.008600 -0.010685 0.000000
0.007973 -0.025353 0.000000
0.006843 -0.026006 0.000000
0.008613 -0.008068 0.000000
0.008188 -0.024924 0.000000
0.007333 -0.013487 0.000000
0.008638 -0.012766 0.000000
0.009032 -0.018753 0.000000
0.007298 -0.008093 0.000000
0.007362 -0.008480 0.000000
0.007430 -0.008092 0.000000
0.007493 -0.008479 0.000000
0.008617 -0.024170 0.000000
0.008636 -0.023071 0.000000
0.007375 -0.004429 0.000000
0.007408 -0.019496 0.000000
0.007154 -0.015694 0.000000
0.006921 -0.026444 0.000000
0.005899 -0.017079 0.000000
0.009694 -0.012652 0.000000
0.009641 -0.013309 0.000000
0.007824 -0.020621 0.000000
0.004028 -0.017386 0.000000
0.006772 -0.008092 0.000000
0.006740 -0.026113 0.000000
0.009433 -0.022644 0.000000
0.009677 -0.009151 0.000000
0.009481 -0.019909 0.000000
0.006566 -0.019238 0.000000
0.005959 -0.019878 0.000000
0.005897 -0.019634 0.000000
0.009761 -0.008771 0.000000
0.003335 -0.012738 0.000000
0.008264 -0.020102 0.000000
0.008269 -0.016803 0.000000
0.007354 -0.026175 0.000000
0.010707 -0.005585 0.000000
0.009444 -0.013657 0.000000
0.009109 -0.012724 0.000000
0.009434 -0.016052 0.000000
0.009453 -0.016326 0.000000
0.008003 -0.017109 0.000000
0.007991 -0.019204 0.000000
0.008050 -0.018949 0.000000
0.012531 -0.001310 0.000000
0.008499 -0.018879 0.000000
0.006042 -0.024247 0.000000
0.001792 -0.012119 0.000000
0.011966 -0.000445 0.000000
0.008350 -0.024339 0.000000
0.011762 -0.009566 0.000000
0.006599 -0.024107 0.000000
0.006652 -0.024119 0.000000
0.007501 -0.025922 0.000000
0.011440 -0.014527 0.000000
0.001653 -0.007976 0.000000
0.009250 -0.022957 0.000000
0.006653 -0.025942 0.000000
0.009984 -0.011947 0.000000
0.008043 -0.022901 0.000000
0.004831 -0.022674 0.000000
0.007395 -0.025942 0.000000
0.006854 -0.025986 0.000000
0.006861 -0.026035 0.000000
0.005482 -0.022594 0.000000
0.007052 -0.026697 0.000000
0.007362 -0.016285 0.000000
0.005346 -0.018800 0.000000
0.006071 -0.016533 0.000000
0.006109 -0.016248 0.000000
0.005570 -0.007284 0.000000
0.004311 -0.009866 0.000000
0.007084 -0.025814 0.000000
0.008858 -0.022207 0.000000
0.008921 -0.022169 0.000000
0.003824 -0.014086 0.000000
0.003481 -0.014562 0.000000
0.003377 -0.014525 0.000000
0.007677 -0.009616 0.000000
0.006572 -0.025369 0.000000
0.006726 -0.025872 0.000000
0.007021 -0.024166 0.000000
0.005935 -0.024824 0.000000
0.008437 -0.021326 0.000000
0.008399 -0.020726 0.000000
0.006819 -0.026376 0.000000
0.006643 -0.025727 0.000000
0.006601 -0.025719 0.000000
0.002773 -0.015044 0.000000
0.005336 -0.011727 0.000000
0.008887 -0.004413 0.000000
0.012478 -0.009024 0.000000
0.002334 -0.012961 0.000000
0.005687 -0.024052 0.000000
0.007878 -0.025445 0.000000
0.009876 -0.016746 0.000000
0.009754 -0.016250 0.000000
0.006359 -0.023599 0.000000
0.004326 -0.014802 0.000000
0.004995 -0.005654 0.000000
0.005399 -0.021912 0.000000
0.005299 -0.023537 0.000000
0.005032 -0.017980 0.000000
0.006665 -0.026038 0.000000
0.010409 -0.019792 0.000000
0.006129 -0.023799 0.000000
0.008339 -0.024706 0.000000
0.005916 -0.023687 0.000000
0.003353 -0.003510 0.000000
0.003738 -0.004781 0.000000
0.003656 -0.004363 0.000000
0.010719 -0.018354 0.000000
0.010620 -0.018615 0.000000
0.010600 -0.018812 0.000000
0.005973 -0.022835 0.000000
0.004724 -0.020109 0.000000
0.004904 -0.021126 0.000000
0.006233 -0.025326 0.000000
0.006263 -0.025367 0.000000
0.006384 -0.025516 0.000000
0.006444 -0.025381 0.000000
0.006454 -0.025462 0.000000
0.008303 -0.024575 0.000000
0.008263 -0.024618 0.000000
0.005746 -0.021704 0.000000
0.007186 -0.026495 0.000000
0.006587 -0.018481 0.000000
0.006375 -0.024431 0.000000
0.008839 -0.023370 0.000000
0.007682 -0.024487 0.000000
0.008609 -0.024141 0.000000
0.006690 -0.025619 0.000000
0.005927 -0.024816 0.000000
0.005089 -0.008813 0.000000
0.004556 -0.006847 0.000000
0.007170 -0.004003 0.000000
0.007032 -0.004003 0.000000
0.005712 -0.002696 0.000000
0.008182 -0.006088 0.000000
0.006496 -0.025566 0.000000
0.008232 -0.007294 0.000000
0.003773 -0.003525 0.000000
0.005885 -0.009600 0.000000
0.002857 -0.006328 0.000000
0.005066 -0.017475 0.000000
0.006161 -0.020367 0.000000
0.004316 -0.017002 0.000000
0.007101 -0.006907 0.000000
0.006438 -0.018210 0.000000
0.008214 -0.013127 0.000000
0.006805 -0.026244 0.000000
0.006946 -0.026186 0.000000
0.007013 -0.026673 0.000000
0.007026 -0.026675 0.000000
0.002151 -0.013918 0.000000
0.002141 -0.013659 0.000000
0.009330 -0.013673 0.000000
0.004299 -0.017739 0.000000
0.004618 -0.021781 0.000000
0.006941 -0.025305 0.000000
0.009547 -0.001358 0.000000
0.008664 -0.022473 0.000000
0.007872 -0.024285 0.000000
0.007641 -0.023336 0.000000
0.005675 -0.020264 0.000000
0.005660 -0.020476 0.000000
0.007355 -0.009991 0.000000
0.007705 -0.025566 0.000000
0.010215 -0.019805 0.000000
0.006972 -0.026611 0.000000
0.008187 -0.012114 0.000000
0.007563 -0.024256 0.000000
0.007619 -0.025196 0.000000
0.004895 -0.012369 0.000000
0.009529 -0.014573 0.000000
0.005435 -0.023535 0.000000
0.010802 -0.010106 0.000000
0.008167 -0.022859 0.000000
0.007156 -0.015085 0.000000
0.006655 -0.019244 0.000000
0.002909 -0.002641 0.000000
0.001603 -0.008983 0.000000
0.001482 -0.008939 0.000000
0.001591 -0.009307 0.000000
0.011128 -0.013846 0.000000
0.005988 -0.013127 0.000000
0.006964 -0.024840 0.000000
0.008237 -0.024881 0.000000
0.010247 -0.018259 0.000000
0.007282 -0.026543 0.000000
0.005183 -0.020718 0.000000
0.006030 -0.024906 0.000000
0.006050 -0.024880 0.000000
0.006549 -0.024860 0.000000
0.005899 -0.024728 0.000000
0.006740 -0.026069 0.000000
0.005871 -0.013120 0.000000
0.007821 -0.023294 0.000000
0.005454 -0.018581 0.000000
0.012849 -0.009211 0.000000
0.012955 -0.008839 0.000000
0.004234 -0.019247 0.000000
0.002320 -0.006266 0.000000
0.008105 -0.022881 0.000000
0.001778 -0.008010 0.000000
0.006750 -0.026035 0.000000
0.003665 -0.017211 0.000000
0.004097 -0.015036 0.000000
0.004031 -0.017855 0.000000
0.002973 -0.013521 0.000000
0.006759 -0.025044 0.000000
0.006593 -0.024877 0.000000
0.006494 -0.018475 0.000000
0.011887 -0.007768 0.000000
0.011758 -0.007791 0.000000
0.010658 -0.013102 0.000000
0.007462 -0.026069 0.000000
0.004558 -0.021931 0.000000
0.009220 -0.023087 0.000000
0.009612 -0.022061 0.000000
0.007946 -0.012124 0.000000
0.004211 -0.018392 0.000000
0.008669 -0.021977 0.000000
0.008733 -0.024003 0.000000
0.008656 -0.024140 0.000000
0.007705 -0.025235 0.000000
0.007673 -0.025593 0.000000
0.003924 -0.007589 0.000000
0.009217 -0.013688 0.000000
0.007440 -0.024553 0.000000
0.007810 -0.025485 0.000000
0.007829 -0.025428 0.000000
0.005427 -0.023218 0.000000
0.006665 -0.025617 0.000000
0.008462 -0.020497 0.000000
0.007614 -0.025919 0.000000
0.002633 -0.004715 0.000000
0.002585 -0.005114 0.000000
0.012178 -0.010750 0.000000
0.012071 -0.011103 0.000000
0.007960 -0.025060 0.000000
0.012297 -0.012458 0.000000
0.004959 -0.019810 0.000000
0.007123 -0.024970 0.000000
0.007034 -0.024968 0.000000
0.007164 -0.025899 0.000000
0.009275 -0.018199 0.000000
0.005458 -0.011736 0.000000
0.008286 -0.022648 0.000000
0.012511 -0.009989 0.000000
0.008666 -0.021624 0.000000
0.005831 -0.009968 0.000000
0.005704 -0.009963 0.000000
0.008291 -0.022810 0.000000
0.011755 -0.015741 0.000000
0.006369 -0.023449 0.000000
0.005725 -0.020705 0.000000
0.012282 -0.006208 0.000000
0.006656 -0.025515 0.000000
0.005962 -0.024850 0.000000
0.009002 -0.021804 0.000000
0.004574 -0.011995 0.000000
0.011640 -0.012185 0.000000
0.004560 -0.018315 0.000000
0.008450 -0.024200 0.000000
0.008607 -0.020242 0.000000
0.006724 -0.025798 0.000000
0.007594 -0.025989 0.000000
0.004558 -0.021721 0.000000
0.008947 -0.021132 0.000000
0.007163 -0.011084 0.000000
0.009002 -0.018273 0.000000
0.008210 -0.024919 0.000000
0.008428 -0.012101 0.000000
0.006560 -0.006094 0.000000
0.008305 -0.013776 0.000000
0.009662 -0.012326 0.000000
0.007599 -0.025931 0.000000
0.007224 -0.026479 0.000000
0.006620 -0.026033 0.000000
0.007650 -0.004428 0.000000
0.007721 -0.004002 0.000000
0.007858 -0.004001 0.000000
0.007693 -0.012814 0.000000
0.009149 -0.012047 0.000000
0.002361 -0.014301 0.000000
0.010052 -0.016161 0.000000
0.010836 -0.015337 0.000000
0.008379 -0.011758 0.000000
0.009516 -0.015751 0.000000
0.007792 -0.025539 0.000000
0.007976 -0.010711 0.000000
0.009675 -0.021174 0.000000
0.008990 -0.013715 0.000000
0.006987 -0.026656 0.000000
0.010190 -0.020901 0.000000
0.006537 -0.025816 0.000000
0.007782 -0.014126 0.000000
0.005524 -0.018842 0.000000
0.007658 -0.001815 0.000000
0.009025 -0.014029 0.000000
0.008948 -0.014352 0.000000
0.009599 -0.015446 0.000000
0.005573 -0.002695 0.000000
0.008831 -0.022667 0.000000
0.003084 -0.005557 0.000000
0.005929 -0.024418 0.000000
0.005909 -0.024446 0.000000
0.003518 -0.017785 0.000000
0.007535 -0.025295 0.000000
0.006337 -0.024024 0.000000
0.007451 -0.026214 0.000000
0.008490 -0.002696 0.000000
0.009379 -0.021700 0.000000
0.007178 -0.026706 0.000000
0.008400 -0.022089 0.000000
0.006836 -0.026402 0.000000
0.005545 -0.024140 0.000000
0.006777 -0.026271 0.000000
0.004966 -0.021953 0.000000
0.003570 -0.015149 0.000000
0.006725 -0.024919 0.000000
0.010209 -0.015007 0.000000
0.011517 -0.015237 0.000000
0.006712 -0.025614 0.000000
0.005983 -0.019650 0.000000
0.002833 -0.007851 0.000000
0.007576 -0.025663 0.000000
0.006421 -0.025643 0.000000
0.007701 -0.023323 0.000000
0.009143 -0.021556 0.000000
0.008942 -0.011374 0.000000
0.003648 -0.010144 0.000000
0.007874 -0.025210 0.000000
0.002133 -0.013395 0.000000
0.004570 -0.021486 0.000000
0.011386 -0.001336 0.000000
0.002232 -0.011754 0.000000
0.004840 -0.013984 0.000000
0.006389 -0.024043 0.000000
0.010536 -0.015456 0.000000
0.007394 -0.026346 0.000000
0.005290 -0.023200 0.000000
0.007379 -0.001816 0.000000
0.004882 -0.022739 0.000000
0.009783 -0.021216 0.000000
0.007574 -0.025824 0.000000
0.003621 -0.019482 0.000000
0.010339 -0.010526 0.000000
0.011831 -0.003462 0.000000
0.007329 -0.026434 0.000000
0.004238 -0.007223 0.000000
0.006711 -0.026156 0.000000
0.006084 -0.009977 0.000000
0.005826 -0.013446 0.000000
0.009020 -0.017236 0.000000
0.006990 -0.025093 0.000000
0.003060 -0.011392 0.000000
0.006298 -0.015671 0.000000
0.008744 -0.019762 0.000000
0.002724 -0.015956 0.000000
0.004648 -0.020068 0.000000
0.005119 -0.021423 0.000000
0.008786 -0.020608 0.000000
0.005978 -0.022672 0.000000
0.008173 -0.024542 0.000000
0.005434 -0.002694 0.000000
0.010198 -0.020672 0.000000
0.006903 -0.025365 0.000000
0.006691 -0.025702 0.000000
0.008783 -0.023751 0.000000
0.007827 -0.025324 0.000000
0.006400 -0.025628 0.000000
0.006433 -0.025663 0.000000
0.004490 -0.011645 0.000000
0.006450 -0.015377 0.000000
0.006209 -0.025224 0.000000
0.008535 -0.023945 0.000000
0.006627 -0.026001 0.000000
0.006827 -0.026316 0.000000
0.006641 -0.018742 0.000000
0.007377 -0.026238 0.000000
0.007354 -0.026255 0.000000
0.009016 -0.020521 0.000000
0.007943 -0.014437 0.000000
0.008055 -0.014431 0.000000
0.008122 -0.014109 0.000000
0.003987 -0.006018 0.000000
0.009636 -0.018080 0.000000
0.008232 -0.024824 0.000000
0.006447 -0.008476 0.000000
0.006837 -0.026335 0.000000
0.006726 -0.015689 0.000000
0.005570 -0.020660 0.000000
0.003223 -0.012706 0.000000
0.008927 -0.010306 0.000000
0.001685 -0.012056 0.000000
0.013841 -0.000420 0.000000
0.007996 -0.004000 0.000000
0.007380 -0.026375 0.000000
0.010544 -0.015982 0.000000
0.001899 -0.005044 0.000000
0.002361 -0.011187 0.000000
0.007072 -0.026508 0.000000
0.005561 -0.024137 0.000000
0.003561 -0.016444 0.000000
0.009298 -0.007259 0.000000
0.012594 -0.001736 0.000000
0.010580 -0.019482 0.000000
0.008117 -0.009977 0.000000
0.008046 -0.010346 0.000000
0.004303 -0.017498 0.000000
0.004396 -0.017532 0.000000
0.007565 -0.013483 0.000000
0.009854 -0.016222 0.000000
0.007676 -0.025097 0.000000
0.007697 -0.025743 0.000000
0.006217 -0.020598 0.000000
0.006918 -0.026399 0.000000
0.006796 -0.026166 0.000000
0.005058 -0.022865 0.000000
0.005005 -0.022807 0.000000
0.007797 -0.013476 0.000000
0.003104 -0.016432 0.000000
0.007466 -0.026232 0.000000
0.006430 -0.025162 0.000000
0.007971 -0.024239 0.000000
0.005907 -0.023269 0.000000
0.006546 -0.025653 0.000000
0.006619 -0.004002 0.000000
0.008986 -0.011718 0.000000
0.006029 -0.023018 0.000000
0.007775 -0.025347 0.000000
0.009818 -0.018244 0.000000
0.004273 -0.008000 0.000000
0.007376 -0.022311 0.000000
0.009007 -0.022539 0.000000
0.011971 -0.003453 0.000000
0.008541 -0.020476 0.000000
0.007049 -0.026209 0.000000
0.009536 -0.006050 0.000000
0.008675 -0.020004 0.000000
0.007182 -0.026696 0.000000
0.002970 -0.016986 0.000000
0.007290 -0.018233 0.000000
0.009514 -0.010974 0.000000
0.008658 -0.024130 0.000000
0.008649 -0.024085 0.000000
0.010096 -0.020653 0.000000
0.008417 -0.003133 0.000000
0.007664 -0.025742 0.000000
0.009339 -0.009547 0.000000
0.007535 -0.011080 0.000000
0.007470 -0.011437 0.000000
0.007303 -0.006503 0.000000
0.009062 -0.022849 0.000000
0.006850 -0.026382 0.000000
0.006693 -0.018997 0.000000
0.011434 -0.002636 0.000000
0.007414 -0.026249 0.000000
0.001295 -0.007521 0.000000
0.007019 -0.025809 0.000000
0.006209 -0.024776 0.000000
0.007388 -0.013814 0.000000
0.004011 -0.009105 0.000000
0.006559 -0.015381 0.000000
0.009808 -0.013909 0.000000
0.008260 -0.013454 0.000000
0.006856 -0.024952 0.000000
0.005985 -0.024561 0.000000
0.005853 -0.024420 0.000000
0.009266 -0.001360 0.000000
0.007512 -0.024268 0.000000
0.006718 -0.026193 0.000000
0.006766 -0.026089 0.000000
0.003841 -0.013789 0.000000
0.001863 -0.008728 0.000000
0.004858 -0.005650 0.000000
0.007125 -0.026706 0.000000
0.011124 -0.015707 0.000000
0.011445 -0.013716 0.000000
0.004468 -0.018734 0.000000
0.006324 -0.025445 0.000000
0.005978 -0.024675 0.000000
0.010983 -0.017958 0.000000
0.008119 -0.005678 0.000000
0.010502 -0.019066 0.000000
0.010425 -0.019127 0.000000
0.007345 -0.024947 0.000000
0.004654 -0.020262 0.000000
0.004370 -0.005221 0.000000
0.007754 -0.008476 0.000000
0.008812 -0.004835 0.000000
0.008875 -0.021530 0.000000
0.007222 -0.012138 0.000000
0.003926 -0.012556 0.000000
0.003564 -0.018415 0.000000
0.006232 -0.025099 0.000000
0.007410 -0.016574 0.000000
0.004311 -0.008761 0.000000
0.011176 -0.016604 0.000000
0.003324 -0.004760 0.000000
0.009251 -0.003123 0.000000
0.005193 -0.021634 0.000000
0.003387 -0.016829 0.000000
0.006096 -0.024913 0.000000
0.006397 -0.009614 0.000000
0.007492 -0.026098 0.000000
0.011752 -0.012142 0.000000
0.009508 -0.022424 0.000000
0.005552 -0.021059 0.000000
0.006938 -0.026412 0.000000
0.006285 -0.025451 0.000000
0.006473 -0.025359 0.000000
0.007249 -0.025516 0.000000
0.004527 -0.011305 0.000000
0.004985 -0.013688 0.000000
0.004061 -0.013841 0.000000
0.005600 -0.017039 0.000000
0.006701 -0.024668 0.000000
0.006126 -0.001814 0.000000
0.011399 -0.015782 0.000000
0.012826 -0.008571 0.000000
0.010017 -0.009853 0.000000
0.007219 -0.026625 0.000000
0.012674 -0.003399 0.000000
0.004131 -0.021038 0.000000
0.006490 -0.025582 0.000000
0.012403 -0.012397 0.000000
0.012502 -0.012338 0.000000
0.002295 -0.014747 0.000000
0.007984 -0.025297 0.000000
0.008970 -0.023564 0.000000
0.013475 -0.000852 0.000000
0.003944 -0.020360 0.000000
0.005851 -0.002697 0.000000
0.004565 -0.018080 0.000000
0.006902 -0.024956 0.000000
0.005645 -0.007680 0.000000
0.007457 -0.016859 0.000000
0.005760 -0.024441 0.000000
0.002003 -0.003022 0.000000
0.007653 -0.003572 0.000000
0.009107 -0.011708 0.000000
0.006058 -0.025047 0.000000
0.004348 -0.021387 0.000000
0.004690 -0.006854 0.000000
0.008948 -0.023478 0.000000
0.006379 -0.025153 0.000000
0.011507 -0.011612 0.000000
0.008674 -0.024067 0.000000
0.007761 -0.023309 0.000000
0.002163 -0.014171 0.000000
0.002065 -0.014091 0.000000
0.004657 -0.022307 0.000000
0.007012 -0.019257 0.000000
0.008076 -0.001814 0.000000
0.008007 -0.001366 0.000000
0.008461 -0.024386 0.000000
0.007384 -0.026315 0.000000
0.010737 -0.009405 0.000000
0.010770 -0.009758 0.000000
0.011518 -0.004310 0.000000
0.007414 -0.026321 0.000000
0.004643 -0.018579 0.000000
0.002214 -0.009167 0.000000
0.004469 -0.018509 0.000000
0.006402 -0.025581 0.000000
0.005717 -0.023677 0.000000
0.004113 -0.003106 0.000000
0.006131 -0.025144 0.000000
0.007505 -0.025346 0.000000
0.007405 -0.011789 0.000000
0.004914 -0.021301 0.000000
0.007972 -0.024969 0.000000
0.004645 -0.013640 0.000000
0.009536 -0.016029 0.000000
0.011761 -0.013292 0.000000
0.007204 -0.026671 0.000000
0.007805 -0.009614 0.000000
0.007499 -0.025981 0.000000
0.006173 -0.024898 0.000000
0.006354 -0.025151 0.000000
0.011294 -0.007107 0.000000
0.008278 -0.011059 0.000000
0.007939 -0.025367 0.000000
0.007995 -0.024846 0.000000
0.009882 -0.010934 0.000000
0.004197 -0.010919 0.000000
0.009526 -0.013326 0.000000
0.004957 -0.020420 0.000000
0.002057 -0.009797 0.000000
0.004954 -0.017706 0.000000
0.009669 -0.016544 0.000000
0.007245 -0.017968 0.000000
0.009008 -0.008053 0.000000
0.003074 -0.013846 0.000000
0.010350 -0.006010 0.000000
0.008898 -0.019492 0.000000
0.008477 -0.024457 0.000000
0.008476 -0.010692 0.000000
0.008402 -0.011053 0.000000
0.007611 -0.025810 0.000000
0.009809 -0.003113 0.000000
0.010858 -0.018422 0.000000
0.009522 -0.022465 0.000000
0.008872 -0.014671 0.000000
0.005837 -0.024439 0.000000
0.007630 -0.007699 0.000000
0.007559 -0.016855 0.000000
0.007359 -0.026139 0.000000
0.005101 -0.003985 0.000000
0.006733 -0.026156 0.000000
0.007532 -0.019730 0.000000
0.009395 -0.021542 0.000000
0.004357 -0.008387 0.000000
0.003048 -0.004744 0.000000
0.009649 -0.018992 0.000000
0.005375 -0.023694 0.000000
0.002545 -0.002199 0.000000
0.009321 -0.019565 0.000000
0.006775 -0.025725 0.000000
0.004860 -0.017680 0.000000
0.004842 -0.022441 0.000000
0.007692 -0.025843 0.000000
0.006533 -0.010355 0.000000
0.006844 -0.026199 0.000000
0.008807 -0.023868 0.000000
0.008121 -0.024733 0.000000
0.012524 -0.011493 0.000000
0.007307 -0.004003 0.000000
0.007681 -0.013480 0.000000
0.008426 -0.001365 0.000000
0.004121 -0.018126 0.000000
0.006744 -0.019249 0.000000
0.000737 -0.002908 0.000000
0.006305 -0.025261 0.000000
0.006714 -0.009243 0.000000
0.008148 -0.025044 0.000000
0.008827 -0.019738 0.000000
0.007260 -0.026548 0.000000
0.006820 -0.026183 0.000000
0.003396 -0.007542 0.000000
0.011741 -0.014361 0.000000
0.009609 -0.021228 0.000000
0.006084 -0.015656 0.000000
0.005033 -0.020455 0.000000
0.008375 -0.021540 0.000000
0.009305 -0.020947 0.000000
0.004616 -0.013949 0.000000
0.002850 -0.003065 0.000000
0.006317 -0.025249 0.000000
0.003290 -0.018543 0.000000
0.001904 -0.012458 0.000000
0.003627 -0.009063 0.000000
0.007526 -0.025675 0.000000
0.005969 -0.007294 0.000000
0.002991 -0.003071 0.000000
0.007167 -0.007306 0.000000
0.007063 -0.026728 0.000000
0.007970 -0.024361 0.000000
0.004256 -0.021176 0.000000
0.004194 -0.021108 0.000000
0.007882 -0.025339 0.000000
0.006149 -0.015958 0.000000
0.004811 -0.003121 0.000000
0.004679 -0.021840 0.000000
0.010939 -0.017608 0.000000
0.003655 -0.013130 0.000000
0.000887 -0.004111 0.000000
0.006040 -0.024984 0.000000
0.007816 -0.025085 0.000000
0.004953 -0.022748 0.000000
0.008442 -0.024030 0.000000
0.007708 -0.025769 0.000000
0.002225 -0.005867 0.000000
0.011307 -0.008596 0.000000
0.006218 -0.024875 0.000000
0.008841 -0.006880 0.000000
0.007993 -0.025224 0.000000
0.007365 -0.007701 0.000000
0.005636 -0.001364 0.000000
0.004556 -0.018545 0.000000
0.003661 -0.015722 0.000000
0.002550 -0.012773 0.000000
0.010961 -0.018158 0.000000
0.011043 -0.018085 0.000000
0.010236 -0.008355 0.000000
0.002616 -0.015657 0.000000
0.006922 -0.019255 0.000000
0.007571 -0.025739 0.000000
0.007229 -0.025083 0.000000
0.006392 -0.025179 0.000000
0.007013 -0.023551 0.000000
0.013139 -0.007096 0.000000
0.007585 -0.003139 0.000000
0.005465 -0.021946 0.000000
0.006314 -0.025426 0.000000
0.005185 -0.021281 0.000000
0.006560 -0.025802 0.000000
0.008944 -0.018777 0.000000
0.006437 -0.025295 0.000000
0.007138 -0.026278 0.000000
0.008331 -0.015638 0.000000
0.004427 -0.004809 0.000000
0.002227 -0.012908 0.000000
0.001464 -0.001730 0.000000
0.006560 -0.024627 0.000000
0.008395 -0.024070 0.000000
0.005303 -0.019492 0.000000
0.004781 -0.009170 0.000000
0.012250 -0.009431 0.000000
0.012234 -0.009100 0.000000
0.008761 -0.022852 0.000000
0.006018 -0.020988 0.000000
0.006194 -0.020811 0.000000
0.012213 -0.004255 0.000000
0.008277 -0.008465 0.000000
0.010734 -0.016398 0.000000
0.009485 -0.021749 0.000000
0.009219 -0.007655 0.000000
0.007128 -0.026733 0.000000
0.007128 -0.026786 0.000000
0.009669 -0.013621 0.000000
0.009748 -0.007626 0.000000
0.007587 -0.025772 0.000000
0.006792 -0.024287 0.000000
0.010110 -0.001353 0.000000
0.007609 -0.009988 0.000000
0.006833 -0.019253 0.000000
0.001589 -0.005390 0.000000
0.005166 -0.022242 0.000000
0.003279 -0.014207 0.000000
0.008500 -0.024300 0.000000
0.008695 -0.003131 0.000000
0.002667 -0.014733 0.000000
0.006938 -0.026469 0.000000
0.001751 -0.001742 0.000000
0.010088 -0.003106 0.000000
0.009654 -0.021332 0.000000
0.007055 -0.019008 0.000000
0.005109 -0.020489 0.000000
0.011868 -0.012961 0.000000
0.006892 -0.002261 0.000000
0.010451 -0.016778 0.000000
0.005118 -0.009563 0.000000
0.005940 -0.009227 0.000000
0.007303 -0.025362 0.000000
0.009816 -0.018914 0.000000
0.007040 -0.026452 0.000000
0.002757 -0.016412 0.000000
0.002485 -0.002625 0.000000
0.005545 -0.021252 0.000000
0.006047 -0.011064 0.000000
0.008437 -0.015628 0.000000
0.006013 -0.009604 0.000000
0.006118 -0.011421 0.000000
0.005189 -0.020319 0.000000
0.003992 -0.003956 0.000000
0.003923 -0.008726 0.000000
0.005726 -0.024441 0.000000
0.006808 -0.017695 0.000000
0.002961 -0.009326 0.000000
0.011034 -0.000898 0.000000
0.004970 -0.017452 0.000000
0.000852 -0.004488 0.000000
0.006268 -0.002700 0.000000
0.007655 -0.025833 0.000000
0.008023 -0.024843 0.000000
0.008630 -0.017308 0.000000
0.012029 -0.005075 0.000000
0.006470 -0.025097 0.000000
0.006526 -0.025097 0.000000
0.007603 -0.017135 0.000000
0.009061 -0.008435 0.000000
0.006638 -0.024256 0.000000
0.006573 -0.025863 0.000000
0.008961 -0.023325 0.000000
0.008601 -0.023473 0.000000
0.006115 -0.021619 0.000000
0.002266 -0.005481 0.000000
0.002173 -0.005075 0.000000
0.007467 -0.026230 0.000000
0.005758 -0.023587 0.000000
0.005405 -0.014986 0.000000
0.012969 -0.006438 0.000000
0.007658 -0.025274 0.000000
0.007348 -0.026327 0.000000
0.005848 -0.023092 0.000000
0.010269 -0.004374 0.000000
0.008650 -0.015604 0.000000
0.008144 -0.024737 0.000000
0.011757 -0.012437 0.000000
0.012084 -0.012001 0.000000
0.005652 -0.010326 0.000000
0.006660 -0.010357 0.000000
0.000403 -0.003257 0.000000
0.005230 -0.019241 0.000000
0.006466 -0.009986 0.000000
0.004699 -0.017120 0.000000
0.007602 -0.025716 0.000000
0.008668 -0.023303 0.000000
0.006509 -0.025837 0.000000
0.011331 -0.013192 0.000000
0.007397 -0.025482 0.000000
0.008143 -0.025047 0.000000
0.009287 -0.018438 0.000000
0.011205 -0.005147 0.000000
0.011569 -0.004715 0.000000
0.007342 -0.012138 0.000000
0.008948 -0.016428 0.000000
0.008958 -0.019012 0.000000
0.007567 -0.019964 0.000000
0.006613 -0.025948 0.000000
0.002623 -0.010622 0.000000
0.002982 -0.010711 0.000000
0.007019 -0.026696 0.000000
0.007009 -0.026684 0.000000
0.007862 -0.003137 0.000000
0.012414 -0.011549 0.000000
0.007703 -0.017130 0.000000
0.008180 -0.024984 0.000000
0.008104 -0.025007 0.000000
0.008172 -0.024906 0.000000
0.011344 -0.006328 0.000000
0.002948 -0.005546 0.000000
0.007484 -0.026193 0.000000
0.007478 -0.026138 0.000000
0.008997 -0.015849 0.000000
0.009219 -0.021343 0.000000
0.006488 -0.025421 0.000000
0.006415 -0.025678 0.000000
0.001362 -0.008892 0.000000
0.003862 -0.010526 0.000000
0.006363 -0.025582 0.000000
0.005545 -0.018600 0.000000
0.006929 -0.025856 0.000000
0.005185 -0.020521 0.000000
0.007482 -0.009990 0.000000
0.001619 -0.003814 0.000000
0.008838 -0.018560 0.000000
0.005909 -0.023413 0.000000
0.007449 -0.026263 0.000000
0.003177 -0.001782 0.000000
0.007897 -0.025261 0.000000
0.004610 -0.006451 0.000000
0.008294 -0.024699 0.000000
0.002630 -0.005913 0.000000
0.005428 -0.011033 0.000000
0.006791 -0.025837 0.000000
0.008701 -0.017024 0.000000
0.007398 -0.026349 0.000000
0.008054 -0.025037 0.000000
0.008128 -0.024846 0.000000
0.007318 -0.026426 0.000000
0.005565 -0.023071 0.000000
0.007288 -0.026511 0.000000
0.006133 -0.024187 0.000000
0.006554 -0.025861 0.000000
0.012623 -0.002993 0.000000
0.003269 -0.015807 0.000000
0.006853 -0.017422 0.000000
0.004771 -0.007253 0.000000
0.003835 -0.012213 0.000000
0.003651 -0.011518 0.000000
0.002655 -0.013106 0.000000
0.012193 -0.011657 0.000000
0.006643 -0.026049 0.000000
0.008348 -0.024109 0.000000
0.007475 -0.024413 0.000000
0.003902 -0.018844 0.000000
0.007223 -0.026432 0.000000
0.004244 -0.019449 0.000000
0.005990 -0.002698 0.000000
0.006129 -0.002699 0.000000
0.012371 -0.009392 0.000000
0.005194 -0.020113 0.000000
0.003678 -0.002229 0.000000
0.007838 -0.025589 0.000000
0.012304 -0.011604 0.000000
0.004904 -0.007259 0.000000
0.006898 -0.026385 0.000000
0.005658 -0.015616 0.000000
0.007787 -0.025450 0.000000
0.007101 -0.018755 0.000000
0.011605 -0.003891 0.000000
0.008885 -0.019266 0.000000
0.008373 -0.024624 0.000000
0.002008 -0.011949 0.000000
0.007908 -0.025407 0.000000
0.008440 -0.024496 0.000000
0.009101 -0.015831 0.000000
0.011386 -0.006712 0.000000
0.009223 -0.023107 0.000000
0.003795 -0.018375 0.000000
0.008408 -0.024583 0.000000
0.008846 -0.016444 0.000000
0.010929 -0.014486 0.000000
0.005841 -0.015031 0.000000
0.008508 -0.015321 0.000000
0.007117 -0.025814 0.000000
0.006272 -0.025225 0.000000
0.010183 -0.000905 0.000000
0.006767 -0.025943 0.000000
0.006815 -0.025991 0.000000
0.002683 -0.011921 0.000000
0.003464 -0.016151 0.000000
0.008986 -0.001362 0.000000
0.003474 -0.014839 0.000000
0.005576 -0.023210 0.000000
0.005961 -0.024800 0.000000
0.006681 -0.026123 0.000000
0.007956 -0.008086 0.000000
0.000597 -0.002888 0.000000
0.006182 -0.024214 0.000000
0.006099 -0.021809 0.000000
0.007744 -0.017405 0.000000
0.008323 -0.024497 0.000000
0.010363 -0.020370 0.000000
0.003973 -0.003103 0.000000
0.006900 -0.017145 0.000000
0.011725 -0.011226 0.000000
0.007147 -0.018497 0.000000
0.001898 -0.011604 0.000000
0.006118 -0.024978 0.000000
0.007517 -0.025428 0.000000
0.005695 -0.023419 0.000000
0.002457 -0.003882 0.000000
0.007351 -0.026428 0.000000
0.004074 -0.010903 0.000000
0.009806 -0.021060 0.000000
0.005546 -0.024112 0.000000
0.008773 -0.016736 0.000000
0.005039 -0.009186 0.000000
0.007665 -0.025816 0.000000
0.003413 -0.003086 0.000000
0.007941 -0.017391 0.000000
0.002693 -0.016743 0.000000
0.003371 -0.014800 0.000000
0.008693 -0.023033 0.000000
0.007791 -0.003571 0.000000
0.006125 -0.024712 0.000000
0.010133 -0.020742 0.000000
0.005058 -0.011006 0.000000
0.009234 -0.019381 0.000000
0.004797 -0.022559 0.000000
0.004963 -0.003982 0.000000
0.004763 -0.004401 0.000000
0.013048 -0.007806 0.000000
0.005231 -0.023564 0.000000
0.005192 -0.023478 0.000000
0.008089 -0.024866 0.000000
0.006972 -0.009245 0.000000
0.004172 -0.020718 0.000000
0.009870 -0.020564 0.000000
0.005977 -0.015648 0.000000
0.004176 -0.002675 0.000000
0.004983 -0.007655 0.000000
0.007601 -0.025996 0.000000
0.012052 -0.006624 0.000000
0.001466 -0.006859 0.000000
0.009005 -0.009936 0.000000
0.005713 -0.023988 0.000000
0.008109 -0.024915 0.000000
0.008853 -0.008826 0.000000
0.006067 -0.025041 0.000000
0.011023 -0.016006 0.000000
0.007925 -0.004426 0.000000
0.009269 -0.022803 0.000000
0.007770 -0.025507 0.000000
0.009385 -0.009910 0.000000
0.008907 -0.002692 0.000000
0.005070 -0.018960 0.000000
0.008797 -0.014986 0.000000
0.004648 -0.016302 0.000000
0.010001 -0.021319 0.000000
0.008928 -0.018539 0.000000
0.007240 -0.001816 0.000000
0.007841 -0.006499 0.000000
0.008768 -0.002694 0.000000
0.004565 -0.004814 0.000000
0.005476 -0.010679 0.000000
0.009633 -0.022118 0.000000
0.002402 -0.005495 0.000000
0.002539 -0.005509 0.000000
0.009341 -0.017680 0.000000
0.006865 -0.026396 0.000000
0.005108 -0.023352 0.000000
0.004483 -0.021275 0.000000
0.011340 -0.013761 0.000000
0.005201 -0.019902 0.000000
0.005635 -0.018618 0.000000
0.006634 -0.025432 0.000000
0.003864 -0.019858 0.000000
0.008178 -0.024992 0.000000
0.006924 -0.026110 0.000000
0.006878 -0.026370 0.000000
0.008770 -0.023936 0.000000
0.004711 -0.022375 0.000000
0.011239 -0.014358 0.000000
0.006022 -0.023746 0.000000
0.009166 -0.020051 0.000000
0.003971 -0.013514 0.000000
0.006846 -0.016862 0.000000
0.006986 -0.026583 0.000000
0.005479 -0.015297 0.000000
0.006667 -0.025295 0.000000
0.003853 -0.016059 0.000000
0.010298 -0.005609 0.000000
0.008616 -0.024209 0.000000
0.009259 -0.009920 0.000000
0.009758 -0.021797 0.000000
0.003952 -0.010886 0.000000
0.003261 -0.006366 0.000000
0.005731 -0.024371 0.000000
0.009284 -0.015509 0.000000
0.002403 -0.002194 0.000000
0.012763 -0.011082 0.000000
0.001883 -0.008388 0.000000
0.008747 -0.018581 0.000000
0.011974 -0.012908 0.000000
0.006709 -0.026098 0.000000
0.009090 -0.020288 0.000000
0.003307 -0.017006 0.000000
0.006703 -0.025981 0.000000
0.003749 -0.013462 0.000000
0.004910 -0.009179 0.000000
0.008293 -0.023413 0.000000
0.001278 -0.007860 0.000000
0.008223 -0.023975 0.000000
0.008839 -0.023731 0.000000
0.007499 -0.025554 0.000000
0.007449 -0.025546 0.000000
0.003131 -0.003077 0.000000
0.006791 -0.016574 0.000000
0.008219 -0.008080 0.000000
0.010630 -0.007174 0.000000
0.006562 -0.025917 0.000000
0.002441 -0.013292 0.000000
0.007670 -0.025597 0.000000
0.011775 -0.003046 0.000000
0.010637 -0.016689 0.000000
0.010541 -0.016975 0.000000
0.009812 -0.019128 0.000000
0.008357 -0.024569 0.000000
0.006619 -0.015686 0.000000
0.002442 -0.012727 0.000000
0.009977 -0.020157 0.000000
0.007392 -0.025597 0.000000
0.007170 -0.022320 0.000000
0.012303 -0.003840 0.000000
0.011016 -0.004752 0.000000
0.002177 -0.009833 0.000000
0.005472 -0.021224 0.000000
0.009026 -0.023316 0.000000
0.003316 -0.018729 0.000000
0.003224 -0.018628 0.000000
0.007843 -0.017398 0.000000
0.005237 -0.023582 0.000000
0.003174 -0.014168 0.000000
0.008139 -0.017372 0.000000
0.007269 -0.026292 0.000000
0.013148 -0.005288 0.000000
0.009365 -0.015201 0.000000
0.008040 -0.017382 0.000000
0.010718 -0.006777 0.000000
0.008657 -0.018600 0.000000
0.005910 -0.007688 0.000000
0.003959 -0.015830 0.000000
0.003853 -0.003951 0.000000
0.006863 -0.024154 0.000000
0.007241 -0.018496 0.000000
0.005209 -0.019686 0.000000
0.011250 -0.000450 0.000000
0.004666 -0.016029 0.000000
0.006728 -0.025940 0.000000
0.008215 -0.024097 0.000000
0.001527 -0.001305 0.000000
0.006883 -0.026413 0.000000
0.004059 -0.015863 0.000000
0.001949 -0.003434 0.000000
0.005794 -0.024570 0.000000
0.004532 -0.016544 0.000000
0.001905 -0.008042 0.000000
0.005726 -0.018635 0.000000
0.004113 -0.014750 0.000000
0.008532 -0.017323 0.000000
0.007386 -0.026281 0.000000
0.010299 -0.012871 0.000000
0.006208 -0.025305 0.000000
0.007633 -0.025692 0.000000
0.006723 -0.026138 0.000000
0.006439 -0.025720 0.000000
0.004189 -0.007609 0.000000
0.008421 -0.024435 0.000000
0.005983 -0.008080 0.000000
0.007865 -0.025540 0.000000
0.006840 -0.016285 0.000000
0.008805 -0.023822 0.000000
0.009755 -0.013290 0.000000
0.008723 -0.015297 0.000000
0.007403 -0.025890 0.000000
0.010885 -0.018730 0.000000
0.009435 -0.017653 0.000000
0.003005 -0.010378 0.000000
0.002898 -0.012300 0.000000
0.004731 -0.015181 0.000000
0.009243 -0.019810 0.000000
0.005023 -0.015527 0.000000
0.004837 -0.015201 0.000000
0.001899 -0.011310 0.000000
0.011628 -0.007812 0.000000
0.006880 -0.025817 0.000000
0.011841 -0.011187 0.000000
0.009265 -0.023016 0.000000
0.005889 -0.024030 0.000000
0.007019 -0.026447 0.000000
0.005667 -0.023945 0.000000
0.006000 -0.018679 0.000000
0.008237 -0.017361 0.000000
0.006055 -0.008469 0.000000
0.009132 -0.009928 0.000000
0.004616 -0.016834 0.000000
0.004686 -0.015751 0.000000
0.004239 -0.014485 0.000000
0.006869 -0.026088 0.000000
0.007212 -0.025521 0.000000
0.005779 -0.023837 0.000000
0.007189 -0.023551 0.000000
0.008047 -0.006090 0.000000
0.000553 -0.002082 0.000000
0.005292 -0.019713 0.000000
0.008335 -0.017350 0.000000
0.011165 -0.005952 0.000000
0.008805 -0.021740 0.000000
0.007548 -0.024656 0.000000
0.009528 -0.017625 0.000000
0.006966 -0.026622 0.000000
0.007796 -0.023763 0.000000
0.004419 -0.021216 0.000000
0.004160 -0.015894 0.000000
0.008160 -0.024247 0.000000
0.010368 -0.003099 0.000000
0.006783 -0.015989 0.000000
0.007561 -0.008091 0.000000
0.003912 -0.003529 0.000000
0.011850 -0.011496 0.000000
0.009733 -0.018734 0.000000
0.006960 -0.026372 0.000000
0.004220 -0.014777 0.000000
0.004942 -0.022990 0.000000
0.007870 -0.024944 0.000000
0.011300 -0.005940 0.000000
0.007457 -0.025483 0.000000
0.008434 -0.017337 0.000000
0.006996 -0.026488 0.000000
0.007087 -0.026795 0.000000
0.001579 -0.002993 0.000000
0.009569 -0.021543 0.000000
0.006963 -0.003573 0.000000
0.008087 -0.008083 0.000000
0.004707 -0.015468 0.000000
0.009073 -0.023254 0.000000
0.004152 -0.020101 0.000000
0.004186 -0.015345 0.000000
0.007910 -0.025178 0.000000
0.003308 -0.005973 0.000000
0.010082 -0.017897 0.000000
0.012085 -0.006994 0.000000
0.009179 -0.015527 0.000000
0.008681 -0.023170 0.000000
0.006896 -0.026099 0.000000
0.004672 -0.003118 0.000000
0.007836 -0.025568 0.000000
0.007960 -0.025301 0.000000
0.007308 -0.026456 0.000000
0.011237 -0.014084 0.000000
0.011234 -0.013805 0.000000
0.008069 -0.025076 0.000000
0.007424 -0.026231 0.000000
0.007437 -0.026193 0.000000
0.005586 -0.015310 0.000000
0.007708 -0.025799 0.000000
0.003569 -0.016928 0.000000
0.004172 -0.015622 0.000000
0.010523 -0.011186 0.000000
0.005694 -0.024403 0.000000
0.005110 -0.023319 0.000000
0.000741 -0.005934 0.000000
0.009377 -0.020906 0.000000
0.005300 -0.022478 0.000000
0.006514 -0.025842 0.000000
0.011550 -0.003478 0.000000
0.011409 -0.003485 0.000000
0.008265 -0.018416 0.000000
0.007331 -0.025702 0.000000
0.007379 -0.025716 0.000000
0.007150 -0.025812 0.000000
0.002809 -0.009648 0.000000
0.010127 -0.010903 0.000000
0.003993 -0.013206 0.000000
0.005468 -0.021411 0.000000
0.007975 -0.006498 0.000000
0.005734 -0.022063 0.000000
0.002597 -0.003891 0.000000
0.005817 -0.018651 0.000000
0.004978 -0.010645 0.000000
0.003890 -0.018637 0.000000
0.006870 -0.026270 0.000000
0.009186 -0.002689 0.000000
0.006007 -0.019417 0.000000
0.004099 -0.020892 0.000000
0.005879 -0.024497 0.000000
0.005035 -0.023126 0.000000
0.010162 -0.020587 0.000000
0.003859 -0.015795 0.000000
0.008566 -0.018618 0.000000
0.003134 -0.005157 0.000000
0.011690 -0.003470 0.000000
0.010306 -0.002669 0.000000
0.008172 -0.024992 0.000000
0.001623 -0.006529 0.000000
0.008737 -0.021772 0.000000
0.011920 -0.010196 0.000000
0.003896 -0.002669 0.000000
0.001386 -0.008237 0.000000
0.009942 -0.014189 0.000000
0.009959 -0.020335 0.000000
0.005807 -0.024488 0.000000
0.006777 -0.026231 0.000000
0.005908 -0.018665 0.000000
0.006065 -0.011770 0.000000
0.005000 -0.022252 0.000000
0.009556 -0.022127 0.000000
0.007851 -0.023745 0.000000
0.008106 -0.024913 0.000000
0.001132 -0.008468 0.000000
0.006896 -0.025226 0.000000
0.007558 -0.026066 0.000000
0.006827 -0.026356 0.000000
0.009047 -0.002691 0.000000
0.006843 -0.009244 0.000000
0.006293 -0.025407 0.000000
0.005910 -0.015341 0.000000
0.005827 -0.024640 0.000000
0.006868 -0.026153 0.000000
0.006895 -0.026337 0.000000
0.010250 -0.010886 0.000000
0.006817 -0.026315 0.000000
0.005997 -0.008850 0.000000
0.005070 -0.009928 0.000000
0.005944 -0.011764 0.000000
0.006094 -0.019430 0.000000
0.001373 -0.008567 0.000000
0.004057 -0.007599 0.000000
0.006355 -0.013801 0.000000
0.007776 -0.006093 0.000000
0.006286 -0.025429 0.000000
0.004355 -0.021155 0.000000
0.007993 -0.024776 0.000000
0.007163 -0.026737 0.000000
0.002339 -0.012097 0.000000
0.009727 -0.019379 0.000000
0.008068 -0.024756 0.000000
0.010275 -0.012556 0.000000
0.008470 -0.024417 0.000000
0.010925 -0.010085 0.000000
0.005900 -0.024146 0.000000
0.005136 -0.022492 0.000000
0.005050 -0.015237 0.000000
0.002949 -0.006727 0.000000
0.011108 -0.000450 0.000000
0.009471 -0.015181 0.000000
0.007956 -0.023561 0.000000
0.001528 -0.003399 0.000000
0.008662 -0.021440 0.000000
0.001127 -0.008793 0.000000
0.008488 -0.023988 0.000000
0.010962 -0.018656 0.000000
0.002081 -0.004666 0.000000
0.006005 -0.024870 0.000000
0.006346 -0.025059 0.000000
0.006667 -0.025834 0.000000
0.006679 -0.025884 0.000000
0.006649 -0.025156 0.000000
0.008944 -0.021496 0.000000
0.005822 -0.011758 0.000000
0.007183 -0.025809 0.000000
0.002907 -0.010015 0.000000
0.007495 -0.025839 0.000000
0.007547 -0.025781 0.000000
0.004672 -0.020637 0.000000
0.009683 -0.015138 0.000000
0.005689 -0.024397 0.000000
0.004444 -0.021797 0.000000
0.004663 -0.020452 0.000000
0.007354 -0.025936 0.000000
0.008475 -0.018635 0.000000
0.006138 -0.024809 0.000000
0.008151 -0.024362 0.000000
0.005504 -0.011390 0.000000
0.005079 -0.014942 0.000000
0.007887 -0.025470 0.000000
0.011856 -0.007405 0.000000
0.006202 -0.025305 0.000000
0.006753 -0.013486 0.000000
0.007620 -0.025957 0.000000
0.007240 -0.002702 0.000000
0.010347 -0.017766 0.000000
0.007678 -0.025833 0.000000
0.007647 -0.025861 0.000000
0.006745 -0.026203 0.000000
0.008941 -0.021671 0.000000
0.006193 -0.014116 0.000000
0.013045 -0.002956 0.000000
0.009202 -0.023023 0.000000
0.000819 -0.004859 0.000000
0.009577 -0.015160 0.000000
0.005579 -0.011744 0.000000
0.008292 -0.007688 0.000000
0.008939 -0.023267 0.000000
0.005149 -0.010298 0.000000
0.005668 -0.013759 0.000000
0.006001 -0.021191 0.000000
0.004060 -0.019863 0.000000
0.004924 -0.022626 0.000000
0.005794 -0.024583 0.000000
0.007576 -0.005684 0.000000
0.010522 -0.018873 0.000000
0.004450 -0.005635 0.000000
0.006702 -0.026151 0.000000
0.009768 -0.014825 0.000000
0.005472 -0.023969 0.000000
0.009819 -0.018472 0.000000
0.002401 -0.010230 0.000000
0.007236 -0.006097 0.000000
0.003000 -0.016139 0.000000
0.006059 -0.021407 0.000000
0.005535 -0.022312 0.000000
0.010552 -0.019654 0.000000
0.005701 -0.011752 0.000000
0.007089 -0.026279 0.000000
0.009547 -0.020262 0.000000
0.009465 -0.020495 0.000000
0.010674 -0.013404 0.000000
0.007233 -0.026323 0.000000
0.005188 -0.014958 0.000000
0.005397 -0.021381 0.000000
0.007235 -0.006907 0.000000
0.008348 -0.024423 0.000000
0.006737 -0.026177 0.000000
0.005627 -0.014076 0.000000
0.006868 -0.026214 0.000000
0.006403 -0.021058 0.000000
0.011959 -0.013721 0.000000
0.008889 -0.023319 0.000000
0.005710 -0.013438 0.000000
0.003564 -0.016689 0.000000
0.008956 -0.009571 0.000000
0.006239 -0.019689 0.000000
0.006225 -0.024918 0.000000
0.007258 -0.025883 0.000000
0.003623 -0.019003 0.000000
0.005904 -0.024570 0.000000
0.006335 -0.024860 0.000000
0.009854 -0.014509 0.000000
0.009326 -0.002687 0.000000
0.007324 -0.026370 0.000000
0.005670 -0.017323 0.000000
0.008500 -0.024400 0.000000
0.008064 -0.023370 0.000000
0.010030 -0.013865 0.000000
0.011172 -0.010039 0.000000
0.009579 -0.022186 0.000000
0.006416 -0.025093 0.000000
0.007931 -0.025315 0.000000
0.001565 -0.010551 0.000000
0.011464 -0.008930 0.000000
0.009597 -0.022238 0.000000
0.005034 -0.022926 0.000000
0.006614 -0.025772 0.000000
0.006752 -0.001367 0.000000
0.006963 -0.004429 0.000000
0.010119 -0.013538 0.000000
0.003717 -0.009438 0.000000
0.008384 -0.018651 0.000000
0.006790 -0.026267 0.000000
0.006154 -0.019677 0.000000
0.009745 -0.002680 0.000000
0.012069 -0.013395 0.000000
0.002580 -0.011575 0.000000
0.012766 -0.004195 0.000000
0.008014 -0.025190 0.000000
0.004030 -0.020158 0.000000
0.008828 -0.009578 0.000000
0.008915 -0.023577 0.000000
0.009166 -0.023126 0.000000
0.009800 -0.019541 0.000000
0.007377 -0.020882 0.000000
0.011089 -0.002216 0.000000
0.007170 -0.003139 0.000000
0.010460 -0.018734 0.000000
0.007216 -0.025805 0.000000
0.011319 -0.000895 0.000000
0.006809 -0.026334 0.000000
0.005959 -0.024294 0.000000
0.007540 -0.026102 0.000000
0.007374 -0.026356 0.000000
0.006167 -0.024991 0.000000
0.009076 -0.021596 0.000000
0.004623 -0.022186 0.000000
0.007175 -0.025524 0.000000
0.006421 -0.025012 0.000000
0.004659 -0.021280 0.000000
0.009008 -0.021634 0.000000
0.009465 -0.002685 0.000000
0.003080 -0.011067 0.000000
0.010072 -0.011597 0.000000
0.008365 -0.007291 0.000000
0.001943 -0.004652 0.000000
0.004921 -0.022055 0.000000
0.005154 -0.022633 0.000000
0.005143 -0.021928 0.000000
0.005465 -0.021772 0.000000
0.007278 -0.026494 0.000000
0.005487 -0.016179 0.000000
0.009605 -0.002683 0.000000
0.004507 -0.021011 0.000000
0.007941 -0.024861 0.000000
0.010797 -0.013668 0.000000
0.005064 -0.023040 0.000000
0.010507 -0.019551 0.000000
0.008358 -0.018402 0.000000
0.013135 -0.002539 0.000000
0.005144 -0.023210 0.000000
0.006616 -0.024518 0.000000
0.012814 -0.003386 0.000000
0.009668 -0.021994 0.000000
0.006187 -0.011774 0.000000
0.004823 -0.021700 0.000000
0.006535 -0.025429 0.000000
0.004004 -0.020672 0.000000
0.007101 -0.003573 0.000000
0.002261 -0.002189 0.000000
0.003140 -0.012057 0.000000
0.006152 -0.024902 0.000000
0.005154 -0.022088 0.000000
0.012172 -0.013332 0.000000
0.006723 -0.026178 0.000000
0.002908 -0.007107 0.000000
0.009630 -0.020026 0.000000
0.005981 -0.024790 0.000000
0.011977 -0.005867 0.000000
0.005284 -0.022863 0.000000
0.005153 -0.023433 0.000000
0.009885 -0.002678 0.000000
0.008071 -0.023660 0.000000
0.007667 -0.025882 0.000000
0.005727 -0.024465 0.000000
0.007712 -0.005683 0.000000
0.010208 -0.013206 0.000000
0.007371 -0.006096 0.000000
0.005192 -0.023268 0.000000
0.006201 -0.025154 0.000000
0.007398 -0.026345 0.000000
0.007382 -0.026376 0.000000
0.010025 -0.002675 0.000000
0.006188 -0.025190 0.000000
0.009170 -0.022741 0.000000
0.004806 -0.021542 0.000000
0.007506 -0.006095 0.000000
0.006577 -0.024375 0.000000
0.002656 -0.014211 0.000000
0.006979 -0.026432 0.000000
0.006419 -0.024908 0.000000
0.009906 -0.018206 0.000000
0.000505 -0.002477 0.000000
0.008097 -0.024504 0.000000
0.002550 -0.013890 0.000000
0.010883 -0.011119 0.000000
0.008014 -0.024774 0.000000
0.006392 -0.025563 0.000000
0.010728 -0.002658 0.000000
0.011903 -0.009868 0.000000
0.006257 -0.025387 0.000000
0.004422 -0.021853 0.000000
0.004352 -0.020734 0.000000
0.006828 -0.005270 0.000000
0.007571 -0.025672 0.000000
0.007559 -0.025727 0.000000
0.008202 -0.018679 0.000000
0.006340 -0.024961 0.000000
0.006626 -0.005684 0.000000
0.006490 -0.005683 0.000000
0.007101 -0.026212 0.000000
0.001759 -0.003828 0.000000
0.006083 -0.005678 0.000000
0.005242 -0.023515 0.000000
0.013081 -0.002131 0.000000
0.003264 -0.007528 0.000000
0.011491 -0.009279 0.000000
0.003682 -0.009793 0.000000
0.010352 -0.017537 0.000000
0.011352 -0.003065 0.000000
0.009009 -0.023505 0.000000
0.007261 -0.026013 0.000000
0.002592 -0.011263 0.000000
0.003224 -0.007902 0.000000
0.003267 -0.015552 0.000000
0.005899 -0.024575 0.000000
0.006333 -0.021664 0.000000
0.006964 -0.005271 0.000000
0.006173 -0.025239 0.000000
0.006802 -0.026302 0.000000
0.007138 -0.025527 0.000000
0.006822 -0.001816 0.000000
0.006761 -0.005685 0.000000
0.007227 -0.025890 0.000000
0.006621 -0.026019 0.000000
0.005768 -0.023714 0.000000
0.008413 -0.022596 0.000000
0.012274 -0.013267 0.000000
0.004054 -0.020327 0.000000
0.009994 -0.017937 0.000000
0.005302 -0.022997 0.000000
0.003967 -0.019622 0.000000
0.003879 -0.007969 0.000000
0.006148 -0.025037 0.000000
0.006218 -0.005680 0.000000
0.008044 -0.024642 0.000000
0.003221 -0.005567 0.000000
0.003973 -0.020518 0.000000
0.006561 -0.025707 0.000000
0.007282 -0.025792 0.000000
0.006377 -0.012128 0.000000
0.003748 -0.007957 0.000000
0.002386 -0.008505 0.000000
0.006309 -0.011779 0.000000
0.006363 -0.025085 0.000000
0.006793 -0.026315 0.000000
0.006335 -0.025479 0.000000
0.008500 -0.024334 0.000000
0.011748 -0.006283 0.000000
0.008111 -0.018691 0.000000
0.005058 -0.023263 0.000000
0.009560 -0.022354 0.000000
0.006461 -0.024930 0.000000
0.010508 -0.003095 0.000000
0.000720 -0.004458 0.000000
0.011842 -0.005883 0.000000
0.006354 -0.005682 0.000000
0.002766 -0.005927 0.000000
0.004534 -0.021994 0.000000
0.011211 -0.003071 0.000000
0.004364 -0.021776 0.000000
0.003876 -0.020290 0.000000
0.013310 -0.001699 0.000000
0.005855 -0.024531 0.000000
0.009048 -0.022633 0.000000
0.006815 -0.026335 0.000000
0.003419 -0.017510 0.000000
0.010895 -0.013340 0.000000
0.007346 -0.026414 0.000000
0.009715 -0.019786 0.000000
0.008597 -0.024104 0.000000
0.002607 -0.010945 0.000000
0.005533 -0.022147 0.000000
0.008019 -0.018702 0.000000
0.006522 -0.025690 0.000000
0.005374 -0.023172 0.000000
0.003478 -0.016880 0.000000
0.010587 -0.002662 0.000000
0.006618 -0.012134 0.000000
0.008439 -0.006891 0.000000
0.004147 -0.020556 0.000000
0.006497 -0.012131 0.000000
0.011689 -0.008530 0.000000
0.011393 -0.009648 0.000000
0.012534 -0.004620 0.000000
0.003407 -0.017288 0.000000
0.008667 -0.023957 0.000000
0.002901 -0.005940 0.000000
0.007120 -0.025424 0.000000
0.006745 -0.012819 0.000000
0.006682 -0.012479 0.000000
0.007472 -0.025352 0.000000
0.007314 -0.025784 0.000000
0.001676 -0.010906 0.000000
0.010080 -0.018126 0.000000
0.011479 -0.006314 0.000000
0.012860 -0.003784 0.000000
0.010165 -0.002672 0.000000
0.002335 -0.012390 0.000000
0.008929 -0.023631 0.000000
0.006808 -0.013155 0.000000
0.006229 -0.025353 0.000000
0.006658 -0.025226 0.000000
0.011571 -0.005913 0.000000
0.006241 -0.025301 0.000000
0.010449 -0.017020 0.000000
0.008367 -0.024557 0.000000
0.007380 -0.025762 0.000000
0.007352 -0.025855 0.000000
0.011462 -0.000893 0.000000
0.009182 -0.022395 0.000000
0.007321 -0.025866 0.000000
0.008694 -0.023858 0.000000
0.010789 -0.003086 0.000000
0.003316 -0.008287 0.000000
0.011075 -0.010403 0.000000
0.010979 -0.010762 0.000000
0.010540 -0.018676 0.000000
0.006576 -0.025953 0.000000
0.007336 -0.025643 0.000000
0.011660 -0.008174 0.000000
0.005539 -0.005669 0.000000
0.011025 -0.001782 0.000000
0.007928 -0.018712 0.000000
0.006300 -0.025442 0.000000
0.008573 -0.006888 0.000000
0.003840 -0.019682 0.000000
0.007300 -0.026429 0.000000
0.006233 -0.025355 0.000000
0.006788 -0.026321 0.000000
0.006772 -0.026291 0.000000
0.006484 -0.025669 0.000000
0.007561 -0.018742 0.000000
0.010930 -0.003082 0.000000
0.007306 -0.025977 0.000000
0.007477 -0.025636 0.000000
0.007836 -0.018721 0.000000
0.007127 -0.026211 0.000000
0.002059 -0.002606 0.000000
0.003872 -0.019376 0.000000
0.006277 -0.022229 0.000000
0.006429 -0.025592 0.000000
0.002201 -0.002612 0.000000
0.005811 -0.005674 0.000000
0.011679 -0.000447 0.000000
0.006554 -0.025918 0.000000
0.006242 -0.025350 0.000000
0.002158 -0.008099 0.000000
0.007081 -0.025424 0.000000
0.007021 -0.025313 0.000000
0.002317 -0.009535 0.000000
0.006598 -0.025987 0.000000
0.007175 -0.021526 0.000000
0.010249 -0.012235 0.000000
0.008719 -0.023755 0.000000
0.008815 -0.023485 0.000000
0.007380 -0.026370 0.000000
0.009612 -0.022281 0.000000
0.002952 -0.016767 0.000000
0.002298 -0.009868 0.000000
0.003537 -0.008684 0.000000
0.007601 -0.020194 0.000000
0.006327 -0.022424 0.000000
0.007744 -0.018729 0.000000
0.008791 -0.023596 0.000000
0.007283 -0.025684 0.000000
0.006924 -0.026536 0.000000
0.001850 -0.004241 0.000000
0.011151 -0.002646 0.000000
0.003819 -0.002232 0.000000
0.007061 -0.025316 0.000000
0.003950 -0.001352 0.000000
0.005947 -0.005676 0.000000
0.007413 -0.025749 0.000000
0.002766 -0.014788 0.000000
0.011010 -0.002650 0.000000
0.005269 -0.023433 0.000000
0.002337 -0.009197 0.000000
0.010254 -0.018038 0.000000
0.010458 -0.011868 0.000000
0.008568 -0.024195 0.000000
0.007004 -0.025419 0.000000
0.013250 -0.001283 0.000000
0.011536 -0.000448 0.000000
0.000460 -0.002866 0.000000
0.006822 -0.026375 0.000000
0.007445 -0.025735 0.000000
0.007652 -0.018736 0.000000
0.006952 -0.025516 0.000000
0.006966 -0.025415 0.000000
0.009492 -0.021164 0.000000
0.012575 -0.005008 0.000000
0.006576 -0.025959 0.000000
0.010167 -0.018083 0.000000
0.007308 -0.026497 0.000000
0.006442 -0.022629 0.000000
0.007052 -0.024586 0.000000
0.010256 -0.000454 0.000000
0.004903 -0.021905 0.000000
0.010325 -0.004788 0.000000
0.007758 -0.025719 0.000000
0.010550 -0.011518 0.000000
0.007418 -0.019002 0.000000
0.007063 -0.021318 0.000000
0.006295 -0.025003 0.000000
0.007004 -0.024584 0.000000
0.005345 -0.023594 0.000000
0.001929 -0.007690 0.000000
0.003778 -0.020058 0.000000
0.007184 -0.023867 0.000000
0.007809 -0.025634 0.000000
0.010355 -0.017302 0.000000
0.003287 -0.016541 0.000000
0.007508 -0.018997 0.000000
0.008214 -0.024863 0.000000
0.006854 -0.026424 0.000000
0.005978 -0.024659 0.000000
0.001362 -0.006470 0.000000
0.005390 -0.023649 0.000000
0.007551 -0.020426 0.000000
0.006940 -0.025612 0.000000
0.006425 -0.022802 0.000000
0.007009 -0.024843 0.000000
0.007327 -0.022865 0.000000
0.007023 -0.021105 0.000000
0.006556 -0.025922 0.000000
0.010442 -0.015759 0.000000
0.003040 -0.016830 0.000000
0.006261 -0.024862 0.000000
0.011748 -0.000890 0.000000
0.008237 -0.023441 0.000000
0.007353 -0.023039 0.000000
0.003884 -0.001794 0.000000
0.010357 -0.016819 0.000000
0.003777 -0.019127 0.000000
0.010959 -0.001343 0.000000
0.013187 -0.000861 0.000000
0.006534 -0.022996 0.000000
0.007153 -0.026209 0.000000
0.007235 -0.026622 0.000000
0.006793 -0.025664 0.000000
0.007282 -0.026543 0.000000
0.008148 -0.000459 0.000000
0.003700 -0.019066 0.000000
0.002440 -0.013012 0.000000
0.010356 -0.016570 0.000000
0.007469 -0.020432 0.000000
0.001827 -0.007306 0.000000
0.006904 -0.025605 0.000000
0.009154 -0.023087 0.000000
0.003296 -0.016776 0.000000
0.007060 -0.020443 0.000000
0.009116 -0.022796 0.000000
0.009901 -0.000907 0.000000
0.010546 -0.004363 0.000000
0.006517 -0.023162 0.000000
0.013042 -0.000865 0.000000
0.012898 -0.000869 0.000000
0.008988 -0.023213 0.000000
0.006827 -0.025677 0.000000
0.009665 -0.022205 0.000000
0.006581 -0.025957 0.000000
0.010397 -0.000454 0.000000
0.001259 -0.006079 0.000000
0.010878 -0.004760 0.000000
0.006895 -0.025697 0.000000
0.006885 -0.026470 0.000000
0.012754 -0.000872 0.000000
0.007423 -0.020659 0.000000
0.006200 -0.025298 0.000000
0.007393 -0.026334 0.000000
0.006906 -0.026522 0.000000
0.006861 -0.025687 0.000000
0.009619 -0.000909 0.000000
0.002360 -0.008854 0.000000
0.006560 -0.023336 0.000000
0.005464 -0.005254 0.000000
0.009065 -0.023041 0.000000
0.007411 -0.021096 0.000000
0.010823 -0.000452 0.000000
0.003749 -0.019894 0.000000
0.006773 -0.025373 0.000000
0.005960 -0.024565 0.000000
0.011891 -0.000888 0.000000
0.009760 -0.000908 0.000000
0.007774 -0.023465 0.000000
0.012343 -0.005430 0.000000
0.010042 -0.000906 0.000000
0.005675 -0.005672 0.000000
0.010353 -0.016317 0.000000
0.007367 -0.021311 0.000000
0.005463 -0.023805 0.000000
0.008181 -0.023468 0.000000
0.001976 -0.002177 0.000000
0.012034 -0.000886 0.000000
0.009338 -0.000910 0.000000
0.007158 -0.023712 0.000000
0.006920 -0.026543 0.000000
0.002547 -0.013619 0.000000
0.012178 -0.000883 0.000000
0.010342 -0.015795 0.000000
0.008069 -0.023517 0.000000
0.009144 -0.022865 0.000000
0.010463 -0.004781 0.000000
0.006702 -0.025246 0.000000
0.010608 -0.000902 0.000000
0.007786 -0.023616 0.000000
0.010892 -0.000899 0.000000
0.007258 -0.026585 0.000000
0.010684 -0.004356 0.000000
0.010466 -0.000903 0.000000
0.006914 -0.026511 0.000000
0.007325 -0.021522 0.000000
0.006735 -0.025360 0.000000
0.005535 -0.023957 0.000000
0.006631 -0.025004 0.000000
0.006667 -0.025127 0.000000
0.001725 -0.006919 0.000000
0.009479 -0.000909 0.000000
0.007178 -0.026205 0.000000
0.012246 -0.005831 0.000000
0.009140 -0.022666 0.000000
0.006599 -0.024762 0.000000
0.006908 -0.026520 0.000000
0.000952 -0.004890 0.000000
0.001156 -0.005685 0.000000
0.012610 -0.000875 0.000000
0.007250 -0.021525 0.000000
0.008036 -0.024702 0.000000
0.001894 -0.001747 0.000000
0.007233 -0.022690 0.000000
0.007316 -0.023213 0.000000
0.009066 -0.022492 0.000000
0.010446 -0.016021 0.000000
0.006978 -0.020442 0.000000
0.002761 -0.014527 0.000000
0.007281 -0.023383 0.000000
0.010334 -0.015527 0.000000
0.010222 -0.015286 0.000000
0.007248 -0.023549 0.000000
0.005578 -0.024009 0.000000
0.012466 -0.000878 0.000000
0.003650 -0.019655 0.000000
0.006896 -0.020440 0.000000
0.007139 -0.021318 0.000000
0.010380 -0.018790 0.000000
0.005689 -0.024205 0.000000
0.006837 -0.023539 0.000000
0.012149 -0.006229 0.000000
0.009094 -0.023352 0.000000
0.007204 -0.026665 0.000000
0.009057 -0.000911 0.000000
0.008268 -0.024735 0.000000
0.008339 -0.024624 0.000000
0.006814 -0.020436 0.000000
0.009198 -0.000911 0.000000
0.005621 -0.024059 0.000000
0.009082 -0.022347 0.000000
0.009162 -0.022533 0.000000
0.005714 -0.024297 0.000000
0.012322 -0.000881 0.000000
0.001054 -0.005288 0.000000
0.009173 -0.022000 0.000000
0.010299 -0.018844 0.000000
0.010079 -0.006025 0.000000
0.009560 -0.021114 0.000000
0.009097 -0.022198 0.000000
0.006732 -0.020432 0.000000
0.011067 -0.005157 0.000000
0.010313 -0.014976 0.000000
0.007204 -0.026200 0.000000
0.009330 -0.021590 0.000000
0.007659 -0.000915 0.000000
0.009251 -0.021797 0.000000
0.010233 -0.015560 0.000000
0.006650 -0.020426 0.000000
0.007269 -0.022505 0.000000
0.005780 -0.024435 0.000000
0.009752 -0.005635 0.000000
0.006568 -0.020419 0.000000
0.009180 -0.023195 0.000000
0.006454 -0.021275 0.000000
0.009410 -0.021379 0.000000
0.005696 -0.023876 0.000000
0.006538 -0.020640 0.000000
0.006932 -0.026562 0.000000
0.006508 -0.020856 0.000000
0.009832 -0.020262 0.000000
0.003549 -0.019412 0.000000
0.006430 -0.020847 0.000000
0.010100 -0.019544 0.000000
0.009888 -0.005629 0.000000
0.010206 -0.019098 0.000000
0.009659 -0.020721 0.000000
0.007230 -0.026194 0.000000
0.010114 -0.019349 0.000000
0.008917 -0.000912 0.000000
0.009745 -0.020494 0.000000
0.010243 -0.005204 0.000000
0.005807 -0.024520 0.000000
0.006429 -0.021478 0.000000
0.008497 -0.000913 0.000000
0.008637 -0.000913 0.000000
0.011201 -0.016139 0.000000
0.009644 -0.020895 0.000000
0.007589 -0.001367 0.000000
0.010285 -0.014406 0.000000
0.010009 -0.019788 0.000000
0.011098 -0.016432 0.000000
0.006919 -0.026543 0.000000
0.005934 -0.024777 0.000000
0.006967 -0.026620 0.000000
0.006355 -0.021466 0.000000
0.005871 -0.024651 0.000000
0.010161 -0.005616 0.000000
0.006955 -0.026603 0.000000
0.011420 -0.015295 0.000000
0.009920 -0.020027 0.000000
0.005970 -0.024824 0.000000
0.010586 -0.018055 0.000000
0.006384 -0.021870 0.000000
0.007003 -0.026662 0.000000
0.010572 -0.018267 0.000000
0.007256 -0.026186 0.000000
0.005445 -0.023344 0.000000
0.006979 -0.026636 0.000000
0.006364 -0.022059 0.000000
0.011641 -0.014419 0.000000
0.011534 -0.014733 0.000000
0.011526 -0.014987 0.000000
0.011410 -0.015541 0.000000
0.003448 -0.019165 0.000000
0.008078 -0.000914 0.000000
0.010485 -0.014056 0.000000
0.010598 -0.017839 0.000000
0.010475 -0.018530 0.000000
0.008357 -0.000914 0.000000
0.009616 -0.005640 0.000000
0.003343 -0.018907 0.000000
0.010696 -0.017566 0.000000
0.008777 -0.000912 0.000000
0.011857 -0.013780 0.000000
0.006263 -0.000915 0.000000
0.006294 -0.022045 0.000000
0.006333 -0.000459 0.000000
0.010300 -0.014694 0.000000
0.007333 -0.026153 0.000000
0.008288 -0.000459 0.000000
0.007333 -0.026214 0.000000
0.011748 -0.014101 0.000000
0.011305 -0.015842 0.000000
0.006991 -0.026650 0.000000
0.005938 -0.024618 0.000000
0.010795 -0.017288 0.000000
0.007101 -0.000915 0.000000
0.006961 -0.000915 0.000000
0.011004 -0.013306 0.000000
0.007282 -0.026176 0.000000
0.007240 -0.000915 0.000000
0.008325 -0.024703 0.000000
0.010579 -0.013732 0.000000
0.007938 -0.000915 0.000000
0.011103 -0.012974 0.000000
0.010895 -0.017006 0.000000
0.006999 -0.026636 0.000000
0.007310 -0.001367 0.000000
0.009222 -0.023119 0.000000
0.007308 -0.026165 0.000000
0.007798 -0.000915 0.000000
0.007011 -0.026615 0.000000
0.011091 -0.012673 0.000000
0.009479 -0.005645 0.000000
0.012091 -0.008795 0.000000
0.007357 -0.026199 0.000000
0.010996 -0.016721 0.000000
0.006997 -0.026605 0.000000
0.007449 -0.001367 0.000000
0.011077 -0.012368 0.000000
0.006822 -0.000915 0.000000
0.011176 -0.012025 0.000000
0.007328 -0.026322 0.000000
0.006682 -0.000915 0.000000
0.008648 -0.006484 0.000000
0.007026 -0.026655 0.000000
0.011276 -0.011680 0.000000
0.006473 -0.000459 0.000000
0.009343 -0.005650 0.000000
0.006543 -0.000915 0.000000
0.007040 -0.026662 0.000000
0.008197 -0.024842 0.000000
0.008588 -0.006080 0.000000
0.006124 -0.000914 0.000000
0.012215 -0.008762 0.000000
0.005984 -0.000914 0.000000
0.003521 -0.000452 0.000000
0.011680 -0.010263 0.000000
0.004510 -0.000456 0.000000
0.011578 -0.010622 0.000000
0.005844 -0.000914 0.000000
0.007053 -0.026668 0.000000
0.005704 -0.000913 0.000000
0.011477 -0.010978 0.000000
0.003452 -0.000901 0.000000
0.011782 -0.009901 0.000000
0.011376 -0.011331 0.000000
0.005564 -0.000913 0.000000
0.009207 -0.005654 0.000000
0.005284 -0.000912 0.000000
0.012578 -0.006529 0.000000
0.001880 -0.000881 0.000000
0.007067 -0.026673 0.000000
0.005144 -0.000911 0.000000
0.005004 -0.000911 0.000000
0.005424 -0.000912 0.000000
0.004863 -0.000910 0.000000
0.001948 -0.000443 0.000000
0.004723 -0.000909 0.000000
0.001814 -0.001314 0.000000
0.002092 -0.000444 0.000000
0.002167 -0.000886 0.000000
0.009071 -0.005658 0.000000
0.004651 -0.000456 0.000000
0.011885 -0.009535 0.000000
0.007080 -0.026676 0.000000
0.004441 -0.000908 0.000000
0.002597 -0.000892 0.000000
0.012881 -0.005343 0.000000
0.002311 -0.000888 0.000000
0.011988 -0.009167 0.000000
0.013015 -0.005317 0.000000
0.003877 -0.000904 0.000000
0.004159 -0.000906 0.000000
0.004301 -0.000907 0.000000
0.002666 -0.000448 0.000000
0.007094 -0.026677 0.000000
0.004018 -0.000905 0.000000
0.003025 -0.000897 0.000000
0.002454 -0.000890 0.000000
0.008994 -0.006069 0.000000
0.013178 -0.004135 0.000000
0.002809 -0.000449 0.000000
0.003168 -0.000898 0.000000
0.007108 -0.026677 0.000000
0.003735 -0.000903 0.000000
0.013314 -0.004112 0.000000
0.002883 -0.000895 0.000000
0.012319 -0.008388 0.000000
0.003663 -0.000453 0.000000
0.007121 -0.026676 0.000000
0.008859 -0.006073 0.000000
0.007135 -0.026673 0.000000
0.003384 -0.001345 0.000000
0.012297 -0.008042 0.000000
0.007148 -0.026668 0.000000
0.003242 -0.001343 0.000000
0.000583 -0.000847 0.000000
0.007160 -0.026630 0.000000
0.007175 -0.026623 0.000000
0.012503 -0.007277 0.000000
0.001592 -0.000875 0.000000
0.008783 -0.006481 0.000000
0.000361 -0.000418 0.000000
0.000649 -0.000427 0.000000
0.012477 -0.006919 0.000000
0.012400 -0.007661 0.000000
0.007175 -0.026655 0.000000
0.012709 -0.006501 0.000000
0.000439 -0.000837 0.000000
0.001670 -0.001310 0.000000
0.007174 -0.026683 0.000000
0.007214 -0.026655 0.000000
0.012811 -0.006109 0.000000
0.012781 -0.005741 0.000000
0.007186 -0.026673 0.000000
0.007210 -0.026650 0.000000
0.001448 -0.000872 0.000000
0.007198 -0.026662 0.000000
0.007229 -0.026611 0.000000
0.001304 -0.000869 0.000000
0.000793 -0.000429 0.000000
0.007242 -0.026596 0.000000
0.013115 -0.004917 0.000000
0.013080 -0.004540 0.000000
0.001015 -0.000861 0.000000
0.007256 -0.026580 0.000000
0.001159 -0.000865 0.000000
0.007246 -0.026603 0.000000
0.013412 -0.003706 0.000000
0.000871 -0.000857 0.000000
0.013508 -0.003298 0.000000
0.013604 -0.002890 0.000000
0.013558 -0.002497 0.000000
0.013541 -0.005197 0.000000
0.013563 -0.005575 0.000000
0.008746 -0.023858 0.000000
0.000766 -0.007727 0.000000
0.013170 -0.007758 0.000000
0.000575 -0.004394 0.000000
0.003401 -0.019350 0.000000
0.004983 -0.023125 0.000000
0.002175 -0.014437 0.000000
0.010070 -0.021227 0.000000
0.001425 -0.011528 0.000000
0.000222 -0.000397 0.000000
0.006977 -0.025018 0.000000
0.013981 -0.000396 0.000000
0.007218 -0.025015 0.000000
0.012974 -0.010469 0.000000
0.006374 -0.024882 0.000000
0.007361 -0.025185 0.000000
0.006315 -0.024725 0.000000
0.013056 -0.008143 0.000000
0.012947 -0.008519 0.000000
0.013087 -0.009080 0.000000
0.010475 -0.020287 0.000000
0.006300 -0.024804 0.000000
0.007281 -0.025170 0.000000
0.010227 -0.020882 0.000000
0.013578 -0.005931 0.000000
0.002203 -0.014837 0.000000
0.000528 -0.003645 0.000000
0.010394 -0.020511 0.000000
0.006897 -0.025015 0.000000
0.000339 -0.002813 0.000000
0.009840 -0.021842 0.000000
0.004358 -0.021836 0.000000
0.012369 -0.013193 0.000000
0.001833 -0.013191 0.000000
0.011850 -0.015466 0.000000
0.002349 -0.015463 0.000000
0.003815 -0.020453 0.000000
0.000625 -0.005896 0.000000
0.008370 -0.024355 0.000000
0.007836 -0.024814 0.000000
0.008898 -0.023661 0.000000
0.005294 -0.023647 0.000000
0.001012 -0.008712 0.000000
0.010928 -0.018830 0.000000
0.003284 -0.018873 0.000000
0.002879 -0.017494 0.000000
0.013863 -0.002831 0.000000
0.001353 -0.010739 0.000000
0.004937 -0.023035 0.000000
0.009299 -0.022977 0.000000
0.006749 -0.024986 0.000000
0.013073 -0.008783 0.000000
0.012906 -0.010853 0.000000
0.009445 -0.022693 0.000000
0.004757 -0.022695 0.000000
0.012726 -0.011401 0.000000
0.007439 -0.024991 0.000000
0.011464 -0.016970 0.000000
0.002737 -0.016975 0.000000
0.010782 -0.019291 0.000000
0.001347 -0.011186 0.000000
0.005452 -0.023880 0.000000
0.007990 -0.024707 0.000000
0.006220 -0.024713 0.000000
0.003320 -0.019120 0.000000
0.013795 -0.003674 0.000000
0.000821 -0.008121 0.000000
0.009983 -0.021500 0.000000
0.004214 -0.021492 0.000000
0.011322 -0.017494 0.000000
0.008824 -0.023747 0.000000
0.012230 -0.013821 0.000000
0.001973 -0.013822 0.000000
0.013384 -0.008068 0.000000
0.011986 -0.014888 0.000000
0.003963 -0.020852 0.000000
0.000545 -0.005110 0.000000
0.008228 -0.024505 0.000000
0.008510 -0.024198 0.000000
0.005692 -0.024198 0.000000
0.013772 -0.005190 0.000000
0.000730 -0.006676 0.000000
0.010526 -0.020053 0.000000
0.003676 -0.020054 0.000000
0.002493 -0.016026 0.000000
0.011823 -0.015853 0.000000
0.005973 -0.024503 0.000000
0.012492 -0.012571 0.000000
0.001709 -0.012567 0.000000
0.004505 -0.022166 0.000000
0.007733 -0.024806 0.000000
0.006470 -0.024806 0.000000
0.005141 -0.023386 0.000000
0.013195 -0.009301 0.000000
0.011121 -0.018367 0.000000
0.007169 -0.026708 0.000000
0.007143 -0.026756 0.000000
0.007119 -0.026805 0.000000
0.007079 -0.026798 0.000000
0.007069 -0.026780 0.000000
0.007025 -0.026607 0.000000
0.007160 -0.026567 0.000000
0.007023 -0.026571 0.000000
0.006975 -0.025994 0.000000
0.006989 -0.026228 0.000000
0.006998 -0.026349 0.000000
0.007182 -0.026211 0.000000
0.007195 -0.025811 0.000000
0.007208 -0.025224 0.000000
0.007188 -0.026073 0.000000
0.007109 -0.026817 0.000000
0.007087 -0.026805 0.000000
0.007071 -0.026768 0.000000
0.007039 -0.026538 0.000000
0.007019 -0.026653 0.000000
0.007017 -0.026167 0.000000
0.007024 -0.026295 0.000000
0.007009 -0.025921 0.000000
0.007198 -0.026650 0.000000
0.007165 -0.026671 0.000000
0.007218 -0.026139 0.000000
0.007232 -0.025889 0.000000
0.007175 -0.026602 0.000000
0.007209 -0.026270 0.000000
0.007251 -0.025337 0.000000
0.009219 -0.023121 0.000000
0.003136 -0.018371 0.000000
0.003025 -0.017993 0.000000
0.000118 -0.001193 0.000000
0.014083 -0.001194 0.000000
0.009617 -0.022364 0.000000
0.004587 -0.022368 0.000000
0.006620 -0.024873 0.000000
0.012969 -0.010031 0.000000
0.013504 -0.007304 0.000000
0.013861 -0.004346 0.000000
0.004032 -0.021104 0.000000
0.001134 -0.010047 0.000000
0.012594 -0.012055 0.000000
0.001604 -0.012038 0.000000
0.009773 -0.022033 0.000000
0.002603 -0.016452 0.000000
0.010638 -0.019725 0.000000
0.003564 -0.019726 0.000000
0.000815 -0.007304 0.000000
0.008626 -0.024052 0.000000
0.005575 -0.024052 0.000000
0.008111 -0.024613 0.000000
0.006090 -0.024613 0.000000
0.012103 -0.014388 0.000000
0.014040 -0.002087 0.000000
0.000163 -0.002072 0.000000
0.009063 -0.023382 0.000000
0.001006 -0.009310 0.000000
0.007138 -0.026769 0.000000
0.007163 -0.026725 0.000000
0.007133 -0.026780 0.000000
0.007129 -0.026790 0.000000
0.007124 -0.026798 0.000000
0.007105 -0.026816 0.000000
0.007101 -0.026816 0.000000
0.007096 -0.026816 0.000000
0.007078 -0.026798 0.000000
0.007073 -0.026790 0.000000
0.007055 -0.026742 0.000000
0.007046 -0.026710 0.000000
0.007051 -0.026727 0.000000
0.007042 -0.026691 0.000000
0.007012 -0.026630 0.000000
0.006938 -0.025123 0.000000
0.006940 -0.025196 0.000000
0.007010 -0.026488 0.000000
0.006962 -0.025778 0.000000
0.006942 -0.025267 0.000000
0.006945 -0.025337 0.000000
0.006959 -0.025720 0.000000
0.006964 -0.025835 0.000000
0.007007 -0.026456 0.000000
0.006957 -0.025661 0.000000
0.007003 -0.026422 0.000000
0.006947 -0.025405 0.000000
0.006976 -0.026044 0.000000
0.006978 -0.026093 0.000000
0.007001 -0.026386 0.000000
0.006950 -0.025471 0.000000
0.006954 -0.025599 0.000000
0.006952 -0.025536 0.000000
0.007194 -0.026669 0.000000
0.007168 -0.026650 0.000000
0.007171 -0.026627 0.000000
0.007229 -0.025995 0.000000
0.007231 -0.025943 0.000000
0.007242 -0.025720 0.000000
0.007187 -0.026519 0.000000
0.007205 -0.026349 0.000000
0.007195 -0.026456 0.000000
0.007191 -0.026488 0.000000
0.007202 -0.026386 0.000000
0.007198 -0.026422 0.000000
0.007245 -0.025660 0.000000
0.007208 -0.026310 0.000000
0.007250 -0.025536 0.000000
0.007247 -0.025599 0.000000
0.007252 -0.025471 0.000000
0.007253 -0.025404 0.000000
0.011281 -0.017839 0.000000
0.007110 -0.026813 0.000000
0.007091 -0.026813 0.000000
0.007059 -0.026756 0.000000
0.007038 -0.026671 0.000000
0.007157 -0.026740 0.000000
0.007014 -0.026519 0.000000
0.006967 -0.025890 0.000000
0.006981 -0.026140 0.000000
0.007113 -0.026812 0.000000
0.006992 -0.026269 0.000000
0.007158 -0.026593 0.000000
0.007082 -0.026804 0.000000
0.007075 -0.026780 0.000000
0.007193 -0.025866 0.000000
0.007180 -0.026253 0.000000
0.007185 -0.026120 0.000000
0.007043 -0.026567 0.000000
0.007199 -0.025306 0.000000
0.007008 -0.026607 0.000000
0.007020 -0.026210 0.000000
0.007011 -0.025973 0.000000
0.007187 -0.026687 0.000000
0.007025 -0.026334 0.000000
0.007184 -0.026548 0.000000
0.007215 -0.026184 0.000000
0.007240 -0.025778 0.000000
0.007226 -0.026045 0.000000
0.013605 -0.006537 0.000000
0.005830 -0.024351 0.000000
0.007579 -0.024870 0.000000
0.005044 -0.023234 0.000000
0.011673 -0.016438 0.000000
0.014095 -0.000349 0.000000
0.007210 -0.024956 0.000000
0.000107 -0.000349 0.000000
0.006992 -0.024957 0.000000
0.000474 -0.004494 0.000000
0.007380 -0.024989 0.000000
0.002069 -0.014278 0.000000
0.010148 -0.021038 0.000000
0.002222 -0.014708 0.000000
0.010097 -0.021222 0.000000
0.013301 -0.008627 0.000000
0.000517 -0.003995 0.000000
0.006289 -0.024746 0.000000
0.004983 -0.023125 0.000000
0.006937 -0.025065 0.000000
0.008836 -0.023746 0.000000
0.000917 -0.008322 0.000000
0.013678 -0.005957 0.000000
0.003328 -0.019055 0.000000
0.001382 -0.011062 0.000000
0.005512 -0.023956 0.000000
0.006142 -0.024638 0.000000
0.008065 -0.024634 0.000000
0.008696 -0.023947 0.000000
0.000822 -0.007612 0.000000

CELL_DATA 23252
SCALARS strain_e11 float 1
LOOKUP_TABLE default
0.007096
0.000438
0.008650
0.007102
0.013604
0.009860
0.010791
0.007013
0.007010
0.010794
0.012841
0.009139
0.008740
0.000287
0.009739
0.000213
0.010733
0.010728
0.008117
0.011281
0.007635
0.005302
0.001290
0.001305
0.005289
0.010346
0.010346
0.003590
0.009117
0.006611
0.003712
0.011176
0.012607
0.002648
0.002644
0.011826
0.002366
0.012835
0.009027
0.005566
0.011382
0.006337
0.009377
0.009380
0.010095
0.010093
0.006611
0.005565
0.012919
0.000634
0.007628
0.013467
0.013631
0.001567
0.011754
0.003438
0.007370
0.008385
0.004510
0.004510
0.000473
0.008040
0.000161
0.007725
0.006333
0.000304
0.008397
0.004666
0.004242
0.013732
0.002505
0.011037
0.014192
0.014194
0.008637
0.000305
0.006257
0.005189
0.004772
0.008398
0.009460
0.001175
0.001174
0.005205
0.010436
0.010435
0.005566
0.003823
0.011632
0.009049
0.013568
0.002364
0.002366
0.006694
0.006692
0.012190
0.013638
0.013570
0.008140
0.004436
0.012592
0.002730
0.002732
0.007737
0.013311
0.002279
0.000050
0.013785
0.012959
0.000300
0.005828
0.006257
0.011225
0.009458
0.003686
0.000735
0.011710
0.006078
0.011801
0.004123
0.010038
0.010035
0.000733
0.005643
0.004762
0.000737
0.013083
0.000566
0.000568
0.000400
0.000382
0.013492
0.001638
0.000400
0.002641
0.002505
0.014024
0.014026
0.003559
0.003367
0.012426
0.000160
0.008020
0.011140
0.011109
0.011843
0.007303
0.001308
0.008461
0.000383
0.004895
0.010996
0.000629
0.004583
0.004580
0.009623
0.000732
0.005037
0.000873
0.005038
0.000550
0.013984
0.013976
0.000870
0.001022
0.004437
0.012197
0.003976
0.002105
0.002105
0.006475
0.011169
0.006389
0.011521
0.005429
0.007437
0.002904
0.002905
0.004659
0.008767
0.013092
0.012435
0.008887
0.007886
0.012863
0.003506
0.011768
0.013983
0.001016
0.011894
0.005119
0.007886
0.006558
0.001497
0.008326
0.013676
0.012278
0.006856
0.006856
0.011530
0.003960
0.008891
0.011521
0.003975
0.000594
0.001016
0.001022
0.013989
0.005504
0.012221
0.000458
0.010586
0.010589
0.000305
0.000737
0.010160
0.010160
0.013604
0.011261
0.008750
0.005037
0.000873
0.013155
0.010854
0.008888
0.009331
0.009332
0.007149
0.008767
0.006395
0.009737
0.012431
0.000458
0.011530
0.005951
0.014242
0.014242
0.012844
0.007884
0.002420
0.006214
0.007884
0.000595
0.008026
0.009508
0.002589
0.008258
0.012698
0.003154
0.001993
0.001989
0.003203
0.002593
0.011937
0.005951
0.012216
0.008148
0.006472
0.003025
0.003017
0.012180
0.006558
0.008149
0.011156
0.009146
0.009175
0.000317
0.000459
0.000675
0.000570
0.000454
0.000534
0.000333
0.000274
0.000453
0.000263
0.000230
0.000399
0.000421
0.000290
0.000146
0.000201
0.000178
0.000264
0.000337
0.000352
0.000163
0.000136
0.000119
0.000184
0.000272
0.000305
0.012300
0.010587
0.010590
0.001014
0.011947
0.008892
0.000150
0.013149
0.006856
0.006856
0.010312
0.010311
0.000139
0.005308
0.005340
0.000232
0.012440
0.006961
0.006959
0.002904
0.002904
0.013445
0.002105
0.011655
0.011658
0.008783
0.013092
0.006079
0.003844
0.003844
0.001295
0.009624
0.012080
0.008277
0.003706
0.008027
0.007893
0.009866
0.009885
0.012274
0.005804
0.005826
0.014017
0.007624
0.007588
0.013328
0.008171
0.004343
0.010669
0.010676
0.004245
0.002105
0.007148
0.008635
0.008607
0.004769
0.010851
0.012112
0.013858
0.000290
0.000146
0.000201
0.000177
0.000264
0.000337
0.000352
0.000163
0.000125
0.000136
0.000184
0.000272
0.000305
0.013848
0.000316
0.000672
0.000534
0.000459
0.000570
0.000454
0.000333
0.000274
0.000453
0.000262
0.000229
0.000398
0.000423
0.013914
0.000873
0.014088
0.005805
0.009883
0.005169
0.005170
0.011751
0.013086
0.008019
0.008277
0.008398
0.003705
0.014025
0.013010
0.003960
0.004899
0.000240
0.004276
0.011405
0.000591
0.012121
0.013937
0.000873
0.004359
0.004203
0.014007
0.014003
0.007982
0.013874
0.000548
0.000541
0.001559
0.000590
0.008020
0.000227
0.012572
0.012572
0.001797
0.001795
0.011975
0.012029
0.000732
0.007778
0.000164
0.012643
0.000460
0.013764
0.011979
0.008523
0.000461
0.013948
0.000308
0.000308
0.013770
0.013721
0.013776
0.000930
0.013727
0.002932
0.013783
0.013596
0.001746
0.013733
0.003711
0.014445
0.013658
0.003711
0.003575
0.002023
0.003196
0.013790
0.001888
0.013658
0.002026
0.005041
0.002918
0.001890
0.003182
0.002657
0.005041
0.013716
0.013740
0.002156
0.003443
0.003310
0.003191
0.004803
0.002029
0.013716
0.005067
0.013113
0.001885
0.003047
0.001893
0.003059
0.014081
0.008916
0.013798
0.002516
0.005318
0.003844
0.001885
0.008916
0.006008
0.004923
0.002031
0.008816
0.014186
0.003050
0.004260
0.002657
0.003445
0.003711
0.004393
0.003575
0.004909
0.005867
0.001895
0.005848
0.004393
0.002033
0.013747
0.003182
0.002016
0.005857
0.011056
0.004526
0.005867
0.004526
0.006004
0.006742
0.005038
0.004659
0.006887
0.008816
0.001897
0.006306
0.001881
0.006306
0.003064
0.003577
0.003047
0.006451
0.003310
0.004773
0.006451
0.004935
0.003064
0.008739
0.006160
0.005199
0.011504
0.006597
0.003315
0.013806
0.005129
0.005149
0.005279
0.002034
0.005149
0.011326
0.002914
0.004987
0.005171
0.011426
0.005720
0.008599
0.004651
0.001196
0.005694
0.005694
0.005835
0.005140
0.001898
0.003179
0.005646
0.001695
0.008739
0.011463
0.005137
0.005835
0.006742
0.003974
0.005861
0.011285
0.010992
0.005995
0.004283
0.013467
0.005055
0.002335
0.005282
0.008900
0.000541
0.005431
0.002794
0.005280
0.003054
0.004686
0.005287
0.010844
0.004935
0.010292
0.003177
0.005433
0.004570
0.005615
0.006000
0.011363
0.006142
0.001881
0.002195
0.002035
0.010265
0.004837
0.003312
0.012605
0.004826
0.002876
0.010148
0.013741
0.006013
0.013754
0.006594
0.010418
0.007561
0.011025
0.004570
0.005280
0.005646
0.004427
0.005740
0.007700
0.009034
0.007906
0.003459
0.006816
0.010876
0.004983
0.003445
0.013656
0.002250
0.006835
0.012003
0.004532
0.004426
0.004283
0.004540
0.006742
0.008480
0.005727
0.006159
0.004909
0.008761
0.010126
0.004651
0.013633
0.006308
0.005899
0.004808
0.008619
0.008051
0.005899
0.010671
0.010155
0.010001
0.002250
0.004424
0.005577
0.000565
0.008599
0.013764
0.002379
0.010887
0.006816
0.004983
0.000700
0.006956
0.006676
0.003323
0.006036
0.011595
0.003823
0.011734
0.005019
0.005720
0.004691
0.001899
0.006705
0.005718
0.013812
0.008018
0.000708
0.004568
0.005811
0.013642
0.011869
0.004402
0.000861
0.004117
0.002292
0.013705
0.004532
0.005574
0.004282
0.006172
0.002118
0.011734
0.000714
0.006615
0.002246
0.000581
0.005031
0.013531
0.014186
0.006159
0.008798
0.006036
0.005571
0.010183
0.012920
0.004137
0.006172
0.014193
0.002118
0.001061
0.006305
0.003459
0.013633
0.005186
0.003596
0.013020
0.011849
0.007438
0.002932
0.009825
0.013814
0.003823
0.008480
0.007139
0.004773
0.004644
0.001980
0.000409
0.000577
0.013117
0.003997
0.004832
0.004093
0.006597
0.004678
0.003833
0.008341
0.005888
0.003860
0.006695
0.013568
0.011031
0.013807
0.011869
0.011572
0.002432
0.004420
0.004276
0.004117
0.011522
0.007001
0.003443
0.010001
0.011663
0.005397
0.005714
0.006414
0.010321
0.008403
0.005564
0.006429
0.008933
0.003723
0.000560
0.000560
0.004680
0.003591
0.005289
0.003860
0.011711
0.005706
0.014336
0.005199
0.005331
0.003997
0.003693
0.006015
0.005289
0.006429
0.002602
0.003949
0.004128
0.004837
0.005875
0.011176
0.012668
0.006013
0.014152
0.006753
0.003841
0.000424
0.002379
0.004068
0.004777
0.008996
0.012898
0.000597
0.005162
0.005145
0.005145
0.006615
0.005572
0.007001
0.006563
0.003860
0.004402
0.003837
0.005710
0.007423
0.005559
0.006831
0.006414
0.006272
0.010148
0.013758
0.002308
0.004540
0.002742
0.014152
0.006563
0.005700
0.006272
0.005553
0.013716
0.008425
0.013681
0.005001
0.001457
0.006888
0.006697
0.008569
0.003997
0.013658
0.000604
0.012987
0.011404
0.000754
0.004278
0.013678
0.005868
0.011343
0.000680
0.003681
0.005592
0.006131
0.006697
0.002036
0.012910
0.008546
0.012748
0.000680
0.003328
0.002785
0.011480
0.005976
0.003697
0.005989
0.005615
0.013444
0.005568
0.009970
0.013796
0.006308
0.013596
0.014105
0.001453
0.010598
0.007275
0.007300
0.005853
0.013972
0.013781
0.003600
0.005133
0.003723
0.010455
0.003054
0.004396
0.005517
0.011459
0.013353
0.013226
0.012920
0.012898
0.011031
0.011632
0.004254
0.013596
0.013902
0.005133
0.004426
0.013160
0.001695
0.014253
0.013702
0.003017
0.001980
0.013854
0.004125
0.011324
0.004427
0.001954
0.005995
0.011324
0.003591
0.000541
0.003681
0.004559
0.013690
0.013067
0.011521
0.011097
0.008698
0.006000
0.013697
0.002469
0.000889
0.007814
0.014093
0.010262
0.011477
0.011667
0.002246
0.010592
0.012692
0.013272
0.006594
0.004128
0.004093
0.013570
0.006429
0.003554
0.008856
0.013902
0.002794
0.005669
0.004165
0.000347
0.001833
0.006414
0.006280
0.003927
0.005285
0.006695
0.003697
0.011437
0.003460
0.010213
0.007139
0.009792
0.011997
0.003328
0.006872
0.013758
0.004427
0.002195
0.012536
0.012674
0.012920
0.012463
0.006831
0.009855
0.006014
0.009773
0.009797
0.011221
0.004657
0.004427
0.013944
0.008910
0.011201
0.000484
0.003844
0.006565
0.013053
0.002037
0.011335
0.005410
0.013775
0.007207
0.004782
0.003701
0.004579
0.002448
0.008996
0.004128
0.004031
0.006846
0.005681
0.012227
0.005751
0.008765
0.011445
0.006554
0.003530
0.012200
0.002288
0.011316
0.006872
0.001101
0.008765
0.000820
0.003596
0.002506
0.014336
0.013613
0.001861
0.001710
0.002288
0.006487
0.005864
0.003711
0.001595
0.013835
0.008642
0.004402
0.002918
0.004140
0.012004
0.004396
0.014005
0.013768
0.010850
0.002088
0.008648
0.011303
0.010195
0.003530
0.005821
0.012605
0.000736
0.014052
0.006498
0.000349
0.013535
0.004526
0.003743
0.010069
0.003359
0.011836
0.013563
0.011225
0.002907
0.013398
0.011516
0.013402
0.006676
0.012463
0.013812
0.012586
0.013761
0.005508
0.012310
0.011465
0.004281
0.003728
0.006175
0.005539
0.006015
0.004278
0.006712
0.006536
0.004427
0.002335
0.008615
0.006301
0.003998
0.007627
0.012310
0.003673
0.007423
0.001900
0.006956
0.000721
0.006487
0.011097
0.001344
0.006429
0.012200
0.008046
0.010034
0.009990
0.014270
0.002138
0.006554
0.002805
0.005374
0.000814
0.011404
0.001899
0.013070
0.010908
0.006578
0.005285
0.007606
0.005162
0.006738
0.013993
0.003050
0.004579
0.000721
0.010478
0.002062
0.007814
0.003949
0.003460
0.013729
0.008100
0.008738
0.005656
0.005784
0.003291
0.007692
0.014253
0.009537
0.001298
0.013324
0.014038
0.000968
0.007382
0.007480
0.005047
0.006370
0.011601
0.011538
0.000736
0.012674
0.013744
0.001954
0.010342
0.014050
0.012374
0.007296
0.010042
0.013764
0.013572
0.004405
0.006952
0.005106
0.005027
0.002609
0.006980
0.010817
0.001577
0.013479
0.002387
0.003997
0.007275
0.009422
0.004540
0.007393
0.009773
0.006975
0.009513
0.014375
0.007690
0.011754
0.007051
0.013197
0.004978
0.006118
0.006927
0.013642
0.013283
0.012227
0.013283
0.002000
0.006443
0.001313
0.004378
0.007831
0.005478
0.005119
0.012868
0.014389
0.006952
0.004844
0.007752
0.013144
0.007460
0.013125
0.003740
0.013811
0.013378
0.011864
0.013444
0.008341
0.000728
0.013378
0.013764
0.005868
0.013753
0.012096
0.013174
0.005066
0.004032
0.009422
0.004156
0.013479
0.011201
0.006980
0.013996
0.004891
0.011038
0.009184
0.005027
0.000736
0.010598
0.001835
0.005695
0.013958
0.002088
0.011151
0.014093
0.004278
0.004647
0.000558
0.014295
0.005397
0.014056
0.008202
0.003689
0.003546
0.008523
0.006610
0.004960
0.012486
0.006727
0.005268
0.011538
0.007585
0.007430
0.011337
0.002033
0.001728
0.002037
0.002276
0.006041
0.003977
0.001843
0.001159
0.010164
0.011774
0.002773
0.001222
0.006169
0.007079
0.014038
0.004012
0.006266
0.001019
0.009771
0.002387
0.013753
0.014038
0.012089
0.007819
0.013498
0.006865
0.013805
0.006423
0.003689
0.011983
0.000487
0.004256
0.000820
0.007191
0.006324
0.013919
0.010966
0.011598
0.010034
0.005727
0.009279
0.009920
0.012386
0.010724
0.002107
0.000484
0.006157
0.004888
0.013065
0.005572
0.004278
0.005116
0.002301
0.003955
0.006610
0.001167
0.010262
0.002409
0.008718
0.014065
0.012829
0.007130
0.002434
0.013693
0.006943
0.005084
0.010042
0.011717
0.013710
0.001029
0.013985
0.004521
0.001855
0.004663
0.004966
0.013871
0.013708
0.013323
0.004803
0.006160
0.008738
0.003844
0.006028
0.004281
0.004414
0.006823
0.004686
0.003145
0.006592
0.014193
0.014297
0.006011
0.000814
0.006366
0.013637
0.010478
0.013356
0.001847
0.011754
0.004678
0.013225
0.011869
0.011983
0.001108
0.002415
0.010098
0.011374
0.010307
0.000743
0.002062
0.013572
0.008468
0.010705
0.009069
0.013968
0.004901
0.004417
0.014297
0.000561
0.009938
0.004022
0.013761
0.007027
0.013659
0.011369
0.006891
0.011691
0.010705
0.014105
0.012319
0.002469
0.005113
0.013117
0.006452
0.001413
0.012538
0.006131
0.005664
0.000875
0.011595
0.003609
0.014056
0.006736
0.000681
0.001050
0.013168
0.007218
0.007068
0.011274
0.002775
0.013927
0.010724
0.010992
0.008781
0.009321
0.008228
0.010992
0.004217
0.008615
0.002602
0.007681
0.001388
0.012586
0.013656
0.011780
0.013320
0.008327
0.012829
0.004945
0.006831
0.005751
0.008100
0.008933
0.014122
0.007546
0.001843
0.009163
0.005488
0.013633
0.001017
0.008026
0.003387
0.007978
0.000875
0.000595
0.004390
0.002362
0.000634
0.005780
0.004269
0.014340
0.004417
0.005092
0.006736
0.004774
0.004857
0.002496
0.005669
0.007055
0.007081
0.004146
0.003609
0.006366
0.003841
0.011638
0.002943
0.012208
0.010132
0.002427
0.009646
0.011869
0.011886
0.000673
0.000728
0.006738
0.011201
0.006609
0.003728
0.000961
0.008196
0.007257
0.006494
0.008220
0.004953
0.002441
0.011039
0.004107
0.005516
0.004395
0.014013
0.012171
0.007081
0.006548
0.004435
0.009422
0.011629
0.002742
0.002295
0.012605
0.011676
0.005869
0.011307
0.005019
0.003871
0.000449
0.006741
0.007945
0.012446
0.003096
0.012871
0.012003
0.013740
0.012812
0.013293
0.014274
0.007205
0.007430
0.005839
0.010455
0.013235
0.005256
0.011593
0.007525
0.005723
0.011187
0.011638
0.004426
0.002026
0.004791
0.006823
0.012950
0.000766
0.004414
0.011407
0.013259
0.011777
0.009878
0.008448
0.002171
0.008202
0.012808
0.014174
0.002943
0.000785
0.011263
0.005563
0.008791
0.001439
0.004269
0.002957
0.004393
0.001710
0.007818
0.013690
0.012693
0.002779
0.001241
0.009797
0.009522
0.003690
0.013979
0.013819
0.013576
0.004128
0.000882
0.002362
0.013732
0.003387
0.001157
0.001223
0.011470
0.005456
0.013629
0.014139
0.005099
0.000620
0.003860
0.011403
0.000609
0.003137
0.004265
0.002228
0.004134
0.011463
0.012450
0.004735
0.014057
0.004891
0.010641
0.004978
0.001313
0.013225
0.004978
0.011354
0.002868
0.011553
0.010777
0.007937
0.011521
0.002171
0.003191
0.004032
0.009163
0.007546
0.007760
0.008501
0.007839
0.003312
0.008620
0.002270
0.002118
0.001985
0.013880
0.013238
0.013153
0.011396
0.011287
0.013737
0.003704
0.013846
0.013409
0.002322
0.013773
0.011403
0.013324
0.012281
0.013941
0.013705
0.011338
0.013781
0.013690
0.007296
0.006880
0.005634
0.013229
0.013155
0.011575
0.013450
0.013819
0.013968
0.013320
0.001814
0.012692
0.009920
0.013851
0.005539
0.007423
0.000547
0.001655
0.002000
0.004260
0.009522
0.004405
0.001591
0.004911
0.001728
0.011218
0.013780
0.014017
0.010929
0.011803
0.014027
0.011658
0.001860
0.006626
0.013658
0.000623
0.004271
0.011383
0.011077
0.013493
0.013226
0.013117
0.011548
0.002434
0.008323
0.013409
0.004755
0.010562
0.001158
0.013775
0.003878
0.014307
0.006421
0.011948
0.002883
0.004537
0.003096
0.000458
0.007962
0.007945
0.010213
0.014161
0.005729
0.013541
0.014360
0.013727
0.003054
0.013574
0.008438
0.011263
0.007079
0.001720
0.004857
0.013613
0.008620
0.011484
0.013232
0.007239
0.003227
0.014002
0.013907
0.003323
0.013399
0.000748
0.011001
0.013070
0.008220
0.011431
0.001989
0.005705
0.013814
0.003308
0.013937
0.014198
0.002182
0.011484
0.006265
0.000748
0.003823
0.000961
0.012419
0.008197
0.002383
0.007564
0.004080
0.013570
0.013404
0.005798
0.005516
0.005578
0.001730
0.002912
0.008224
0.008093
0.004546
0.006582
0.006694
0.002308
0.013555
0.008205
0.001436
0.008634
0.011844
0.005525
0.005517
0.004117
0.002228
0.001041
0.005694
0.013186
0.001699
0.003158
0.007500
0.005989
0.003673
0.008140
0.003811
0.010694
0.011148
0.003411
0.008289
0.003455
0.002638
0.010777
0.007616
0.008375
0.009595
0.009395
0.008094
0.000785
0.000416
0.008350
0.009566
0.004996
0.003315
0.008840
0.008289
0.008093
0.013151
0.007818
0.005632
0.007962
0.005592
0.004901
0.002118
0.012769
0.013815
0.008939
0.005250
0.013084
0.008634
0.010780
0.000397
0.003174
0.000881
0.001400
0.014226
0.004590
0.013830
0.005869
0.004832
0.011263
0.001019
0.007006
0.003447
0.011284
0.006694
0.002651
0.011917
0.011565
0.005579
0.014422
0.004265
0.007906
0.011547
0.008988
0.013023
0.013549
0.006059
0.013325
0.006927
0.011956
0.013322
0.001082
0.007211
0.002530
0.010962
0.008026
0.004855
0.002149
0.007916
0.004512
0.012029
0.013240
0.012714
0.005448
0.013874
0.010377
0.004911
0.013729
0.012527
0.013234
0.014053
0.002673
0.012546
0.010384
0.002188
0.004250
0.003477
0.008327
0.012711
0.011233
0.005968
0.011262
0.013737
0.008857
0.012337
0.007901
0.012816
0.011070
0.007700
0.013238
0.008483
0.006443
0.000555
0.013239
0.005383
0.006196
0.010307
0.002957
0.000504
0.009630
0.009566
0.008140
0.007245
0.001847
0.000673
0.010765
0.012659
0.014389
0.009889
0.012115
0.013534
0.005516
0.014130
0.006296
0.002282
0.007081
0.003474
0.013783
0.003681
0.003811
0.001016
0.013327
0.012216
0.011369
0.000751
0.005047
0.014205
0.012910
0.004913
0.013010
0.013155
0.002033
0.014149
0.011541
0.003591
0.006801
0.012865
0.014065
0.014053
0.000884
0.010363
0.008082
0.010694
0.013311
0.001291
0.013074
0.004971
0.010536
0.004905
0.001833
0.013907
0.005353
0.007561
0.014027
0.002462
0.013737
0.000902
0.003851
0.007690
0.012572
0.012419
0.006211
0.004259
0.010396
0.007133
0.003811
0.006266
0.004764
0.013921
0.007079
0.004777
0.004250
0.001573
0.013993
0.001814
0.004072
0.004393
0.012526
0.007130
0.003713
0.004184
0.010891
0.013967
0.007715
0.001447
0.013322
0.013238
0.013125
0.007710
0.012390
0.002595
0.011263
0.011183
0.008785
0.007991
0.008891
0.013323
0.013737
0.009319
0.013238
0.011187
0.000775
0.012717
0.009660
0.002530
0.002175
0.001089
0.008228
0.013229
0.012633
0.012643
0.006113
0.003308
0.001194
0.001595
0.010194
0.009947
0.012819
0.012705
0.001981
0.002310
0.003191
0.000691
0.004670
0.003054
0.003726
0.011248
0.008525
0.001989
0.000948
0.013949
0.013891
0.013326
0.009777
0.012974
0.013319
0.003176
0.013835
0.004254
0.002129
0.014196
0.001971
0.004319
0.013403
0.008051
0.005043
0.001280
0.005433
0.009045
0.006448
0.000748
0.001044
0.007521
0.009645
0.011369
0.009098
0.013398
0.010627
0.012446
0.013154
0.013234
0.001171
0.000817
0.012938
0.004929
0.000820
0.013959
0.014200
0.013871
0.010627
0.005798
0.008521
0.011676
0.012142
0.014001
0.002811
0.013125
0.013023
0.000881
0.000519
0.002496
0.004955
0.001273
0.013957
0.004972
0.007079
0.008333
0.013479
0.007842
0.007192
0.005116
0.012920
0.005825
0.011663
0.013908
0.000528
0.006206
0.010069
0.000621
0.012812
0.000573
0.012004
0.013980
0.004546
0.011676
0.013154
0.013771
0.005184
0.011201
0.011001
0.012895
0.011303
0.011263
0.009938
0.012245
0.011470
0.010739
0.013153
0.001994
0.012768
0.007585
0.012555
0.013747
0.011977
0.012495
0.013971
0.012337
0.013237
0.013233
0.008797
0.010070
0.012089
0.002388
0.004134
0.005383
0.013322
0.013322
0.002392
0.011151
0.006358
0.002036
0.003847
0.008523
0.014245
0.013893
0.012555
0.011336
0.004614
0.000609
0.013054
0.007856
0.009792
0.001577
0.013830
0.012089
0.007793
0.012910
0.005197
0.007061
0.006890
0.011598
0.008763
0.014068
0.003309
0.000763
0.013425
0.006831
0.000581
0.013732
0.010280
0.011871
0.007565
0.001248
0.000728
0.011636
0.006877
0.013775
0.012709
0.003987
0.012355
0.011575
0.013895
0.012319
0.004251
0.013400
0.012498
0.013403
0.008678
0.003609
0.013117
0.004725
0.002657
0.011935
0.013741
0.001082
0.012303
0.012482
0.007006
0.013219
0.012993
0.009573
0.008471
0.000881
0.005709
0.003445
0.013815
0.014039
0.009419
0.011693
0.009065
0.007066
0.012208
0.000987
0.013239
0.013473
0.014149
0.008643
0.013883
0.009459
0.001447
0.012782
0.013957
0.012873
0.012030
0.012458
0.006742
0.005577
0.002235
0.004261
0.014014
0.012371
0.011864
0.003747
0.001567
0.001068
0.012801
0.001902
0.012706
0.005331
0.001175
0.004937
0.003609
0.004920
0.003860
0.004009
0.006947
0.005037
0.013927
0.010070
0.004837
0.004117
0.005662
0.011646
0.010955
0.012419
0.003871
0.007848
0.001309
0.003227
0.011724
0.011603
0.009661
0.002609
0.003955
0.003681
0.003477
0.003345
0.001833
0.007848
0.004362
0.001457
0.007176
0.013908
0.009763
0.004259
0.000780
0.001146
0.000681
0.002907
0.004533
0.010247
0.002392
0.009398
0.001241
0.008049
0.006249
0.001478
0.002908
0.001381
0.008182
0.000948
0.010592
0.007330
0.013226
0.003965
0.007830
0.011344
0.002241
0.009619
0.000892
0.012880
0.006005
0.010925
0.012984
0.013856
0.012096
0.013712
0.001088
0.007381
0.001089
0.011148
0.000195
0.013944
0.002174
0.007835
0.011676
0.013193
0.009215
0.001127
0.011809
0.013895
0.004782
0.001041
0.000771
0.000714
0.004978
0.008224
0.012116
0.006251
0.009624
0.014253
0.013816
0.013449
0.002270
0.007565
0.006880
0.013381
0.002129
0.014057
0.001121
0.012957
0.008094
0.004911
0.011463
0.002264
0.009184
0.002403
0.014051
0.001222
0.002175
0.013918
0.010832
0.012971
0.009947
0.013856
0.011164
0.013125
0.010098
0.011445
0.012974
0.009510
0.012458
0.008891
0.004937
0.002541
0.013658
0.003441
0.011299
0.011474
0.004424
0.012903
0.002922
0.008203
0.001020
0.009646
0.012479
0.007239
0.011572
0.001478
0.013710
0.005648
0.004971
0.013327
0.011977
0.001515
0.001443
0.008678
0.013975
0.000654
0.006011
0.004619
0.012498
0.007440
0.013522
0.013822
0.013883
0.003444
0.012816
0.005084
0.013819
0.003869
0.014170
0.013888
0.008221
0.010979
0.001896
0.002240
0.007690
0.013319
0.000595
0.000981
0.003949
0.002679
0.012227
0.004087
0.011595
0.010274
0.013965
0.014023
0.011331
0.009496
0.008483
0.013449
0.014145
0.001728
0.013479
0.005516
0.012319
0.013233
0.013979
0.008815
0.012693
0.010765
0.009333
0.011143
0.009763
0.013074
0.011263
0.009398
0.013775
0.011595
0.000614
0.012447
0.011329
0.012555
0.004048
0.000566
0.002653
0.004628
0.013744
0.000942
0.007991
0.008375
0.004380
0.003009
0.008739
0.010601
0.005656
0.000618
0.001087
0.007960
0.010242
0.001941
0.000481
0.004425
0.013748
0.012776
0.013739
0.013999
0.013761
0.007710
0.013080
0.011844
0.009321
0.008220
0.001569
0.013783
0.002243
0.012386
0.009115
0.004837
0.009795
0.010375
0.001728
0.011321
0.011431
0.009595
0.008333
0.011040
0.013239
0.012428
0.011553
0.007772
0.001832
0.013656
0.004265
0.013400
0.012547
0.012555
0.012295
0.003717
0.000673
0.013020
0.013895
0.013501
0.000913
0.000811
0.012200
0.009398
0.013705
0.013453
0.013317
0.010044
0.013236
0.001155
0.006877
0.000618
0.012385
0.013949
0.004837
0.007669
0.002042
0.012116
0.004278
0.013739
0.014327
0.009469
0.009450
0.001014
0.002792
0.003647
0.011595
0.005954
0.011447
0.009598
0.014017
0.002541
0.000363
0.007978
0.013744
0.001134
0.001296
0.000868
0.005705
0.013811
0.000336
0.002681
0.008497
0.000780
0.001698
0.013300
0.010421
0.008505
0.006159
0.004757
0.006196
0.000655
0.002728
0.013070
0.013733
0.008051
0.013898
0.012142
0.011723
0.003893
0.004905
0.004271
0.003307
0.009613
0.001273
0.012279
0.005849
0.005857
0.003707
0.004087
0.003928
0.004972
0.006059
0.009448
0.001291
0.004003
0.012585
0.010743
0.004764
0.012973
0.004901
0.005309
0.000987
0.006956
0.013944
0.003735
0.007207
0.013870
0.005478
0.003974
0.003717
0.007041
0.013678
0.011040
0.004209
0.003482
0.012314
0.014224
0.011935
0.006831
0.005720
0.005116
0.004870
0.004670
0.005124
0.001333
0.004192
0.003833
0.009566
0.003359
0.012281
0.007690
0.000906
0.013293
0.003238
0.002195
0.007669
0.011411
0.000345
0.013017
0.002876
0.002037
0.011470
0.013907
0.000824
0.004772
0.008661
0.007842
0.009496
0.009950
0.002270
0.001861
0.001847
0.008182
0.010925
0.006729
0.009441
0.002055
0.005503
0.000820
0.012004
0.010280
0.009070
0.003715
0.008817
0.000942
0.003045
0.013806
0.002505
0.000370
0.005437
0.002639
0.000504
0.009761
0.010342
0.010931
0.002138
0.012171
0.011099
0.000491
0.009506
0.006865
0.006239
0.002673
0.000802
0.001896
0.013768
0.009802
0.007562
0.002026
0.012303
0.009925
0.012377
0.001184
0.011590
0.010834
0.004913
0.013549
0.011825
0.001769
0.010633
0.013514
0.012030
0.007027
0.009184
0.001447
0.005437
0.013493
0.014337
0.010409
0.001164
0.013849
0.001033
0.011344
0.004080
0.005610
0.010699
0.013937
0.013457
0.013737
0.001692
0.004172
0.010702
0.002914
0.002299
0.014171
0.011766
0.014255
0.013452
0.004920
0.006895
0.002173
0.013892
0.012929
0.003974
0.003977
0.004745
0.014035
0.005912
0.008182
0.013907
0.010182
0.014115
0.012962
0.004808
0.013764
0.008561
0.008815
0.011924
0.012295
0.011547
0.014025
0.013472
0.012077
0.003854
0.012479
0.010810
0.010850
0.011073
0.013685
0.007998
0.013308
0.014130
0.012768
0.013070
0.012971
0.012687
0.014014
0.002644
0.009144
0.005798
0.012422
0.013066
0.007562
0.001085
0.005016
0.013092
0.001837
0.000522
0.001899
0.005825
0.012029
0.000639
0.000363
0.001591
0.012032
0.012846
0.002616
0.003345
0.014099
0.013492
0.006043
0.004039
0.013807
0.013815
0.009762
0.012377
0.011313
0.003723
0.013317
0.003082
0.013905
0.004844
0.008869
0.000785
0.008599
0.003196
0.005592
0.004746
0.010838
0.007876
0.013580
0.007190
0.009711
0.010550
0.001355
0.013574
0.008817
0.002235
0.009654
0.007093
0.004231
0.006206
0.002907
0.000474
0.013559
0.013235
0.007098
0.002114
0.001083
0.002525
0.006964
0.009436
0.008128
0.005320
0.009887
0.012402
0.013070
0.013476
0.011723
0.000807
0.009329
0.012186
0.008915
0.011565
0.001037
0.011663
0.007959
0.010478
0.013403
0.011679
0.009448
0.011541
0.010182
0.008676
0.009918
0.011446
0.008979
0.006720
0.011422
0.011983
0.000754
0.008346
0.009051
0.012273
0.014226
0.008333
0.010363
0.012968
0.011834
0.008669
0.010166
0.008703
0.001309
0.003805
0.002947
0.005662
0.008520
0.005104
0.012498
0.004681
0.006905
0.013479
0.001967
0.013963
0.006239
0.004201
0.004637
0.011646
0.003339
0.011744
0.014454
0.013312
0.001795
0.008856
0.009623
0.010817
0.008835
0.009279
0.014025
0.013324
0.008646
0.001443
0.013822
0.005060
0.002029
0.003244
0.007433
0.012310
0.013713
0.012623
0.013319
0.002535
0.014118
0.012245
0.013979
0.013846
0.013453
0.011489
0.013193
0.002100
0.007564
0.012261
0.006182
0.004175
0.012325
0.008448
0.010557
0.012314
0.009272
0.013087
0.003817
0.004609
0.000981
0.002805
0.014269
0.012484
0.009291
0.003707
0.005174
0.012074
0.012402
0.011050
0.001595
0.008082
0.011676
0.013493
0.000785
0.013544
0.012130
0.002107
0.013656
0.001017
0.013423
0.013613
0.013491
0.012365
0.001157
0.005849
0.003244
0.014002
0.007023
0.013930
0.004259
0.005357
0.004755
0.014193
0.009482
0.004499
0.013216
0.012800
0.013310
0.011169
0.013630
0.013771
0.009465
0.009465
0.002520
0.012355
0.001026
0.004097
0.007041
0.005997
0.010166
0.009414
0.009685
0.010219
0.013807
0.012428
0.013153
0.011088
0.014115
0.011547
0.007959
0.003740
0.013309
0.008933
0.014246
0.000604
0.013949
0.013854
0.009715
0.012838
0.003455
0.001020
0.012012
0.014297
0.000894
0.006503
0.000589
0.008992
0.014375
0.004774
0.005234
0.007960
0.010311
0.002134
0.010776
0.004537
0.003122
0.004837
0.006041
0.009187
0.011684
0.008350
0.004888
0.002081
0.004844
0.005592
0.001302
0.004764
0.005383
0.002394
0.007980
0.007715
0.013020
0.008521
0.003089
0.006988
0.008785
0.013685
0.006410
0.000644
0.008809
0.009661
0.012186
0.005702
0.013851
0.005445
0.004312
0.009529
0.001989
0.002235
0.013825
0.005467
0.013999
0.006720
0.004929
0.003743
0.002026
0.001478
0.010396
0.000688
0.007393
0.005016
0.011217
0.004562
0.003575
0.004111
0.001837
0.005702
0.011162
0.003714
0.007093
0.005383
0.007669
0.004782
0.004231
0.003001
0.006865
0.001487
0.011364
0.014130
0.010280
0.002861
0.002720
0.012706
0.011263
0.013492
0.003805
0.008185
0.002818
0.005475
0.002589
0.007177
0.001788
0.007051
0.002811
0.003225
0.005503
0.000823
0.000692
0.011050
0.012227
0.010171
0.009698
0.009469
0.009715
0.010409
0.009244
0.003339
0.001989
0.005076
0.011709
0.005472
0.005610
0.010915
0.006536
0.001860
0.001960
0.001216
0.001076
0.013555
0.011827
0.001971
0.003213
0.002645
0.000796
0.013862
0.007424
0.008717
0.002512
0.009622
0.002308
0.002029
0.003309
0.006230
0.009019
0.009320
0.002269
0.000708
0.001083
0.000680
0.001088
0.000692
0.001085
0.000677
0.008594
0.010611
0.004265
0.009051
0.007304
0.000759
0.003491
0.005245
0.005682
0.011164
0.008185
0.006629
0.002525
0.007066
0.001973
0.009414
0.013087
0.009034
0.005019
0.008995
0.001381
0.001769
0.012604
0.001211
0.012105
0.002247
0.013325
0.013545
0.013681
0.009744
0.000661
0.010966
0.003450
0.011257
0.007627
0.001054
0.004637
0.007438
0.012838
0.005475
0.010611
0.012115
0.002834
0.001187
0.006876
0.001302
0.013186
0.014042
0.008275
0.002728
0.004184
0.001668
0.002236
0.012319
0.012920
0.005250
0.011679
0.013943
0.004172
0.002589
0.014391
0.008039
0.013875
0.006765
0.002279
0.005055
0.013580
0.013858
0.013777
0.014324
0.008323
0.012623
0.012420
0.013902
0.012004
0.004409
0.005092
0.006594
0.008306
0.002476
0.001108
0.013392
0.013323
0.012229
0.001893
0.009340
0.004064
0.004064
0.002667
0.011950
0.009887
0.006423
0.012518
0.000573
0.002777
0.013925
0.001861
0.009090
0.014055
0.014186
0.013718
0.013861
0.010744
0.012983
0.012477
0.013155
0.012529
0.002036
0.013381
0.001567
0.009272
0.008965
0.005580
0.011217
0.013862
0.013991
0.005437
0.012077
0.013238
0.001954
0.002811
0.013822
0.008669
0.009848
0.011403
0.005060
0.013408
0.002421
0.013678
0.001229
0.012216
0.010810
0.008601
0.000692
0.002253
0.009069
0.006122
0.002110
0.001026
0.013143
0.006582
0.013544
0.012705
0.013322
0.001483
0.008965
0.001315
0.003225
0.003804
0.013647
0.013938
0.014092
0.011743
0.003530
0.003673
0.012131
0.006755
0.007839
0.003491
0.004401
0.003823
0.012506
0.013892
0.013295
0.004600
0.011717
0.013960
0.012012
0.010955
0.014033
0.008161
0.001491
0.001888
0.002394
0.008703
0.002311
0.007775
0.002369
0.000686
0.013125
0.001159
0.000912
0.013930
0.008797
0.007025
0.004526
0.002909
0.005580
0.013874
0.000770
0.009918
0.003107
0.013487
0.013546
0.013513
0.012586
0.014259
0.003804
0.002403
0.004574
0.011050
0.008398
0.001175
0.013754
0.006113
0.012390
0.007097
0.001981
0.012377
0.012555
0.013814
0.002446
0.008049
0.002503
0.009070
0.012929
0.011935
0.012104
0.006337
0.009244
0.004946
0.011364
0.008501
0.000686
0.001020
0.001146
0.000559
0.004774
0.008161
0.014001
0.012951
0.011428
0.012920
0.011809
0.010192
0.012422
0.002037
0.008174
0.011422
0.003855
0.013024
0.008545
0.010924
0.002310
0.002284
0.009938
0.011143
0.009136
0.008914
0.008282
0.009247
0.010242
0.008561
0.011950
0.009345
0.010674
0.009550
0.013240
0.009447
0.011579
0.009938
0.008306
0.009098
0.011636
0.011602
0.009494
0.009537
0.011263
0.001561
0.011854
0.010216
0.011723
0.010280
0.012160
0.013950
0.007393
0.005620
0.002811
0.003491
0.006259
0.007433
0.007304
0.000540
0.010135
0.000545
0.002162
0.002165
0.000330
0.001407
0.009247
0.010611
0.005766
0.012025
0.000123
0.005527
0.009034
0.001989
0.012571
0.012956
0.006720
0.012496
0.005250
0.012303
0.013775
0.001769
0.008933
0.010727
0.011646
0.002369
0.009537
0.004259
0.002645
0.002891
0.007641
0.014026
0.000948
0.003640
0.001007
0.013705
0.008182
0.006880
0.000935
0.013861
0.014149
0.007191
0.010977
0.013815
0.013708
0.013964
0.007245
0.013479
0.013748
0.013822
0.012576
0.000693
0.014223
0.001595
0.014120
0.011003
0.013902
0.005912
0.012355
0.014130
0.012288
0.013309
0.003667
0.010878
0.005656
0.001016
0.003484
0.014464
0.009920
0.014198
0.014181
0.010255
0.009333
0.011025
0.012539
0.013556
0.005489
0.013867
0.004567
0.006841
0.006536
0.010891
0.010991
0.014323
0.014161
0.002162
0.009950
0.013961
0.009019
0.012938
0.007960
0.006014
0.009698
0.012401
0.010956
0.010679
0.001596
0.006467
0.003942
0.012486
0.013482
0.014109
0.013492
0.012945
0.012920
0.012816
0.013174
0.007206
0.012623
0.002927
0.009920
0.009372
0.007861
0.013099
0.004250
0.013307
0.012945
0.012704
0.012396
0.013236
0.003567
0.014454
0.001054
0.014323
0.007243
0.008417
0.000482
0.011738
0.000510
0.013702
0.011738
0.000304
0.012442
0.001471
0.012634
0.001430
0.003382
0.005857
0.002959
0.007174
0.000786
0.011580
0.006877
0.002580
0.011437
0.000312
0.011331
0.012979
0.012216
0.000880
0.005958
0.010988
0.012692
0.007916
0.000925
0.009423
0.013925
0.012371
0.002989
0.002565
0.003482
0.010968
0.011836
0.008151
0.009006
0.012411
0.001182
0.011164
0.004551
0.012269
0.011407
0.003511
0.003791
0.002529
0.005833
0.007007
0.003860
0.013681
0.013812
0.013638
0.011883
0.011369
0.008282
0.005601
0.001604
0.001466
0.001155
0.012779
0.007928
0.013902
0.004686
0.004565
0.002505
0.013407
0.005503
0.003752
0.000677
0.002371
0.009529
0.013937
0.002124
0.002094
0.004670
0.013734
0.006005
0.005900
0.000764
0.004974
0.013575
0.003484
0.002304
0.002970
0.003238
0.000650
0.012741
0.013409
0.001759
0.011324
0.004383
0.012870
0.013042
0.013696
0.012968
0.013473
0.003368
0.005888
0.004780
0.004362
0.008576
0.004593
0.014020
0.012143
0.007547
0.004997
0.005723
0.007191
0.004569
0.006988
0.012243
0.010013
0.011840
0.001180
0.004250
0.004637
0.008425
0.004341
0.001890
0.011140
0.009685
0.014137
0.007025
0.006339
0.011143
0.005119
0.007114
0.013682
0.010671
0.013498
0.006353
0.006074
0.004426
0.004870
0.005124
0.013653
0.006770
0.000589
0.010214
0.013901
0.013237
0.013245
0.012337
0.010915
0.004537
0.004032
0.001888
0.003339
0.004464
0.013798
0.005298
0.004901
0.005341
0.001127
0.002644
0.014068
0.006563
0.004499
0.002432
0.001267
0.007562
0.004209
0.006877
0.002530
0.001407
0.012178
0.002630
0.004003
0.002114
0.007353
0.001948
0.004645
0.006594
0.003450
0.012623
0.007027
0.004703
0.001216
0.002033
0.007521
0.004945
0.008053
0.003424
0.005912
0.011274
0.003235
0.012961
0.007014
0.001483
0.013775
0.013938
0.000756
0.011693
0.002523
0.000974
0.011607
0.006859
0.007835
0.013235
0.003667
0.003540
0.003040
0.007381
0.004648
0.005489
0.003024
0.003024
0.002716
0.009121
0.004888
0.010311
0.002449
0.012074
0.000949
0.007327
0.007830
0.013068
0.002722
0.006419
0.003250
0.007857
0.002943
0.003207
0.006132
0.001491
0.001954
0.013773
0.001189
0.009598
0.001977
0.002243
0.009115
0.001235
0.001089
0.004787
0.007163
0.002782
0.009795
0.007622
0.009574
0.001199
0.013734
0.012432
0.002565
0.002970
0.009113
0.003445
0.007670
0.001878
0.012956
0.001967
0.008065
0.008868
0.012170
0.000748
0.000650
0.001087
0.004714
0.001083
0.007129
0.006219
0.011303
0.008185
0.002667
0.008128
0.006169
0.013061
0.000683
0.000692
0.000353
0.003178
0.001994
0.010421
0.001189
0.005039
0.009654
0.011241
0.006498
0.001915
0.011724
0.006451
0.004409
0.004509
0.003059
0.006947
0.006859
0.005601
0.001769
0.001763
0.000532
0.006549
0.007393
0.008071
0.011483
0.011482
0.010311
0.011783
0.013891
0.008720
0.014144
0.002742
0.009998
0.009189
0.000847
0.012049
0.013131
0.005714
0.005862
0.008433
0.013821
0.011962
0.005620
0.013462
0.013058
0.004354
0.004533
0.005184
0.002687
0.010245
0.011274
0.007453
0.002609
0.011369
0.009835
0.004240
0.002720
0.011122
0.011866
0.009516
0.001902
0.009623
0.004537
0.012894
0.013922
0.001161
0.003088
0.009184
0.002162
0.002427
0.004172
0.001534
0.004256
0.012506
0.013233
0.012276
0.006113
0.013924
0.009385
0.010569
0.005584
0.001020
0.003381
0.013234
0.005727
0.005749
0.005760
0.014010
0.003572
0.007989
0.007902
0.002817
0.003101
0.013592
0.008689
0.010750
0.000883
0.013895
0.013967
0.001168
0.013957
0.002779
0.007019
0.013758
0.013713
0.010847
0.014197
0.004362
0.006068
0.006251
0.004826
0.000456
0.001897
0.013653
0.000994
0.007410
0.013501
0.003107
0.003225
0.013744
0.013895
0.004832
0.014066
0.009564
0.013892
0.000525
0.001856
0.005739
0.001489
0.001318
0.009045
0.001617
0.008425
0.012910
0.003587
0.012264
0.005370
0.012607
0.008866
0.006122
0.012563
0.002720
0.007857
0.002124
0.009835
0.007043
0.010132
0.012432
0.012846
0.012965
0.013806
0.008680
0.005298
0.009564
0.007007
0.005752
0.005488
0.000743
0.006357
0.003878
0.003955
0.006100
0.006841
0.011304
0.008304
0.014201
0.013944
0.012076
0.003207
0.003339
0.005877
0.001626
0.008186
0.010695
0.005174
0.007772
0.009550
0.012411
0.013229
0.002162
0.002947
0.003368
0.008769
0.004111
0.009221
0.008571
0.013568
0.013229
0.013777
0.011337
0.002724
0.004670
0.008544
0.003347
0.012474
0.012718
0.004383
0.012288
0.011852
0.013453
0.012976
0.013323
0.012643
0.011323
0.013154
0.013316
0.013319
0.011593
0.010638
0.013907
0.012624
0.012536
0.013305
0.013068
0.013322
0.004140
0.013729
0.012031
0.012957
0.012576
0.011723
0.003600
0.001088
0.013945
0.004473
0.002424
0.013153
0.010194
0.013240
0.008311
0.005224
0.014092
0.013407
0.004820
0.005794
0.011109
0.004119
0.009230
0.008026
0.014223
0.013520
0.013642
0.007491
0.014307
0.013702
0.001590
0.005889
0.008868
0.010925
0.003523
0.002828
0.002965
0.006563
0.006028
0.002307
0.012539
0.012887
0.009771
0.013023
0.010829
0.013144
0.013454
0.011777
0.013402
0.009419
0.002985
0.003250
0.001344
0.006249
0.004261
0.013618
0.002800
0.013863
0.007806
0.002817
0.000565
0.012170
0.013923
0.003828
0.003550
0.002664
0.009416
0.000489
0.012482
0.007531
0.003489
0.001350
0.003204
0.013731
0.011557
0.011751
0.004826
0.001626
0.001462
0.012474
0.007280
0.002706
0.013980
0.002017
0.004938
0.007368
0.006727
0.013513
0.013787
0.013814
0.001305
0.010810
0.013901
0.013957
0.003949
0.009459
0.005555
0.000967
0.005386
0.000684
0.000949
0.011941
0.003316
0.009925
0.012081
0.003339
0.013637
0.006563
0.005331
0.011741
0.009644
0.013239
0.013150
0.001795
0.013873
0.006517
0.004230
0.011646
0.005190
0.011489
0.013154
0.002455
0.012984
0.010522
0.011842
0.003615
0.005353
0.010487
0.005492
0.008718
0.001624
0.001752
0.010022
0.003095
0.003064
0.006354
0.006104
0.002011
0.003235
0.011592
0.011608
0.005421
0.012898
0.011489
0.005250
0.001703
0.011483
0.004791
0.012363
0.004735
0.003630
0.001801
0.012890
0.005016
0.001890
0.014055
0.013600
0.001701
0.011559
0.003935
0.010493
0.002173
0.004521
0.008988
0.003713
0.004709
0.010674
0.000683
0.012482
0.000566
0.011105
0.003416
0.013537
0.013879
0.011836
0.010627
0.011579
0.013155
0.008263
0.012706
0.012802
0.013528
0.012643
0.013870
0.002790
0.013131
0.006339
0.004644
0.011470
0.007981
0.010989
0.010704
0.012661
0.011738
0.004565
0.009019
0.001960
0.013753
0.010633
0.013942
0.008082
0.004806
0.006495
0.006859
0.006729
0.011629
0.011917
0.012815
0.009385
0.013155
0.012133
0.002818
0.012563
0.013024
0.003583
0.013309
0.011958
0.012179
0.001655
0.009985
0.001323
0.009221
0.013701
0.009745
0.008051
0.008186
0.008745
0.012216
0.009853
0.010695
0.010601
0.008278
0.012165
0.011459
0.008601
0.013234
0.009372
0.008497
0.011453
0.010493
0.011348
0.012701
0.013737
0.009673
0.009142
0.011946
0.010879
0.011441
0.009920
0.009516
0.009345
0.013787
0.008914
0.005341
0.009725
0.009343
0.012700
0.006321
0.012717
0.013825
0.011039
0.003920
0.005290
0.004003
0.013572
0.005555
0.001261
0.013070
0.008282
0.008696
0.012815
0.004354
0.008530
0.006578
0.007027
0.004908
0.011992
0.013883
0.011834
0.009320
0.005445
0.010977
0.006013
0.012133
0.001030
0.012864
0.000494
0.013399
0.004107
0.011831
0.008995
0.004244
0.003112
0.008612
0.001852
0.011736
0.006294
0.002934
0.000841
0.004945
0.012801
0.006368
0.013243
0.002302
0.011908
0.004964
0.007534
0.013901
0.010610
0.014269
0.008483
0.004265
0.005019
0.005038
0.000443
0.012105
0.011783
0.009744
0.003967
0.004116
0.004504
0.005115
0.013975
0.006769
0.007648
0.002171
0.014235
0.013155
0.003935
0.014017
0.013820
0.001292
0.004402
0.002403
0.013155
0.000611
0.013235
0.007453
0.005075
0.005940
0.008155
0.000882
0.002503
0.005710
0.010216
0.004960
0.014457
0.013564
0.004663
0.014373
0.013658
0.002729
0.001826
0.003602
0.002782
0.002643
0.003655
0.000532
0.000822
0.003310
0.005984
0.011792
0.000661
0.006232
0.009998
0.005821
0.005960
0.009180
0.013914
0.002322
0.002374
0.002175
0.013659
0.010687
0.000510
0.013919
0.008003
0.012802
0.003955
0.003689
0.003726
0.010307
0.005634
0.005171
0.006156
0.011701
0.006616
0.004515
0.004920
0.006865
0.008656
0.007229
0.012187
0.013873
0.000611
0.007093
0.007093
0.010068
0.010582
0.010418
0.001680
0.011137
0.007190
0.002947
0.013259
0.006746
0.005977
0.000666
0.013150
0.013761
0.002029
0.013074
0.012081
0.009516
0.004146
0.001484
0.001296
0.012165
0.009619
0.008220
0.010955
0.011106
0.011474
0.002868
0.004707
0.005567
0.000002
0.009166
0.012711
0.013197
0.009469
0.007114
0.003712
0.007470
0.000796
0.003715
0.003893
0.011001
0.013993
0.002253
0.002978
0.003817
0.011693
0.004012
0.011183
0.006592
0.013153
0.010069
0.012555
0.001453
0.012529
0.014007
0.004593
0.002775
0.012205
0.012179
0.013080
0.006710
0.006852
0.012608
0.013240
0.011345
0.013487
0.012179
0.012983
0.000894
0.013042
0.012704
0.012433
0.013775
0.005626
0.007670
0.013154
0.012607
0.008354
0.002383
0.009121
0.013890
0.014452
0.005224
0.012802
0.012920
0.002110
0.013732
0.010578
0.013957
0.000340
0.011766
0.005066
0.013901
0.007388
0.000486
0.003443
0.013876
0.013638
0.002302
0.013342
0.014053
0.002869
0.013822
0.004947
0.002970
0.012592
0.008995
0.012148
0.006059
0.003134
0.008304
0.010229
0.010083
0.012938
0.007989
0.010691
0.004923
0.008544
0.000886
0.011826
0.010879
0.008546
0.011383
0.006871
0.009744
0.001159
0.001432
0.005702
0.006677
0.007187
0.002567
0.013240
0.013235
0.003465
0.011407
0.003374
0.012745
0.012178
0.006230
0.013010
0.013205
0.006087
0.004854
0.010903
0.013380
0.013099
0.005067
0.001026
0.013839
0.009962
0.001935
0.013927
0.001153
0.008079
0.008472
0.012983
0.009950
0.012148
0.003579
0.011465
0.008082
0.010708
0.010708
0.008311
0.013980
0.000618
0.009195
0.004072
0.010490
0.002697
0.002405
0.013066
0.009137
0.004562
0.004787
0.001157
0.000618
0.000666
0.001083
0.000676
0.013814
0.007410
0.000454
0.006970
0.003213
0.013238
0.013729
0.005472
0.010850
0.006989
0.004903
0.004009
0.006862
0.011068
0.003134
0.005601
0.013912
0.002843
0.001038
0.014265
0.012327
0.005958
0.013234
0.003564
0.001706
0.002920
0.001849
0.012676
0.006781
0.000892
0.001292
0.011607
0.006877
0.000680
0.006305
0.012179
0.005739
0.012216
0.006089
0.011365
0.001704
0.013563
0.005094
0.005956
0.003148
0.003284
0.007393
0.003558
0.013729
0.006386
0.012529
0.008268
0.007025
0.007155
0.011541
0.007734
0.001478
0.002587
0.001697
0.001989
0.007523
0.006105
0.000951
0.005104
0.004380
0.007382
0.002162
0.014240
0.001068
0.000744
0.001600
0.010214
0.011700
0.002687
0.000749
0.008899
0.002144
0.011502
0.013721
0.007669
0.008545
0.005529
0.005897
0.005766
0.002284
0.004971
0.005926
0.005126
0.004996
0.005302
0.002546
0.006118
0.005715
0.000345
0.002828
0.012210
0.004390
0.002590
0.003441
0.011143
0.009193
0.009361
0.013233
0.011428
0.010562
0.001618
0.010034
0.009484
0.010849
0.007433
0.010876
0.009573
0.009710
0.008381
0.004900
0.012527
0.011338
0.011889
0.013967
0.011605
0.003699
0.003008
0.002713
0.003374
0.006249
0.013399
0.004615
0.011547
0.002811
0.011701
0.000678
0.004504
0.004644
0.007414
0.004852
0.005648
0.001171
0.003704
0.012705
0.002159
0.013961
0.011521
0.010396
0.003201
0.011316
0.005913
0.010939
0.009121
0.001884
0.009436
0.001050
0.014233
0.000529
0.000952
0.000955
0.008642
0.004854
0.004551
0.004994
0.010846
0.005718
0.004256
0.011477
0.013319
0.004445
0.004435
0.005869
0.003817
0.005067
0.013638
0.003218
0.002922
0.003050
0.005836
0.002799
0.004087
0.006337
0.001561
0.004667
0.006467
0.004321
0.004107
0.004423
0.006190
0.003955
0.011983
0.012603
0.014228
0.002170
0.002162
0.002439
0.012877
0.003482
0.004991
0.014357
0.004286
0.000487
0.000902
0.005287
0.013576
0.013472
0.004146
0.003860
0.005246
0.012495
0.013240
0.001960
0.010163
0.005888
0.004140
0.004273
0.006306
0.002920
0.004507
0.004175
0.006151
0.006764
0.004663
0.006690
0.004920
0.005298
0.000474
0.004707
0.011576
0.004224
0.000489
0.005853
0.003428
0.002786
0.004953
0.002637
0.003482
0.006506
0.010359
0.005386
0.011572
0.008785
0.009237
0.010671
0.012482
0.004117
0.005989
0.001323
0.005976
0.009447
0.001586
0.000670
0.004362
0.010183
0.006048
0.006682
0.001977
0.012665
0.009897
0.006378
0.006239
0.010716
0.003433
0.005848
0.005144
0.005142
0.004569
0.005396
0.003841
0.007440
0.004290
0.004041
0.008997
0.005239
0.012180
0.006686
0.001175
0.007732
0.012066
0.004276
0.006650
0.006794
0.006769
0.006333
0.011446
0.006578
0.007043
0.004273
0.003719
0.004707
0.006131
0.006569
0.006438
0.006378
0.006230
0.003339
0.003497
0.006450
0.003760
0.006585
0.006852
0.003707
0.009938
0.002215
0.006710
0.006589
0.006219
0.003458
0.003713
0.000766
0.007342
0.006863
0.005104
0.005984
0.006023
0.005803
0.006048
0.013993
0.005784
0.006197
0.003592
0.006736
0.006344
0.004405
0.007562
0.006575
0.007041
0.001261
0.007081
0.007231
0.006100
0.008010
0.006655
0.006859
0.003690
0.005956
0.005927
0.006321
0.003266
0.003001
0.003391
0.003823
0.003817
0.002978
0.002963
0.003005
0.002728
0.013522
0.007257
0.007420
0.008462
0.003747
0.007753
0.007581
0.007447
0.007368
0.007806
0.007393
0.007414
0.013240
0.007943
0.006883
0.007325
0.008520
0.008884
0.011428
0.008197
0.008094
0.005579
0.005174
0.006585
0.006649
0.007901
0.004636
0.004351
0.012053
0.007229
0.007542
0.007471
0.013238
0.002927
0.002516
0.006865
0.001971
0.013403
0.007818
0.002757
0.011151
0.007246
0.007879
0.003429
0.002891
0.003511
0.006764
0.003082
0.011618
0.012793
0.007547
0.010329
0.006159
0.005766
0.011553
0.007081
0.007206
0.011854
0.003928
0.003491
0.011284
0.004383
0.001840
0.012895
0.002312
0.002174
0.007055
0.007819
0.011233
0.006452
0.006582
0.003131
0.009146
0.003276
0.002863
0.002869
0.013092
0.007446
0.007831
0.009652
0.000767
0.014127
0.011297
0.007457
0.002980
0.008229
0.010627
0.009459
0.002507
0.000815
0.000951
0.000677
0.013901
0.006113
0.001218
0.007980
0.007748
0.010541
0.008451
0.001037
0.002434
0.011889
0.001114
0.013600
0.004938
0.002173
0.007956
0.014001
0.010905
0.010245
0.009166
0.008018
0.010977
0.011337
0.010147
0.009947
0.006933
0.013070
0.012794
0.013070
0.012792
0.002706
0.007187
0.007314
0.003146
0.002831
0.002541
0.008593
0.002667
0.003075
0.011187
0.007876
0.007703
0.003885
0.004016
0.005224
0.006016
0.001314
0.006259
0.001642
0.001762
0.001757
0.001739
0.001466
0.001458
0.001849
0.001820
0.002004
0.001413
0.008001
0.005772
0.001362
0.001229
0.001356
0.001630
0.012529
0.006927
0.006776
0.002017
0.001636
0.006376
0.001095
0.001180
0.008544
0.009441
0.007323
0.011657
0.013065
0.008298
0.007314
0.005184
0.005313
0.008167
0.013867
0.009484
0.008643
0.010699
0.005785
0.005656
0.010598
0.010849
0.011096
0.011218
0.002790
0.007928
0.003064
0.004483
0.011646
0.002315
0.007411
0.007611
0.004119
0.004078
0.005913
0.006068
0.005940
0.009623
0.002584
0.010443
0.002710
0.002681
0.002540
0.011777
0.007534
0.011056
0.001194
0.010343
0.004443
0.006196
0.007756
0.007752
0.008100
0.006880
0.007657
0.003848
0.002103
0.002236
0.002507
0.010610
0.007753
0.012208
0.010096
0.009825
0.010375
0.004473
0.005954
0.000526
0.000701
0.000550
0.004209
0.006831
0.010694
0.003762
0.005706
0.000499
0.001114
0.000881
0.000648
0.000796
0.000661
0.000670
0.000824
0.000824
0.001087
0.001081
0.007884
0.008038
0.000560
0.000540
0.000392
0.005694
0.008680
0.006000
0.003196
0.002255
0.002165
0.007736
0.008884
0.008734
0.010034
0.011595
0.002168
0.002042
0.007895
0.006989
0.010374
0.007381
0.007257
0.000564
0.000539
0.000654
0.000614
0.000545
0.003991
0.010228
0.007007
0.002657
0.010046
0.013020
0.008423
0.013232
0.011889
0.011773
0.008646
0.013775
0.004908
0.003352
0.002152
0.002428
0.007454
0.008915
0.002101
0.003304
0.006610
0.006626
0.007120
0.009291
0.009195
0.008151
0.011532
0.011286
0.011122
0.011233
0.009835
0.007748
0.008678
0.003312
0.008079
0.012381
0.007577
0.001873
0.011553
0.007244
0.003842
0.000955
0.000565
0.009423
0.008354
0.000684
0.001220
0.005067
0.002088
0.010727
0.010760
0.009950
0.003244
0.003250
0.003392
0.009065
0.011169
0.007929
0.011225
0.002818
0.007472
0.001849
0.004078
0.012253
0.005766
0.012029
0.009272
0.011840
0.005205
0.011193
0.010934
0.001900
0.001710
0.001496
0.010521
0.011691
0.010510
0.010455
0.005053
0.001095
0.007622
0.007323
0.009833
0.006421
0.011224
0.003514
0.011221
0.003983
0.011821
0.013975
0.013768
0.010279
0.010139
0.006399
0.004134
0.011930
0.010287
0.011105
0.003571
0.010083
0.007155
0.010714
0.010147
0.013993
0.004773
0.012059
0.006913
0.012401
0.007081
0.010563
0.002507
0.000152
0.000212
0.014327
0.012737
0.013901
0.013902
0.013896
0.011852
0.013877
0.010641
0.011532
0.003865
0.001267
0.012930
0.006717
0.007218
0.010785
0.005357
0.008593
0.007882
0.007731
0.007581
0.012427
0.008341
0.010294
0.014244
0.013892
0.007396
0.010090
0.002692
0.011866
0.012894
0.012465
0.002546
0.013322
0.013989
0.004852
0.014127
0.002692
0.014295
0.012547
0.013155
0.002127
0.006883
0.001627
0.012226
0.008670
0.010956
0.004923
0.005048
0.011359
0.008010
0.004390
0.003514
0.006041
0.010251
0.013911
0.001315
0.005970
0.005448
0.007364
0.010313
0.007006
0.012518
0.004906
0.013308
0.011723
0.012704
0.003672
0.009264
0.008118
0.009173
0.004667
0.011843
0.012608
0.000883
0.003368
0.011646
0.013342
0.001478
0.000745
0.002805
0.008745
0.012796
0.000438
0.008203
0.004997
0.013659
0.012420
0.013925
0.003977
0.013656
0.013814
0.002367
0.014161
0.008781
0.002036
0.006891
0.009146
0.011691
0.008902
0.014350
0.013488
0.011140
0.009947
0.009236
0.013489
0.004135
0.003218
0.003602
0.006074
0.014053
0.010295
0.009414
0.011323
0.013790
0.001021
0.003331
0.003693
0.006280
0.002510
0.004231
0.013971
0.008460
0.006629
0.013354
0.006717
0.000476
0.004012
0.006483
0.003708
0.009681
0.004725
0.008263
0.000808
0.000692
0.012546
0.007542
0.007447
0.013154
0.006230
0.004923
0.004653
0.013560
0.013687
0.011660
0.008820
0.013738
0.003179
0.000861
0.009232
0.001127
0.008334
0.008618
0.014278
0.000680
0.008785
0.004231
0.012074
0.010445
0.013978
0.013902
0.008761
0.013747
0.014415
0.011455
0.009797
0.010915
0.007420
0.002469
0.007079
0.011698
0.014108
0.011590
0.012595
0.000625
0.014200
0.007280
0.006445
0.010739
0.014350
0.012348
0.002993
0.003784
0.012068
0.005836
0.001437
0.003752
0.002159
0.014324
0.004773
0.014278
0.014467
0.010664
0.009557
0.009757
0.010443
0.002441
0.005092
0.003465
0.006271
0.005190
0.006801
0.007300
0.013718
0.013975
0.000930
0.001462
0.002017
0.013104
0.000649
0.006720
0.003762
0.000639
0.006562
0.011482
0.007119
0.006410
0.006717
0.001216
0.009365
0.012335
0.012422
0.012068
0.012782
0.011538
0.010847
0.012066
0.014127
0.010294
0.010170
0.002772
0.013226
0.013325
0.010127
0.006296
0.009853
0.013325
0.010461
0.006619
0.004141
0.004129
0.000749
0.004709
0.013155
0.011741
0.003813
0.006649
0.014374
0.004265
0.005239
0.000093
0.012390
0.007605
0.001835
0.014072
0.011889
0.001703
0.008093
0.009385
0.001235
0.005592
0.011854
0.007611
0.011075
0.005137
0.003354
0.003646
0.014270
0.011516
0.000949
0.010255
0.004512
0.013787
0.011470
0.011219
0.013971
0.012264
0.014314
0.000446
0.007041
0.007669
0.011076
0.007167
0.005370
0.010313
0.012291
0.009687
0.013898
0.000954
0.012377
0.000854
0.009913
0.011806
0.013854
0.000747
0.004707
0.011558
0.006610
0.006345
0.007176
0.007861
0.013319
0.005124
0.001546
0.012501
0.004276
0.006955
0.005970
0.013880
0.013155
0.008694
0.006048
0.012692
0.001427
0.005144
0.012127
0.005502
0.012072
0.013325
0.013239
0.012685
0.013901
0.006723
0.013239
0.013155
0.013930
0.012019
0.012464
0.013472
0.013155
0.013407
0.006474
0.002950
0.013402
0.013855
0.012605
0.001443
0.002588
0.012665
0.002865
0.009595
0.013604
0.004140
0.004141
0.002369
0.008299
0.005827
0.012446
0.007310
0.001734
0.009096
0.012115
0.012402
0.004870
0.009372
0.007563
0.005606
0.012226
0.012258
0.013576
0.013491
0.013307
0.013308
0.013312
0.001612
0.008130
0.011914
0.012782
0.012374
0.013893
0.001054
0.012571
0.013059
0.004116
0.009264
0.012496
0.004625
0.014221
0.012543
0.006736
0.000955
0.007890
0.013387
0.010352
0.008093
0.013381
0.009236
0.002042
0.000636
0.013074
0.007895
0.010524
0.004464
0.013949
0.007890
0.003663
0.012973
0.013773
0.010661
0.011169
0.008256
0.006378
0.004491
0.005579
0.004106
0.010942
0.004294
0.002483
0.000952
0.000956
0.002908
0.011838
0.013482
0.014002
0.005422
0.002202
0.000137
0.004515
0.005435
0.001984
0.008734
0.010034
0.005334
0.005607
0.011866
0.004768
0.002927
0.012457
0.014072
0.007246
0.002215
0.002081
0.013934
0.002980
0.011579
0.009814
0.009217
0.009394
0.009477
0.011960
0.012981
0.002853
0.002989
0.013155
0.009019
0.012539
0.008360
0.011307
0.011601
0.008544
0.009345
0.013701
0.010251
0.009597
0.010485
0.010626
0.010470
0.010673
0.010369
0.008621
0.008393
0.012493
0.013070
0.008678
0.005126
0.010213
0.013931
0.009983
0.013035
0.011585
0.011357
0.001838
0.000614
0.000644
0.011521
0.012290
0.011724
0.010569
0.011348
0.011446
0.009366
0.002922
0.008768
0.013923
0.013154
0.009372
0.010096
0.000131
0.011464
0.005577
0.006419
0.006933
0.002846
0.012846
0.007460
0.007732
0.008082
0.002800
0.002937
0.003075
0.013352
0.003747
0.004163
0.004556
0.006005
0.005995
0.001826
0.001546
0.001636
0.006901
0.007945
0.005644
0.008221
0.000936
0.004746
0.006083
0.006880
0.009301
0.003617
0.005985
0.006831
0.009983
0.013051
0.002959
0.013934
0.002773
0.004250
0.011521
0.012411
0.011960
0.003791
0.011152
0.006370
0.001557
0.001018
0.009963
0.012179
0.002728
0.007922
0.001157
0.012864
0.003282
0.002719
0.002279
0.006308
0.003918
0.001161
0.006886
0.013964
0.013646
0.007136
0.007763
0.006221
0.003299
0.002670
0.002664
0.003558
0.002276
0.003615
0.013232
0.001413
0.014008
0.008438
0.007174
0.010694
0.009597
0.010073
0.009142
0.013639
0.013637
0.002937
0.011478
0.009051
0.000481
0.011489
0.002255
0.013308
0.008734
0.013311
0.014033
0.000373
0.010341
0.013914
0.010857
0.001221
0.009058
0.014427
0.006955
0.005835
0.005706
0.005568
0.009535
0.002851
0.002253
0.013573
0.001826
0.013732
0.001625
0.004389
0.008215
0.012389
0.013847
0.004535
0.005932
0.000805
0.000949
0.000956
0.011834
0.001218
0.005572
0.006208
0.012631
0.000480
0.004856
0.013136
0.000484
0.005864
0.012487
0.005811
0.000955
0.013249
0.007542
0.005412
0.011482
0.011219
0.002399
0.005133
0.003535
0.003524
0.003504
0.013885
0.002535
0.001293
0.003312
0.005448
0.012193
0.013011
0.000341
0.003040
0.004999
0.014188
0.000335
0.005969
0.004354
0.003007
0.008827
0.005763
0.005467
0.013806
0.013822
0.003719
0.006147
0.000406
0.004555
0.004881
0.003667
0.013633
0.004087
0.008953
0.013479
0.010834
0.002005
0.004147
0.012787
0.005463
0.011808
0.009855
0.013845
0.002823
0.001471
0.000925
0.002104
0.004529
0.004535
0.010487
0.000686
0.013978
0.007907
0.013628
0.013949
0.010266
0.004713
0.004568
0.004711
0.004562
0.013068
0.005140
0.007206
0.000639
0.004423
0.004165
0.009343
0.013959
0.004270
0.005853
0.004714
0.004425
0.003851
0.012182
0.013820
0.013852
0.002922
0.006272
0.003851
0.006562
0.006931
0.010918
0.014041
0.005568
0.014078
0.014161
0.013942
0.007763
0.003571
0.006414
0.004745
0.003047
0.011741
0.013647
0.005129
0.013092
0.005057
0.006159
0.003008
0.007462
0.006984
0.013381
0.007446
0.007033
0.013838
0.005478
0.004328
0.006160
0.006353
0.006305
0.002920
0.000935
0.013247
0.004628
0.012978
0.001844
0.008545
0.007263
0.003813
0.007243
0.008082
0.005927
0.003928
0.013068
0.009973
0.006468
0.007937
0.002342
0.007943
0.010864
0.005222
0.005184
0.003137
0.003009
0.007998
0.007414
0.004937
0.013731
0.001626
0.001041
0.013909
0.013852
0.013901
0.003851
0.007275
0.004735
0.012842
0.011493
0.013070
0.004600
0.004870
0.013687
0.013693
0.013344
0.005351
0.005331
0.005298
0.005140
0.004982
0.004127
0.003841
0.005822
0.010245
0.012790
0.012681
0.012450
0.012442
0.002144
0.012193
0.008263
0.013308
0.009825
0.001735
0.004800
0.001490
0.001627
0.001615
0.001881
0.008439
0.013488
0.009592
0.009715
0.007314
0.012182
0.012408
0.004917
0.009742
0.011618
0.012276
0.004651
0.007470
0.004382
0.010013
0.010162
0.010130
0.005386
0.005044
0.003646
0.012796
0.012029
0.012043
0.000854
0.004041
0.000526
0.004376
0.014259
0.013147
0.003592
0.009087
0.014045
0.008530
0.006266
0.006437
0.006132
0.006011
0.007312
0.012504
0.009021
0.001872
0.010574
0.007870
0.008018
0.011657
0.005702
0.012184
0.013921
0.007793
0.006470
0.001847
0.007857
0.006011
0.001620
0.005604
0.005456
0.011827
0.002953
0.010814
0.010582
0.014262
0.003465
0.007989
0.014300
0.010171
0.007115
0.005425
0.005433
0.006221
0.003140
0.003143
0.002866
0.002996
0.008251
0.009125
0.004147
0.001873
0.007342
0.009686
0.013993
0.008065
0.008425
0.008529
0.007778
0.011056
0.008953
0.014200
0.013575
0.014328
0.013825
0.006485
0.003701
0.010377
0.012059
0.013963
0.009045
0.013560
0.004859
0.009823
0.003977
0.002789
0.005552
0.012165
0.002449
0.006483
0.010046
0.009942
0.009408
0.009297
0.009447
0.009350
0.009513
0.009380
0.009418
0.009575
0.009606
0.011725
0.011844
0.005144
0.012984
0.012889
0.007480
0.013493
0.009006
0.009108
0.001739
0.009406
0.001581
0.009553
0.005472
0.001707
0.011684
0.006156
0.011907
0.010822
0.006676
0.009997
0.001369
0.012643
0.007438
0.001153
0.012737
0.010160
0.010369
0.005784
0.007732
0.007602
0.009380
0.004210
0.013777
0.004200
0.008291
0.002376
0.011114
0.009621
0.006081
0.009674
0.000818
0.000813
0.010399
0.007462
0.003227
0.010363
0.014065
0.002259
0.002148
0.011137
0.007132
0.006613
0.003300
0.003220
0.011358
0.002034
0.010951
0.007967
0.009894
0.005952
0.000462
0.009855
0.000138
0.005434
0.005421
0.005133
0.006805
0.002999
0.003518
0.011782
0.013796
0.010429
0.002811
0.012576
0.014310
0.014325
0.003693
0.006575
0.009639
0.004764
0.011101
0.005568
0.005412
0.003008
0.003640
0.013888
0.013740
0.007026
0.001844
0.002105
0.002927
0.002927
0.002912
0.005632
0.010661
0.009264
0.002308
0.010493
0.013166
0.002641
0.008761
0.013731
0.008525
0.007712
0.005559
0.005406
0.003127
0.002247
0.004132
0.003347
0.003904
0.013834
0.003076
0.004522
0.004039
0.005001
0.005913
0.005007
0.014026
0.009850
0.012812
0.010568
0.010601
0.003760
0.004857
0.004820
0.014171
0.012571
0.004540
0.013534
0.004424
0.002103
0.003743
0.013968
0.014154
0.004905
0.011527
0.006368
0.001840
0.012802
0.008884
0.008769
0.002044
0.008307
0.005400
0.005547
0.005106
0.010712
0.011382
0.010307
0.013687
0.009853
0.001612
0.001897
0.005857
0.013820
0.001189
0.010020
0.010154
0.004346
0.009686
0.002510
0.006160
0.003181
0.005044
0.006306
0.004653
0.004619
0.012754
0.002103
0.002103
0.002279
0.001108
0.000796
0.001081
0.001089
0.008278
0.005066
0.013310
0.014259
0.013937
0.002284
0.010708
0.009765
0.000558
0.002173
0.011234
0.012269
0.005442
0.012783
0.005037
0.011351
0.011219
0.011214
0.003007
0.002727
0.008311
0.006755
0.010083
0.013740
0.001615
0.010779
0.013967
0.010743
0.007323
0.007174
0.010166
0.014130
0.012891
0.004494
0.009936
0.012790
0.011662
0.011941
0.013054
0.010021
0.012571
0.013623
0.011953
0.014177
0.003811
0.013560
0.003869
0.003419
0.006859
0.012920
0.010929
0.009814
0.007884
0.006741
0.000406
0.008117
0.003392
0.008354
0.008032
0.012643
0.012249
0.006666
0.005842
0.004960
0.004660
0.011357
0.011227
0.011843
0.012073
0.005360
0.005508
0.005320
0.005445
0.004260
0.005542
0.005396
0.005675
0.003009
0.010934
0.011152
0.010832
0.013001
0.008612
0.007294
0.006794
0.012780
0.008417
0.001618
0.008334
0.011109
0.011323
0.013399
0.007945
0.008049
0.007715
0.007564
0.007246
0.006742
0.012903
0.013070
0.004803
0.005942
0.011793
0.014122
0.003850
0.011657
0.011515
0.012980
0.012980
0.003307
0.006132
0.011573
0.005128
0.005912
0.003726
0.011405
0.013404
0.005864
0.006993
0.011369
0.013055
0.012303
0.013701
0.010788
0.004974
0.008053
0.008395
0.006517
0.005270
0.008618
0.009664
0.010976
0.010974
0.011482
0.011725
0.011061
0.011382
0.012187
0.011724
0.008868
0.009215
0.008866
0.001627
0.001761
0.001755
0.001615
0.001608
0.001478
0.012123
0.007150
0.012397
0.010426
0.011319
0.004787
0.010432
0.002446
0.002449
0.012457
0.006399
0.009365
0.001007
0.001020
0.011826
0.006219
0.008544
0.007506
0.010569
0.008200
0.008918
0.014058
0.012949
0.008521
0.003578
0.011700
0.013235
0.010356
0.003981
0.003289
0.008796
0.010638
0.014145
0.014161
0.011658
0.012506
0.001089
0.013667
0.000032
0.011806
0.011579
0.011288
0.011493
0.010968
0.011143
0.010490
0.010664
0.010122
0.010046
0.009747
0.009942
0.009387
0.009557
0.009428
0.009465
0.009513
0.009660
0.009541
0.009592
0.009749
0.009058
0.008335
0.008327
0.008609
0.008594
0.008733
0.006249
0.004813
0.011105
0.011233
0.011359
0.005941
0.003548
0.006074
0.006206
0.006190
0.006175
0.006305
0.010735
0.010443
0.010394
0.011595
0.011711
0.010245
0.009998
0.010096
0.011963
0.009797
0.009398
0.006113
0.006273
0.011605
0.013239
0.008872
0.008251
0.008082
0.010247
0.010329
0.010181
0.008327
0.007545
0.009108
0.009010
0.009019
0.008304
0.009147
0.011908
0.009283
0.010669
0.009613
0.009071
0.008997
0.004547
0.008039
0.013316
0.012965
0.001960
0.013300
0.008462
0.008501
0.011174
0.011050
0.011193
0.008149
0.009447
0.006132
0.011324
0.012123
0.010956
0.009871
0.009855
0.008472
0.008939
0.008670
0.008921
0.009345
0.010679
0.010661
0.005607
0.005435
0.010694
0.012182
0.010020
0.009715
0.009316
0.010962
0.011089
0.008393
0.013769
0.013820
0.005186
0.005055
0.008594
0.000906
0.013898
0.013637
0.007669
0.009206
0.009624
0.010149
0.008886
0.010381
0.010239
0.008203
0.008341
0.008306
0.009962
0.009566
0.010239
0.007967
0.010166
0.010276
0.011500
0.011618
0.012165
0.007656
0.010384
0.009714
0.002315
0.002455
0.011183
0.012063
0.012623
0.010166
0.012288
0.011195
0.010838
0.011098
0.008665
0.008934
0.013035
0.010462
0.010924
0.010776
0.011025
0.011288
0.010524
0.009414
0.013847
0.008602
0.010661
0.010810
0.010536
0.010814
0.011349
0.007806
0.011576
0.006147
0.004935
0.011936
0.011111
0.013058
0.009760
0.010743
0.011023
0.010421
0.013226
0.008840
0.008992
0.006151
0.009595
0.002616
0.012766
0.008895
0.008381
0.009498
0.009217
0.007396
0.011303
0.010170
0.010031
0.009548
0.010626
0.011274
0.009983
0.010090
0.012518
0.011489
0.003232
0.011923
0.011723
0.011701
0.012019
0.010991
0.009530
0.008155
0.011826
0.008834
0.009333
0.009450
0.003661
0.011891
0.013051
0.013272
0.011738
0.011474
0.011001
0.010976
0.011826
0.002779
0.010509
0.010650
0.008468
0.008769
0.013384
0.013451
0.008901
0.008761
0.011219
0.009390
0.008888
0.008523
0.011411
0.014058
0.008781
0.009396
0.013983
0.013472
0.008661
0.011458
0.009630
0.004362
0.005027
0.010426
0.012276
0.012411
0.008918
0.009835
0.008447
0.011260
0.010577
0.009987
0.010119
0.007822
0.007960
0.011152
0.013937
0.009071
0.010882
0.010844
0.005853
0.012607
0.011107
0.010005
0.008817
0.012355
0.013991
0.008881
0.010671
0.010610
0.008460
0.012059
0.010582
0.011358
0.010704
0.009814
0.009771
0.011214
0.011299
0.012419
0.012808
0.009613
0.013754
0.013682
0.013701
0.009422
0.012054
0.002450
0.002450
0.003117
0.009146
0.009193
0.011233
0.009923
0.008576
0.010311
0.012706
0.010788
0.011484
0.010026
0.010037
0.009761
0.009173
0.009325
0.009820
0.009902
0.011338
0.009448
0.009343
0.012389
0.010194
0.010007
0.000267
0.000288
0.012940
0.013070
0.006265
0.007360
0.006285
0.006290
0.012731
0.006083
0.005422
0.006137
0.000623
0.005968
0.005952
0.000378
0.012748
0.011662
0.011434
0.011319
0.011232
0.009897
0.009429
0.009463
0.009743
0.009468
0.009473
0.009198
0.008915
0.008338
0.008761
0.009762
0.010037
0.009902
0.010313
0.005433
0.006435
0.006565
0.006694
0.006951
0.003258
0.003391
0.007079
0.006788
0.013155
0.006915
0.002679
0.008003
0.011959
0.002127
0.010929
0.002255
0.001852
0.012068
0.003477
0.004955
0.012053
0.004303
0.008718
0.006835
0.009963
0.001661
0.001648
0.011174
0.004172
0.012038
0.001782
0.001502
0.001591
0.001586
0.006524
0.001344
0.007051
0.008393
0.012093
0.006632
0.006457
0.006257
0.006414
0.006272
0.007342
0.007656
0.005940
0.006279
0.006427
0.006433
0.012063
0.006713
0.009595
0.008196
0.006438
0.008350
0.003242
0.002851
0.002687
0.002546
0.008335
0.005115
0.008049
0.007906
0.006339
0.007522
0.000912
0.003848
0.003712
0.005970
0.006690
0.006585
0.012253
0.011140
0.000942
0.004050
0.007364
0.000529
0.000481
0.006450
0.006298
0.007907
0.006589
0.006862
0.012179
0.011826
0.007614
0.007132
0.008569
0.007811
0.003578
0.006023
0.001739
0.013931
0.009165
0.003451
0.003318
0.011257
0.003901
0.004509
0.002023
0.012517
0.006931
0.007068
0.010069
0.008433
0.006703
0.009711
0.014075
0.012783
0.013409
0.013492
0.013678
0.012661
0.001175
0.012554
0.012536
0.004284
0.013932
0.014007
0.007312
0.012898
0.000763
0.003602
0.004372
0.008442
0.002775
0.011699
0.012873
0.013956
0.010509
0.014228
0.014296
0.013673
0.013240
0.013001
0.009065
0.007835
0.008003
0.007169
0.008957
0.008327
0.013476
0.013492
0.009098
0.004686
0.009148
0.007998
0.007865
0.007597
0.007462
0.007628
0.007492
0.007506
0.007656
0.007519
0.007669
0.007542
0.007264
0.007133
0.007283
0.007162
0.007310
0.007032
0.007179
0.007179
0.006965
0.011603
0.007360
0.013986
0.010053
0.006728
0.008203
0.006592
0.010130
0.007325
0.008697
0.009207
0.001699
0.007669
0.010487
0.009698
0.006781
0.008170
0.003214
0.011709
0.004929
0.007981
0.012399
0.008323
0.008447
0.006877
0.011016
0.014078
0.012783
0.006852
0.008623
0.013729
0.005620
0.008866
0.006736
0.006527
0.003424
0.011348
0.012894
0.003242
0.012458
0.012343
0.012216
0.003638
0.007681
0.001625
0.001298
0.013912
0.004132
0.007462
0.013891
0.008365
0.010889
0.003704
0.012526
0.014092
0.008561
0.008530
0.009478
0.007342
0.013055
0.013847
0.008200
0.014086
0.000619
0.003448
0.011907
0.014021
0.001922
0.011774
0.012295
0.007581
0.012592
0.013777
0.002304
0.006239
0.013233
0.008032
0.007588
0.012111
0.008868
0.004155
0.009537
0.008263
0.008131
0.007179
0.001381
0.003972
0.013697
0.008150
0.005848
0.010743
0.004121
0.003981
0.008946
0.014017
0.009833
0.007453
0.011359
0.002831
0.002584
0.012796
0.007612
0.005307
0.014201
0.010757
0.013846
0.013931
0.008410
0.006098
0.011693
0.001153
0.000813
0.008032
0.007605
0.014209
0.000502
0.010155
0.005675
0.007884
0.008752
0.014107
0.011337
0.011455
0.007155
0.007007
0.005552
0.008785
0.000742
0.013956
0.008921
0.002005
0.003448
0.008724
0.009976
0.007811
0.001328
0.013154
0.013670
0.007413
0.007796
0.008106
0.007171
0.010445
0.013730
0.005828
0.004383
0.003126
0.002000
0.001719
0.008244
0.001362
0.005848
0.011751
0.003211
0.002786
0.005527
0.002644
0.006054
0.000673
0.013986
0.013460
0.002623
0.014283
0.001581
0.010047
0.007753
0.011908
0.001734
0.001478
0.014381
0.006729
0.010642
0.012624
0.009019
0.005780
0.009033
0.003813
0.006847
0.013576
0.007922
0.010807
0.008033
0.011328
0.013993
0.013409
0.010781
0.012031
0.011070
0.013960
0.003993
0.014127
0.003083
0.013861
0.006578
0.013718
0.013806
0.014092
0.004696
0.005104
0.001291
0.011602
0.005144
0.013636
0.009146
0.011101
0.008914
0.013776
0.005067
0.013996
0.003995
0.013867
0.010002
0.002042
0.013307
0.013975
0.013880
0.012823
0.002107
0.002560
0.002405
0.002372
0.013911
0.013690
0.000680
0.005529
0.013814
0.014072
0.009280
0.000612
0.013259
0.008428
0.000460
0.001222
0.000555
0.010177
0.013795
0.008878
0.008310
0.000150
0.013953
0.012851
0.012431
0.008481
0.008473
0.008462
0.010449
0.010448
0.010847
0.010590
0.010147
0.006565
0.004163
0.007630
0.013460
0.010341
0.008620
0.006132
0.011177
0.008857
0.003997
0.013944
0.013967
0.013899
0.001427
0.007104
0.010741
0.010939
0.004507
0.004997
0.013975
0.009740
0.011595
0.010225
0.000490
0.000635
0.011225
0.014086
0.009537
0.010437
0.003431
0.005142
0.007697
0.006930
0.002173
0.005989
0.011075
0.013433
0.013189
0.012346
0.010500
0.001319
0.000207
-0.000002
0.005737
0.008010
0.013659
0.013935
0.004284
0.013855
0.002785
0.002630
0.002616
0.002490
0.013684
0.003204
0.013971
0.004845
0.004994
0.006182
0.008036
0.013575
0.002356
0.003458
0.014267
0.012969
0.000481
0.004937
0.005525
0.014034
0.004546
0.004546
0.005715
0.002913
0.007167
0.013977
0.013993
0.003142
0.003118
0.013730
0.005960
0.006524
0.013867
0.013829
0.013738
0.008596
0.013460
0.014155
0.000759
0.006485
0.002444
0.000780
0.000714
0.000821
0.002304
0.002302
0.002439
0.007399
0.011123
0.014246
0.004271
0.009201
0.008921
0.013552
0.004423
0.013705
0.005567
0.011469
0.012072
0.004414
0.004404
0.005998
0.003399
0.011777
0.013552
0.008395
0.013513
0.009685
0.008741
0.012853
0.012043
0.010173
0.010687
0.013697
0.009394
0.013932
0.008323
0.013518
0.005579
0.013753
0.008244
0.013948
0.013879
0.013888
0.013926
0.013960
0.010699
0.013589
0.013867
0.013829
0.004636
0.013099
0.013613
0.013898
0.009380
0.009246
0.011164
0.012181
0.012371
0.009480
0.003076
0.002792
0.013528
0.010776
0.010429
0.010708
0.002602
0.010108
0.011230
0.003518
0.013956
0.013011
0.010569
0.010842
0.012503
0.010363
0.010510
0.009342
0.010313
0.009835
0.011576
0.010160
0.010580
0.011355
0.013945
0.009483
0.013981
0.014033
0.014039
0.011559
0.009890
0.010715
0.005954
0.005292
0.004515
0.006847
0.006414
0.008182
0.013940
0.003398
0.013233
0.012724
0.000127
0.004445
0.012293
0.009770
0.013080
0.013182
0.002580
0.013804
0.005877
0.011319
0.002682
0.001757
0.003331
0.003946
0.013762
0.010398
0.009438
0.013391
0.010968
0.012687
0.012983
0.013070
0.007689
0.008739
0.008739
0.008714
0.008859
0.013482
0.013484
0.013487
0.013489
0.013491
0.013405
0.008979
0.002805
0.013312
0.009216
0.002392
0.009855
0.003333
0.003471
0.003615
0.003878
0.004155
0.004294
0.004574
0.005482
0.005749
0.005749
0.005877
0.001452
0.001586
0.001814
0.002094
0.001808
0.001801
0.001661
0.001661
0.001782
0.010924
0.001490
0.001350
0.001217
0.012078
0.006676
0.006913
0.001076
0.012745
0.007026
0.001757
0.013996
0.001890
0.002240
0.002376
0.002376
0.002512
0.002512
0.006594
0.002932
0.002932
0.007582
0.000801
0.008579
0.001884
0.003523
0.003177
0.012324
0.002953
0.007015
0.001176
0.004583
0.009091
0.014149
0.002103
0.006794
0.005849
0.006599
0.005268
0.002134
0.011602
0.003045
0.006303
0.003583
0.003359
0.006041
0.001963
0.000500
0.002394
0.006137
0.010891
0.011028
0.010669
0.014244
0.002168
0.012295
0.009823
0.002312
0.006891
0.001214
0.010192
0.013238
0.011886
0.011016
0.010903
0.009740
0.001869
0.010034
0.008071
0.014156
0.010154
0.006445
0.006580
0.007162
0.004117
0.000636
0.000635
0.013164
0.011838
0.007959
0.010441
0.006703
0.009970
0.006482
0.006569
0.000724
0.000002
0.011774
0.009747
0.009793
0.009665
0.009537
0.009258
0.009316
0.009482
0.009541
0.009564
0.009439
0.009584
0.009448
0.009592
0.011605
0.011843
0.011089
0.011083
0.011219
0.010419
0.009646
0.012984
0.012885
0.012978
0.012787
0.012580
0.012471
0.009596
0.010363
0.012433
0.010296
0.012021
0.008978
0.013396
0.001873
0.009541
0.008240
0.008590
0.008501
0.001600
0.011808
0.011676
0.011548
0.011428
0.011307
0.011060
0.009853
0.009863
0.009987
0.010005
0.011386
0.009113
0.011527
0.012701
0.012836
0.008266
0.008116
0.013825
0.013861
0.013738
0.006733
0.008765
0.010967
0.010392
0.010470
0.010327
0.010582
0.010724
0.010973
0.010797
0.012859
0.010239
0.012727
0.009749
0.011098
0.009477
0.010319
0.008398
0.007411
0.011025
0.007778
0.008423
0.012389
0.010239
0.010882
0.010226
0.010198
0.011504
0.010257
0.001087
0.011834
0.011123
0.010845
0.011704
0.010419
0.010287
0.011232
0.011230
0.009195
0.009482
0.010426
0.010437
0.011351
0.010363
0.007330
0.003561
0.012595
0.002789
0.012771
0.012796
0.013902
0.010083
0.009873
0.009027
0.009034
0.009180
0.009728
0.011218
0.009052
0.013970
0.007363
0.000550
0.000228
0.000148
0.000006
0.003860
0.004681
0.003566
0.005285
0.011343
0.002127
0.013513
0.007033
0.013870
0.011782
0.007174
0.007027
0.013960
0.004282
0.004132
0.004704
0.003489
0.014267
0.003847
0.013925
0.005827
0.000932
0.013069
0.002299
0.008229
0.012269
0.006930
0.014072
0.013781
0.012749
0.001014
0.012607
0.007457
0.007742
0.012342
0.007231
0.013087
0.010945
0.008611
0.007871
0.007599
0.007295
0.007014
0.006253
0.005961
0.005640
0.005327
0.004585
0.004265
0.003976
0.003519
0.002428
0.002289
0.001951
0.001646
0.000240
0.000019
0.000001
0.000013
0.000019
0.000054
0.000078
0.000109
0.000236
0.000233
0.000249
0.000245
0.000241
0.000244
0.000223
0.000205
0.000193
0.000185
0.000142
0.000122
0.000095
0.000071
0.000022
0.000008
0.000001
0.013330
0.011098
0.010962
0.011028
0.011003
0.006897
0.013065
0.013061
0.013489
0.012575
0.013681
0.013834
0.004382
0.013870
0.008167
0.013919
0.010545
0.004462
0.007657
0.000753
0.000834
0.007399
0.006221
0.000955
0.000951
0.006352
0.014209
0.012870
0.007368
0.011453
0.011260
0.013989
0.002170
0.014002
0.014079
0.003310
0.002144
0.007870
0.007721
0.008033
0.004507
0.011358
0.010920
0.012363
0.007314
0.001739
0.003679
0.003823
0.012395
0.008167
0.003985
0.013839
0.013821
0.014127
0.010162
0.002509
0.012662
0.013042
0.002510
0.005178
0.000904
0.000768
0.002496
0.009710
0.012427
0.012993
0.005437
0.007753
0.003374
0.011916
0.013164
0.001424
0.012632
0.008426
0.000625
0.005812
0.004806
0.009887
0.007081
0.014130
0.014455
0.000462
0.013770
0.008473
0.008331
0.008468
0.008462
0.008321
0.008455
0.008742
0.008298
0.010448
0.010582
0.010757
0.010566
0.010271
0.009823
0.009447
0.012815
0.008881
0.009833
0.010130
0.009156
0.009293
0.010522
0.009165
0.010633
0.011296
0.013727
0.005353
0.003640
0.010129
0.013972
0.014034
0.009060
0.013958
0.014053
0.013153
0.010493
0.008299
0.010287
0.008229
0.010026
0.003083
0.007399
0.005256
0.004251
0.011464
0.012427
0.012842
0.010255
0.014221
0.012993
0.000479
0.000686
0.001082
0.001248
0.013010
0.009414
0.008118
0.009952
0.004709
0.013404
0.010498
0.008279
0.010878
0.006550
0.013627
0.007247
0.001706
0.009311
0.014457
0.003281
0.014096
0.013498
0.012913
0.012572
0.012399
0.013126
0.003367
0.013293
0.007327
0.013470
0.008289
0.006816
0.010708
0.001686
0.001820
0.001674
0.013983
0.006537
0.006271
0.013830
0.012243
0.006378
0.004106
0.003850
0.003354
0.009891
0.011635
0.004244
0.013902
0.013727
0.009344
0.003211
0.002110
0.006124
0.013806
0.005146
0.010934
0.002260
0.001968
0.013876
0.010400
0.011691
0.012385
0.009795
0.013308
0.012592
0.012377
0.013659
0.000882
0.004982
0.010565
0.006147
0.006438
0.013971
0.006305
0.012371
0.004547
0.012692
0.010807
0.014357
0.014075
0.013193
0.012029
0.012293
0.012607
0.005927
0.012802
0.012741
0.013205
0.013155
0.013404
0.007763
0.013070
0.013066
0.012974
0.013151
0.013147
0.007034
0.013238
0.013572
0.013795
0.013681
0.012978
0.013301
0.012930
0.012798
0.012705
0.012999
0.013893
0.013144
0.012450
0.005048
0.002374
0.013070
0.006717
0.012779
0.011002
0.011304
0.012385
0.013154
0.011950
0.011227
0.013316
0.013342
0.000342
0.004097
0.013070
0.005128
0.000619
0.013225
0.008183
0.012705
0.013171
0.006421
0.006859
0.014346
0.013940
0.004947
0.005475
0.005400
0.005547
0.009920
0.009592
0.009564
0.009506
0.008891
0.012950
0.013455
0.013457
0.013460
0.001608
0.001750
0.012226
0.013899
0.003997
0.008323
0.013845
0.008939
0.013839
0.013953
0.000954
0.009686
0.003062
0.003047
0.010959
0.013592
0.004724
0.000814
0.008215
0.010392
0.013915
0.012718
0.008860
0.002383
0.012776
0.009498
0.012706
0.003112
0.013070
0.007969
0.007580
0.014029
0.000841
0.008798
0.004619
0.009361
0.013070
0.006321
0.012555
0.007742
0.005204
0.012527
0.005421
0.005151
0.004859
0.005047
0.012227
0.006798
0.013154
0.006712
0.013980
0.010997
0.008869
0.009169
0.004181
0.010130
0.011070
0.013740
0.002312
0.010274
0.012958
0.000330
0.012954
0.012324
0.010974
0.012505
0.010903
0.012053
0.012386
0.012253
0.012472
0.012227
0.012894
0.012894
0.012894
0.012892
0.012885
0.012477
0.012873
0.012846
0.012359
0.013080
0.012352
0.013240
0.013182
0.012343
0.013282
0.012335
0.013402
0.012325
0.013404
0.013408
0.013325
0.013409
0.013409
0.013319
0.013316
0.012081
0.013213
0.011001
0.007553
0.006781
0.008734
0.013070
0.013308
0.013233
0.013380
0.013392
0.012976
0.013573
0.012685
0.013629
0.013630
0.008260
0.008300
0.008468
0.013681
0.013634
0.011723
0.013638
0.013642
0.008001
0.013771
0.012150
0.012179
0.011445
0.012279
0.011992
0.012749
0.009319
0.009291
0.008417
0.008438
0.013801
0.013807
0.007453
0.012474
0.012730
0.011981
0.008586
0.008314
0.013828
0.013783
0.013783
0.013907
0.013890
0.013646
0.011955
0.005774
0.012291
0.012177
0.013851
0.012846
0.008602
0.002328
0.009496
0.010352
0.008594
0.004777
0.007330
0.004386
0.010312
0.013912
0.012887
0.008428
0.008554
0.008485
0.003181
0.012780
0.012498
0.012586
0.008542
0.008529
0.008515
0.013525
0.008749
0.011349
0.013070
0.005360
0.012283
0.010850
0.013001
0.011478
0.011242
0.012954
0.013908
0.010225
0.007756
0.010374
0.011962
0.012107
0.013272
0.006451
0.012399
0.012279
0.011936
0.011948
0.011831
0.007899
0.006352
0.011441
0.013150
0.011459
0.008752
0.008902
0.013381
0.008976
0.000340
0.012783
0.011839
0.012371
0.013047
0.013042
0.000618
0.012605
0.003878
0.012311
0.012219
0.006956
0.008963
0.014026
0.014129
0.008872
0.008648
0.012930
0.013233
0.007600
0.001994
0.011889
0.014017
0.011445
0.002270
0.002441
0.012873
0.013153
0.012124
0.005911
0.013783
0.012812
0.006677
0.006666
0.005553
0.005400
0.005106
0.004960
0.005580
0.003984
0.003142
0.012298
0.009065
0.008741
0.006918
0.006905
0.013525
0.001615
0.004139
0.007396
0.007379
0.004559
0.001837
0.001481
0.008174
0.008650
0.005498
0.003489
0.003197
0.010876
0.001038
0.003174
0.012397
0.003181
0.007628
0.005092
0.006070
0.008561
0.007492
0.007477
0.002441
0.005075
0.003600
0.014195
0.008105
0.004121
0.012792
0.012505
0.006103
0.004401
0.004814
0.002299
0.004565
0.007882
0.004664
0.011349
0.011608
0.010905
0.010638
0.010516
0.010394
0.008772
0.007703
0.006397
0.004813
0.004337
0.010176
0.010040
0.010314
0.005725
0.003557
0.006190
0.006175
0.008483
0.003265
0.012605
0.009087
0.002424
0.008472
0.008448
0.003374
0.003506
0.013491
0.008583
0.013153
0.004800
0.013712
0.009428
0.008300
0.009577
0.013972
0.005593
0.005318
0.013859
0.012133
0.007923
0.005186
0.001159
0.012853
0.013042
0.001840
0.010598
0.004911
0.004757
0.004625
0.004494
0.000883
0.006533
0.009725
0.012634
0.009763
0.013154
0.004918
0.008717
0.014020
0.007778
0.007956
0.007929
0.010814
0.002490
0.011763
0.007793
0.000617
0.000614
0.011783
0.011836
0.005969
0.011709
0.013934
0.003661
0.003654
0.011493
0.008478
0.001153
0.014265
0.011714
0.013953
0.012643
0.010341
0.013282
0.004773
0.007012
0.002735
0.012294
0.009983
0.010626
0.001948
0.004774
0.002551
0.014259
0.011715
0.009947
0.012180
0.007403
0.004670
0.005578
0.006289
0.003126
0.002992
0.002985
0.002980
0.003255
0.008716
0.008266
0.008360
0.013653
0.008197
0.011489
0.013986
0.014026
0.009850
0.009990
0.012600
0.012823
0.005870
0.005002
0.006236
0.012930
0.003232
0.010889
0.011038
0.010939
0.012993
0.013878
0.012035
0.011817
0.006098
0.013981
0.012399
0.011114
0.004799
0.014208
0.000800
0.013155
0.011660
0.012274
0.001087
0.006008
0.013070
0.003713
0.000611
0.007162
0.001153
0.001153
0.003145
0.002310
0.007902
0.001025
0.005208
0.000315
0.011349
0.011024
0.010611
0.010542
0.010368
0.010295
0.010022
0.008916
0.008771
0.010037
0.010040
0.010448
0.004999
0.006565
0.006548
0.006823
0.006805
0.006951
0.003258
0.002986
0.002699
0.007585
0.002560
0.002692
0.007565
0.007710
0.002415
0.007981
0.008228
0.008978
0.013400
0.002535
0.013564
0.003069
0.002260
0.002122
0.001985
0.003754
0.004425
0.004695
0.004714
0.001452
0.006397
0.009447
0.001730
0.001591
0.009577
0.013877
0.013861
0.001362
0.001496
0.001433
0.011217
0.009725
0.001502
0.001630
0.013890
0.007038
0.001623
0.002188
0.001045
0.012081
0.001171
0.005292
0.013947
0.009908
0.005515
0.011079
0.007287
0.013855
0.003044
0.013023
0.002824
0.006068
0.008340
0.008194
0.002687
0.002546
0.001044
0.004923
0.005048
0.008051
0.006211
0.013902
0.010294
0.013001
0.011766
0.013991
0.011002
0.005721
0.006578
0.004134
0.012076
0.005149
0.002275
0.005700
0.000639
0.000917
0.008025
0.011940
0.012979
0.013061
0.011445
0.003359
0.012381
0.007759
0.013403
0.005825
0.011849
0.010470
0.008299
0.011959
0.008828
0.000476
0.012021
0.003451
0.002156
0.009942
0.003088
0.009264
0.010694
0.009902
0.014421
0.004994
0.001333
0.014064
0.003511
0.004290
0.010971
0.005571
0.005723
0.012251
0.013104
0.002560
0.013425
0.008439
0.006321
0.006159
0.006888
0.005867
0.005751
0.001490
0.005604
0.005615
0.002049
0.006776
0.000891
0.001292
0.001298
0.001304
0.013858
0.013883
0.006132
0.001309
0.005643
0.005183
0.012283
0.008350
0.013160
0.013104
0.014155
0.006068
0.013961
0.014230
0.001757
0.014283
0.000744
0.014127
0.012003
0.013763
0.008384
0.012603
0.012710
0.003143
0.002843
0.013104
0.002727
0.002701
0.002410
0.002269
0.013618
0.013380
0.013381
0.013382
0.013384
0.008139
0.011002
0.005334
0.005343
0.005463
0.001627
0.001622
0.001618
0.001478
0.001608
0.008694
0.012589
0.012465
0.009071
0.009096
0.008279
0.008298
0.013748
0.001024
0.004238
0.001294
0.008447
0.007023
0.005636
0.003204
0.012772
0.013649
0.009745
0.011096
0.011089
0.000756
0.009619
0.003895
0.012892
0.011022
0.008417
0.002586
0.013867
0.010461
0.005268
0.001833
0.014265
0.008485
0.011361
0.001050
0.013903
0.014197
0.012107
0.008755
0.008714
0.000887
0.000754
0.000800
0.000930
0.002773
0.008618
0.013381
0.006220
0.000612
0.008530
0.014316
0.000604
0.012605
0.012311
0.002162
0.006480
0.001288
0.004395
0.010031
0.011337
0.008073
0.009318
0.011428
0.014328
0.014041
0.013600
0.011435
0.006686
0.002903
0.005502
0.014230
0.006816
0.006805
0.005694
0.005700
0.005547
0.005540
0.004670
0.005564
0.005710
0.005714
0.011083
0.009646
0.009592
0.009714
0.009506
0.002857
0.002992
0.002980
0.007042
0.002259
0.003117
0.002118
0.003255
0.003901
0.013576
0.013712
0.001577
0.001873
0.005994
0.005421
0.001161
0.014042
0.014107
0.012003
0.013907
0.013829
0.013783
0.009369
0.001437
0.012512
0.002565
0.010908
0.014195
0.005794
0.005508
0.013390
0.003175
0.000598
0.005803
0.006081
0.011916
0.011693
0.000692
0.004660
0.002823
0.005369
0.006345
0.006091
0.005517
0.005525
0.008946
0.014145
0.009169
0.009640
0.013939
0.005592
0.007923
0.011354
0.001999
0.006230
0.008224
0.005681
0.005673
0.014087
0.014217
0.014094
-0.000000
0.000167
0.000138
0.014155
0.006537
0.011224
0.003005
0.007382
0.003392
0.002241
0.002375
0.010633
0.003381
0.003518
0.003654
0.012427
0.013952
0.003912
0.013790
0.011782
0.012723
0.012595
0.008170
0.006468
0.010814
0.003615
0.001064
0.013144
0.014166
0.004190
0.014118
0.004782
0.006184
0.007899
0.002967
0.000172
0.013950
0.007712
0.007264
0.006388
0.006257
0.006117
0.005976
0.011230
0.011959
0.005489
0.011098
0.003134
0.003961
0.011076
0.011040
0.011028
0.011126
0.011096
0.011061
0.012920
0.002867
0.003008
0.010950
0.007525
0.002729
0.013153
0.013320
0.013147
0.013673
0.012956
0.013721
0.005729
0.013807
0.013822
0.012465
0.005720
0.012885
0.009835
0.010037
0.001293
0.010212
0.011825
0.013912
0.012892
0.008215
0.005900
0.009796
0.011709
0.001448
0.004757
0.007914
0.011592
0.014137
0.002898
0.005969
0.000930
0.013319
0.004755
0.014171
0.010506
0.010173
0.014267
0.013155
0.008184
0.010292
0.012766
0.013398
0.009942
0.009771
0.009644
0.007119
0.014445
0.008485
0.008485
0.008628
0.008626
0.008615
0.008602
0.008455
0.008159
0.008150
0.008010
0.007861
0.007563
0.007414
0.010846
0.011605
0.011726
0.004826
0.005406
0.005259
0.005351
0.005341
0.005331
0.005467
0.005309
0.005298
0.005286
0.005433
0.005274
0.004982
0.005752
0.011001
0.010857
0.010271
0.012076
0.009423
0.009297
0.009170
0.002992
0.002989
0.002863
0.012950
0.009357
0.002409
0.008881
0.009156
0.001994
0.004435
0.002247
0.009283
0.009855
0.009208
0.010115
0.010229
0.010196
0.006686
0.005739
0.001620
0.003798
0.001581
0.001704
0.001832
0.011282
0.008071
0.009060
0.003904
0.013843
0.011635
0.008791
0.001024
0.009681
0.014127
0.012990
0.006575
0.003076
0.011195
0.002847
0.002838
0.008814
0.010419
0.010374
0.007780
0.007928
0.006468
0.011548
0.000987
0.000900
0.000907
0.012565
0.004680
0.007732
0.006451
0.010284
0.002441
0.007891
0.006087
0.000611
0.004713
0.008689
0.004567
0.004826
0.005274
0.005997
0.005803
0.002742
0.002420
0.014085
0.014115
0.007480
0.006474
0.007000
0.000467
0.013618
0.008375
0.009687
0.009902
0.006917
0.013730
0.012073
0.005725
0.005435
0.011940
0.012053
0.012386
0.004294
0.013070
0.013308
0.013254
0.004808
0.005621
0.013646
0.013724
0.013729
0.013733
0.013730
0.013393
0.001030
0.001027
0.010073
0.001292
0.012605
0.007547
0.005515
0.004782
0.014076
0.009301
0.004515
0.012983
0.009595
0.003207
0.013949
0.010021
0.013311
0.012605
0.014265
0.014295
0.006359
0.013710
0.012518
0.013965
0.001322
0.013055
0.012216
0.012107
0.012401
0.012706
0.005246
0.006089
0.006013
0.011076
0.011016
0.010988
0.003279
0.003007
0.003008
0.003008
0.002241
0.013394
0.012877
0.013058
0.012883
0.001585
0.013636
0.001546
0.001624
0.013576
0.001655
0.001648
0.001318
0.006386
0.013952
0.013830
0.012717
0.013970
0.001973
0.002918
0.004048
0.004337
0.001427
0.006666
0.005540
0.003197
0.003055
0.005002
0.011351
0.009322
0.000759
0.004482
0.013386
0.014240
0.003207
0.012984
0.003570
0.010460
0.014209
0.004512
0.002510
0.001872
0.014327
0.004645
0.004799
0.004782
0.004994
0.004224
0.012464
0.012021
0.011924
0.000936
0.005688
0.014003
0.000184
0.011629
0.009613
0.009645
0.009406
0.009283
0.009456
0.008768
0.007563
0.007414
0.010845
0.011725
0.004947
0.005079
0.005212
0.005344
0.005475
0.005870
0.005213
0.005194
0.006452
0.010900
0.011099
0.011219
0.011618
0.010394
0.011455
0.009398
0.011255
0.003134
0.002860
0.002851
0.002843
0.002701
0.002560
0.010013
0.002420
0.002279
0.002275
0.002129
0.009237
0.008862
0.002530
0.003909
0.011148
0.008785
0.013518
0.013390
0.001735
0.008161
0.004677
0.001820
0.009564
0.009406
0.008763
0.001600
0.011470
0.009709
0.013632
0.011801
0.001462
0.001318
0.011667
0.011184
0.011060
0.011068
0.010807
0.009719
0.001604
0.013776
0.005994
0.009997
0.010798
0.010815
0.012021
0.005985
0.010822
0.013641
0.011956
0.010005
0.010013
0.011958
0.013935
0.012377
0.012115
0.008289
0.008796
0.010541
0.010829
0.009885
0.007683
0.008912
0.001033
0.013801
0.013879
0.013776
0.013861
0.013967
0.013899
0.009711
0.013780
0.008765
0.010294
0.010834
0.010271
0.010498
0.010226
0.010198
0.010582
0.010708
0.010833
0.010956
0.010920
0.013829
0.004781
0.000894
0.009121
0.011042
0.007732
0.007882
0.007602
0.014130
0.010096
0.009674
0.009864
0.004341
0.010299
0.010432
0.006015
0.010971
0.009600
0.009749
0.009753
0.005984
0.005970
0.005956
0.009894
0.009619
0.007534
0.011140
0.010702
0.010404
0.005643
0.005385
0.004068
0.013656
0.005244
0.004985
0.000775
0.010974
0.012174
0.012389
0.010419
0.010304
0.010731
0.012999
0.013911
0.009168
0.009195
0.009340
0.004331
0.009913
0.006098
0.005825
0.006221
0.011744
0.011227
0.013368
0.011634
0.013254
0.009027
0.009592
0.000927
0.000946
0.006094
0.004714
0.011522
0.011411
0.011607
0.006594
0.010845
0.010550
0.009054
0.010441
0.014224
0.014130
0.014316
0.009201
0.010154
0.010432
0.011233
0.010279
0.011474
0.010905
0.013970
0.008771
0.013961
0.003735
0.013729
0.009482
0.009624
0.013947
0.014014
0.014065
0.012060
0.011774
0.011635
0.013308
0.010735
0.010034
0.006169
0.010130
0.012600
0.013727
0.013697
0.002174
0.000546
0.003255
0.009952
0.009964
0.010002
0.009034
0.009180
0.014364
0.013988
0.010627
0.004757
0.005811
0.013440
0.012605
0.004548
0.012400
0.004814
0.005357
0.005287
0.005285
0.005142
0.005369
0.005309
0.005286
0.005274
0.004994
0.005262
0.004558
0.004414
0.004425
0.005408
0.005606
0.005620
0.005737
0.009673
0.002867
0.002854
0.002716
0.002710
0.005237
0.002975
0.009864
0.009981
0.010329
0.002269
0.002540
0.003260
0.003112
0.004435
0.003398
0.002148
0.010341
0.006122
0.005997
0.006144
0.001140
0.009087
0.012601
0.012474
0.009510
0.009624
0.002676
0.003587
0.001430
0.013822
0.006727
0.008618
0.002834
0.005256
0.004865
0.009797
0.011724
0.000799
0.014166
0.014255
0.000623
0.003307
0.002823
0.000530
0.008374
0.009918
0.006723
0.005997
0.005862
0.002876
0.005811
0.006257
0.005031
0.004064
0.005552
0.005422
0.005565
0.005174
0.012766
0.013047
0.006918
0.004300
0.005275
0.003107
0.014468
0.014461
0.013198
0.014427
0.012184
0.005718
0.005428
0.005720
0.005723
0.005809
0.005868
0.012337
0.012580
0.006933
0.007061
0.002868
0.002857
0.013321
0.013400
0.002264
0.012990
0.001994
0.002004
0.004547
0.006308
0.006294
0.006172
0.001540
0.005075
0.012745
0.013658
0.012408
0.014005
0.003047
0.012077
0.012288
0.013979
0.006054
0.004614
0.004376
0.013028
0.005057
0.004570
0.008105
0.006964
0.004396
0.007839
0.014087
0.008375
0.000263
0.006089
0.013155
0.012324
0.012216
0.012107
0.011997
0.012506
0.005714
0.005580
0.005290
0.005145
0.005282
0.005275
0.003548
0.005998
0.003546
0.003269
0.011724
0.003137
0.003004
0.002868
0.003008
0.002860
0.002726
0.008497
0.002259
0.008448
0.008618
0.002118
0.009098
0.003909
0.009071
0.003535
0.003387
0.013213
0.009333
0.013465
0.012974
0.013151
0.012880
0.012877
0.013604
0.012784
0.012681
0.013206
0.013109
0.003679
0.003541
0.012999
0.003673
0.003823
0.003967
0.006036
0.013646
0.001553
0.003381
0.003661
0.003238
0.003511
0.003504
0.001302
0.004111
0.006260
0.012575
0.004116
0.004121
0.004125
0.004129
0.005883
0.005435
0.006639
0.012717
0.001001
0.007944
0.008065
0.006384
0.014055
0.004351
0.004220
0.010294
0.005839
0.004994
0.011899
0.002469
0.012493
0.013646
0.007192
0.005515
0.004918
0.004735
0.004604
0.012842
0.008032
0.005922
0.007043
0.004483
0.004362
0.004220
0.010073
0.007914
0.001436
0.004087
0.012506
0.002529
0.005940
0.007432
0.005963
0.011831
0.008119
0.004240
0.013405
0.011522
0.004410
0.003946
0.004991
0.008571
0.008596
0.005290
0.012150
0.006097
0.013479
0.010329
0.003415
0.003411
0.013482
0.001558
0.002805
0.003225
0.011233
0.003407
0.002567
0.004888
0.013710
0.014153
0.005000
0.009316
0.004564
0.009658
0.000002
0.002509
0.009686
0.009465
0.009498
0.009527
0.006816
0.006805
0.006265
0.005547
0.005253
0.004425
0.004414
0.010976
0.012504
0.005706
0.005710
0.005270
0.005462
0.003258
0.006128
0.011242
0.011361
0.011478
0.010096
0.009673
0.012337
0.006419
0.012893
0.012982
0.012890
0.002996
0.003001
0.002722
0.012359
0.013155
0.013321
0.010214
0.013126
0.012029
0.002397
0.013454
0.004417
0.011916
0.007055
0.009418
0.011840
0.004825
0.004834
0.004955
0.008741
0.009564
0.009575
0.011618
0.001509
0.011418
0.011184
0.010934
0.009709
0.003798
0.003497
0.001750
0.001743
0.008761
0.001369
0.010807
0.012021
0.012539
0.006513
0.008016
0.010956
0.010013
0.009878
0.011956
0.003847
0.010670
0.011396
0.010829
0.009885
0.007300
0.013535
0.010119
0.010962
0.008912
0.010532
0.011754
0.011638
0.013859
0.007211
0.009510
0.014107
0.010402
0.010381
0.010498
0.010356
0.010342
0.010455
0.010708
0.010833
0.010815
0.010920
0.004912
0.004651
0.011515
0.012286
0.007989
0.007967
0.007861
0.001564
0.010460
0.004777
0.009714
0.009864
0.004521
0.010044
0.011042
0.010299
0.002963
0.007582
0.005146
0.012808
0.009743
0.009749
0.009611
0.009753
0.009616
0.011101
0.003083
0.003374
0.001966
0.001902
0.011172
0.010672
0.010702
0.010553
0.004473
0.008599
0.000775
0.003851
0.008275
0.011821
0.010974
0.005932
0.005508
0.009622
0.003324
0.003181
0.009477
0.004351
0.004230
0.008739
0.011104
0.012143
0.009338
0.009340
0.010279
0.004331
0.013079
0.006621
0.003177
0.009350
0.011224
0.008888
0.006219
0.014017
0.001108
0.000922
0.001063
0.000499
0.011559
0.009198
0.009200
0.010129
0.001200
0.013368
0.004555
0.006321
0.011458
0.005151
0.005005
0.006091
0.013861
0.010154
0.010299
0.004845
0.010712
0.012174
0.010432
0.010441
0.013141
0.005517
0.007312
0.009483
0.001304
0.003422
0.013070
0.009894
0.011106
0.010550
0.006423
0.002159
0.002020
0.005162
0.004856
0.007882
0.008073
0.005533
0.013238
0.013317
0.010002
0.009891
0.014414
0.014104
0.004435
0.004270
0.005578
0.005434
0.005564
0.005265
0.005259
0.012802
0.010950
0.006257
0.006402
0.006677
0.002863
0.002113
0.008462
0.007773
0.011077
0.008161
0.013531
0.013681
0.001743
0.013683
0.013740
0.001471
0.011723
0.012038
0.013653
0.003791
0.003961
0.003776
0.003489
0.013899
0.001037
0.001280
0.004132
0.004273
0.004135
0.004137
0.003211
0.012885
0.003912
0.004100
0.014048
0.004389
0.003760
0.012150
0.013821
0.003069
0.013958
0.003895
0.000861
0.012053
0.002934
0.005001
0.006118
0.006103
0.005822
0.006236
0.006089
0.004787
0.004996
0.001699
0.004123
0.007460
0.004674
0.005941
0.005675
0.004220
0.009823
0.014195
0.005302
0.011691
0.010850
0.010429
0.000798
0.014240
0.004713
0.005861
0.004813
0.004680
0.014068
0.004826
0.006451
0.006578
0.006690
0.006452
0.010493
0.014382
0.004570
0.004568
0.004567
0.004562
0.004559
0.004841
0.004820
0.006729
0.005542
0.005408
0.005274
0.005140
0.005286
0.005005
0.005433
0.006859
0.013131
0.005927
0.014021
0.003709
0.003424
0.013055
0.001562
0.008900
0.005000
0.004725
0.012800
0.013683
0.001439
0.002165
0.014021
0.007115
0.006388
0.006109
0.005969
0.005688
0.004455
0.012074
0.011959
0.004106
0.003679
0.003828
0.011068
0.011060
0.011040
0.010973
0.010939
0.012517
0.002838
0.003286
0.002729
0.002824
0.013305
0.002394
0.013153
0.013320
0.012956
0.006146
0.006036
0.013658
0.013884
0.013638
0.013890
0.012727
0.004376
0.014193
0.004793
0.011840
0.006014
0.006132
0.004660
0.000790
0.004768
0.011474
0.005142
0.014208
0.014045
0.002651
0.011458
0.004852
0.004551
0.003798
0.014058
0.002310
0.012335
0.005580
0.008414
0.010815
0.014109
0.014077
0.014104
0.014291
0.002903
0.006396
0.008720
0.010134
0.010398
0.011846
0.014196
0.007553
0.007264
0.004464
0.004280
0.003717
0.003841
0.005344
0.005571
0.005574
0.005577
0.005431
0.005253
0.005540
0.005239
0.005099
0.005084
0.005066
0.003550
0.010864
0.006386
0.012793
0.012920
0.006915
0.006933
0.003145
0.002865
0.002866
0.002865
0.002107
0.004155
0.004163
0.002100
0.006470
0.006321
0.013386
0.013388
0.006443
0.006172
0.008393
0.001746
0.001750
0.005751
0.003918
0.008221
0.003832
0.005740
0.005615
0.006513
0.003852
0.004283
0.005478
0.013970
0.004048
0.001140
0.003580
0.007284
0.004192
0.004201
0.004482
0.014055
0.006184
0.007007
0.006294
0.006160
0.006159
0.003062
0.003055
0.003047
0.002913
0.014130
0.014156
0.000721
0.001701
0.002238
0.004369
0.006000
0.006905
0.012760
0.004625
0.003946
0.009710
0.011773
0.011670
0.011547
0.007879
0.004628
0.013240
0.004854
0.002682
0.006649
0.006616
0.006599
0.011908
0.004181
0.012632
0.006988
0.007246
0.007246
0.004799
0.014186
0.006705
0.005204
0.004713
0.004645
0.006970
0.005016
0.005027
0.005037
0.004745
0.006913
0.006798
0.011621
0.005194
0.005995
0.004217
0.004080
0.005960
0.005664
0.004945
0.005706
0.003571
0.003711
0.003426
0.014177
0.006613
0.004003
0.003813
0.007012
0.006862
0.006980
0.006713
0.006578
0.013632
0.002448
0.002170
0.002168
0.005700
0.005688
0.013211
0.008485
0.008485
0.008340
0.008481
0.008447
0.008159
0.008010
0.004628
0.004473
0.010714
0.005568
0.005047
0.003993
0.010879
0.010857
0.011595
0.010122
0.009973
0.012276
0.009619
0.009272
0.002989
0.012873
0.012741
0.009357
0.002867
0.007042
0.009208
0.008724
0.002144
0.008999
0.004024
0.013551
0.006891
0.013321
0.013154
0.001820
0.010196
0.008403
0.005899
0.013807
0.001600
0.001442
0.001692
0.013944
0.011282
0.011808
0.001502
0.012229
0.003855
0.004141
0.012829
0.006503
0.007529
0.013975
0.011935
0.005911
0.005636
0.006117
0.005922
0.012798
0.003855
0.002847
0.002906
0.002757
0.001400
0.002706
0.002569
0.002701
0.002697
0.002975
0.002692
0.006303
0.001835
0.002643
0.003617
0.004473
0.008949
0.013971
0.000679
0.006495
0.005840
0.000768
0.000917
0.000951
0.000542
0.008251
0.001623
0.001617
0.005075
0.002397
0.003600
0.003735
0.010225
0.001304
0.003878
0.003904
0.003592
0.014086
0.003429
0.014090
0.007162
0.007177
0.003804
0.001569
0.002171
0.010842
0.007772
0.010788
0.005279
0.009763
0.014400
0.000217
0.012718
0.000345
0.013544
0.013678
0.013449
0.013352
0.013254
0.012990
0.012605
0.012395
0.006955
0.006537
0.006527
0.005694
0.005406
0.005559
0.005540
0.005393
0.005099
0.006943
0.004806
0.004653
0.004491
0.004637
0.004482
0.004300
0.010583
0.004404
0.003993
0.003851
0.012400
0.003557
0.005564
0.005421
0.005857
0.005222
0.005213
0.005498
0.005204
0.005194
0.005184
0.005173
0.005456
0.005162
0.005151
0.005140
0.005421
0.004848
0.005262
0.004703
0.004414
0.004270
0.004280
0.004127
0.004681
0.003984
0.005555
0.005689
0.005529
0.003699
0.005822
0.003150
0.003275
0.011224
0.010956
0.011208
0.002729
0.002728
0.007024
0.007294
0.007006
0.012565
0.003770
0.003901
0.003893
0.009710
0.010001
0.006931
0.006644
0.007068
0.006905
0.013467
0.013541
0.013609
0.001680
0.013352
0.010375
0.010487
0.006984
0.012397
0.010598
0.006826
0.006677
0.006816
0.010598
0.001707
0.010744
0.010854
0.009681
0.001752
0.001755
0.001757
0.001895
0.012395
0.011070
0.006527
0.008016
0.008131
0.010781
0.001413
0.005417
0.007865
0.007980
0.012499
0.012603
0.009706
0.006388
0.006517
0.006546
0.004141
0.007830
0.006283
0.004284
0.004283
0.004282
0.004281
0.004424
0.004278
0.008472
0.012601
0.012496
0.012603
0.009873
0.013922
0.006639
0.006249
0.006406
0.007796
0.007564
0.007679
0.000902
0.006805
0.006506
0.007414
0.007529
0.006495
0.006483
0.006345
0.006470
0.006457
0.006742
0.007379
0.007510
0.007342
0.007342
0.007323
0.007472
0.011446
0.011929
0.012229
0.006443
0.007304
0.007304
0.005774
0.010020
0.010037
0.004417
0.013918
0.004559
0.012598
0.001161
0.003587
0.006448
0.007433
0.006414
0.006554
0.011975
0.012377
0.001001
0.003983
0.006533
0.004555
0.004700
0.004845
0.001344
0.006955
0.006421
0.006427
0.006433
0.006877
0.006713
0.008112
0.005533
0.002623
0.002483
0.002349
0.012595
0.003347
0.003625
0.003331
0.004129
0.003847
0.006445
0.004991
0.004852
0.003174
0.003458
0.006781
0.006755
0.005794
0.006070
0.005360
0.004841
0.003047
0.003844
0.000581
0.006251
0.004987
0.011405
0.005092
0.006580
0.005942
0.005803
0.003895
0.000808
0.011717
0.009416
0.009414
0.013403
0.006303
0.006450
0.006157
0.006298
0.006548
0.007117
0.004609
0.007355
0.006733
0.007012
0.005222
0.005369
0.006741
0.006208
0.007327
0.003316
0.003466
0.014310
0.006414
0.006118
0.006280
0.006451
0.008546
0.004814
0.002222
0.006230
0.005237
0.005224
0.006146
0.005849
0.006011
0.005715
0.004937
0.002735
0.004125
0.004269
0.006294
0.006442
0.006004
0.006290
0.006285
0.006844
0.006695
0.005656
0.005231
0.003430
0.003935
0.006100
0.005952
0.005942
0.007597
0.007748
0.007447
0.007177
0.002920
0.008417
0.004600
0.005932
0.005922
0.005911
0.003887
0.006941
0.003928
0.003430
0.006427
0.003561
0.006480
0.004905
0.007146
0.009793
0.006569
0.006506
0.004261
0.004401
0.004686
0.007280
0.006964
0.007231
0.006494
0.002174
0.002173
0.003307
0.007839
0.007711
0.006918
0.007218
0.004813
0.005952
0.004156
0.007732
0.007752
0.007792
0.007641
0.005681
0.005821
0.005673
0.006517
0.005270
0.005433
0.006703
0.007898
0.014429
0.014166
0.013977
0.013961
0.013960
0.013963
0.013968
0.013995
0.014011
0.014030
0.014052
0.014134
0.014183
0.014235
0.014346
0.014381
0.014414
0.014442
0.014429
0.000231
0.000550
0.001653
0.001952
0.002428
0.003208
0.003686
0.004138
0.006684
0.007014
0.007431
0.007711
0.008035
0.008312
0.009034
0.009307
0.009587
0.009857
0.010695
0.011077
0.011464
0.012221
0.012487
0.012724
0.012971
0.013761
0.013971
0.013207
0.012180
0.011962
0.007692
0.007403
0.006686
0.006257
0.006117
0.005976
0.005828
0.004820
0.004674
0.004529
0.004660
0.004515
0.004238
0.004507
0.004499
0.011230
0.011960
0.011960
0.012074
0.012185
0.012294
0.012295
0.012505
0.003557
0.003416
0.006089
0.003275
0.006221
0.006059
0.012706
0.012706
0.006044
0.006028
0.005883
0.006369
0.003134
0.003017
0.003258
0.003961
0.003967
0.003684
0.003546
0.003689
0.003541
0.003407
0.003403
0.010967
0.011193
0.011184
0.011164
0.010891
0.011140
0.011126
0.011096
0.012895
0.012768
0.002838
0.002699
0.003374
0.003284
0.003146
0.002866
0.002868
0.003149
0.002869
0.003149
0.002868
0.008763
0.010822
0.003426
0.007276
0.013305
0.007401
0.007114
0.007525
0.013356
0.003506
0.007649
0.008718
0.008590
0.003638
0.007669
0.013488
0.008149
0.008016
0.007882
0.007748
0.007613
0.007312
0.007628
0.007342
0.007642
0.007778
0.007656
0.007669
0.007553
0.007254
0.007355
0.007205
0.007115
0.007274
0.006975
0.008583
0.007283
0.006993
0.007291
0.013462
0.013465
0.013239
0.013321
0.013154
0.013153
0.013150
0.012880
0.012784
0.007298
0.007007
0.001714
0.008451
0.008601
0.013237
0.012787
0.010148
0.007304
0.007310
0.007019
0.001710
0.001540
0.007314
0.007023
0.008317
0.007793
0.008393
0.007318
0.007462
0.007174
0.007177
0.007179
0.007179
0.008370
0.008167
0.001761
0.001762
0.001898
0.013324
0.013409
0.013491
0.013570
0.013719
0.013733
0.013846
0.013491
0.008094
0.012838
0.001840
0.006888
0.012676
0.012458
0.012243
0.012124
0.012003
0.012105
0.012271
0.005737
0.005449
0.005305
0.013893
0.013393
0.011878
0.012093
0.012081
0.005331
0.013852
0.011782
0.006592
0.012193
0.005292
0.013854
0.006871
0.001164
0.006589
0.011763
0.013387
0.013206
0.005067
0.004768
0.004900
0.004625
0.004483
0.004615
0.013213
0.012493
0.012891
0.011871
0.003848
0.011709
0.008350
0.008200
0.008365
0.008229
0.008079
0.002772
0.011477
0.002335
0.006438
0.003076
0.003069
0.003211
0.002786
0.002644
0.005566
0.007014
0.007019
0.009459
0.013947
0.001833
0.007806
0.007929
0.007656
0.007778
0.004791
0.007162
0.002328
0.002637
0.002362
0.002630
0.002623
0.006575
0.007156
0.007162
0.009168
0.007506
0.011773
0.011646
0.002483
0.013378
0.012790
0.012019
0.000707
0.011151
0.011225
0.011374
0.007529
0.011365
0.003946
0.011592
0.012276
0.002750
0.008064
0.003368
0.011783
0.012021
0.011801
0.012037
0.011808
0.011815
0.012049
0.011458
0.003381
0.014029
0.011704
0.011698
0.011709
0.011714
0.012419
0.007298
0.007149
0.007446
0.007298
0.006859
0.011264
0.003798
0.011559
0.007606
0.012801
0.013068
0.002913
0.006485
0.008215
0.011720
0.014012
0.011321
0.007414
0.011459
0.004240
0.012290
0.011621
0.006876
0.006723
0.002868
0.004121
0.011541
0.007243
0.008049
0.006964
0.007097
0.002075
0.003431
0.011907
0.000484
0.011059
0.011022
0.007097
0.007239
0.007291
0.012148
0.013155
0.006710
0.006844
0.011396
0.007697
0.011792
0.006887
0.006433
0.007929
0.004526
0.002342
0.002476
0.002209
0.002215
0.002173
0.002035
0.012659
0.003422
0.007191
0.005715
0.002846
0.008505
0.011348
0.010942
0.003289
0.004117
0.014461
0.011997
0.011741
0.007572
0.007553
0.011104
0.011605
0.011844
0.011725
0.012295
0.012506
0.003407
0.003126
0.003269
0.011042
0.011826
0.012517
0.009441
0.009535
0.003127
0.013070
0.012984
0.002865
0.002867
0.002727
0.008914
0.002587
0.002686
0.008936
0.013256
0.013227
0.013356
0.002580
0.010444
0.003762
0.011039
0.009148
0.013391
0.007681
0.007692
0.008716
0.013380
0.013448
0.013450
0.013382
0.013452
0.013452
0.013453
0.013455
0.013386
0.013063
0.012681
0.007998
0.004677
0.011002
0.007452
0.007594
0.005075
0.013681
0.013727
0.013740
0.007321
0.007179
0.001534
0.006886
0.001922
0.001481
0.001763
0.001763
0.001763
0.008346
0.001298
0.013813
0.006739
0.006880
0.008621
0.007229
0.009737
0.006876
0.001168
0.003715
0.012600
0.007491
0.014118
0.004410
0.002985
0.008093
0.008243
0.012181
0.002586
0.003663
0.002959
0.002953
0.002676
0.003083
0.011073
0.010642
0.009187
0.012603
0.012603
0.007793
0.002104
0.002512
0.003045
0.007956
0.002937
0.010741
0.010988
0.010257
0.002448
0.002588
0.002462
0.003175
0.003075
0.012984
0.000974
0.009552
0.000953
0.000807
0.006004
0.006008
0.002728
0.002055
0.005503
0.002581
0.013080
0.002441
0.001833
0.005299
0.003597
0.007831
0.006972
0.002525
0.002588
0.008130
0.010612
0.007470
0.007600
0.008678
0.012160
0.002670
0.013714
0.012400
0.012371
0.010642
0.012115
0.012984
0.007748
0.007580
0.006333
0.009111
0.002110
0.002311
0.002805
0.003101
0.007563
0.010971
0.007712
0.009832
0.005043
0.003063
0.002729
0.000215
0.000169
0.000060
0.000032
0.003592
0.000423
0.014300
0.011516
0.011464
0.011261
0.011024
0.010611
0.010785
0.010368
0.010542
0.010419
0.010295
0.009920
0.009644
0.009814
0.009516
0.009686
0.009258
0.009447
0.009595
0.009482
0.009201
0.009498
0.009630
0.009232
0.009527
0.009553
0.009687
0.009564
0.009698
0.009575
0.009293
0.009584
0.009719
0.009311
0.009600
0.009736
0.009606
0.009325
0.009611
0.009616
0.009334
0.009619
0.009760
0.009195
0.009200
0.008913
0.008771
0.008916
0.008628
0.008485
0.008629
0.008341
0.008628
0.008626
0.008771
0.008623
0.008619
0.008765
0.008615
0.008755
0.008602
0.008314
0.008447
0.008167
0.008298
0.008150
0.009597
0.004346
0.009900
0.009898
0.010039
0.009902
0.010177
0.010176
0.010314
0.010449
0.010583
0.010716
0.010846
0.010845
0.011605
0.011960
0.010219
0.003142
0.006548
0.006841
0.008340
0.006677
0.006970
0.006805
0.011022
0.011001
0.011122
0.010834
0.011242
0.011361
0.011478
0.010542
0.010295
0.011826
0.011688
0.011940
0.012165
0.012276
0.009770
0.009742
0.012495
0.009714
0.012580
0.009423
0.012687
0.009685
0.009297
0.012793
0.011636
0.010821
0.003118
0.002986
0.002846
0.009170
0.011140
0.009656
0.002992
0.012898
0.012893
0.012890
0.012889
0.012887
0.012787
0.012580
0.007061
0.002838
0.002851
0.002996
0.002999
0.009042
0.009626
0.007480
0.003001
0.012471
0.013066
0.003004
0.009477
0.012977
0.007606
0.006915
0.002567
0.009745
0.007440
0.007732
0.009236
0.002560
0.007565
0.009864
0.010447
0.008742
0.012243
0.007689
0.007981
0.009981
0.002547
0.002282
0.002409
0.010098
0.008128
0.008374
0.008806
0.008205
0.002409
0.010214
0.008978
0.013256
0.008151
0.002005
0.002132
0.002535
0.012021
0.012547
0.010444
0.008862
0.008714
0.013406
0.013407
0.013324
0.013323
0.013407
0.013405
0.009125
0.010557
0.012148
0.002127
0.012205
0.002397
0.012422
0.002800
0.010516
0.013312
0.011723
0.009302
0.009361
0.002260
0.010633
0.010929
0.002260
0.002392
0.009418
0.007753
0.007895
0.010854
0.011039
0.008847
0.009189
0.009508
0.009654
0.009771
0.002122
0.008018
0.010040
0.009246
0.009128
0.008957
0.008806
0.008656
0.008634
0.008545
0.008244
0.008112
0.007980
0.007842
0.013153
0.013232
0.013449
0.013450
0.013451
0.008139
0.001985
0.009429
0.009553
0.011114
0.013109
0.011955
0.009685
0.003196
0.011257
0.009087
0.011720
0.013681
0.003608
0.003477
0.003747
0.003740
0.003754
0.003871
0.004155
0.004147
0.004294
0.004303
0.004564
0.004964
0.004816
0.005094
0.004714
0.004946
0.005353
0.005482
0.011364
0.008612
0.008260
0.001714
0.001856
0.001452
0.001447
0.012999
0.011470
0.009698
0.009541
0.009575
0.011825
0.011940
0.008381
0.005621
0.005760
0.005889
0.005739
0.006144
0.013630
0.011923
0.008590
0.012885
0.007179
0.007325
0.004140
0.010090
0.007991
0.001318
0.001528
0.001515
0.005197
0.011428
0.011766
0.011660
0.011827
0.011548
0.011418
0.011297
0.011437
0.011316
0.011930
0.010798
0.010942
0.009408
0.009297
0.005749
0.011924
0.007177
0.006283
0.001369
0.001763
0.001491
0.001763
0.001490
0.001761
0.001898
0.001759
0.001487
0.001755
0.001752
0.001890
0.001746
0.001474
0.001743
0.001735
0.001730
0.001725
0.001720
0.001576
0.001844
0.001570
0.001838
0.001832
0.001826
0.001966
0.001814
0.001540
0.001808
0.001948
0.001801
0.001528
0.001795
0.001788
0.009706
0.008140
0.001782
0.011929
0.011975
0.011176
0.006386
0.006662
0.001375
0.001223
0.001350
0.009863
0.008567
0.008845
0.010670
0.010950
0.011907
0.001184
0.001323
0.001309
0.005190
0.011883
0.007174
0.007321
0.007027
0.006296
0.008879
0.008996
0.006801
0.010119
0.009976
0.010139
0.009728
0.010147
0.009878
0.009259
0.012071
0.009744
0.001915
0.001369
0.001496
0.001490
0.008130
0.008289
0.012377
0.001211
0.001071
0.006901
0.007176
0.009113
0.001050
0.012753
0.012536
0.012677
0.009180
0.008439
0.009096
0.009195
0.009045
0.009169
0.009469
0.010532
0.011774
0.011792
0.006815
0.007465
0.009229
0.009090
0.012634
0.011396
0.012066
0.009743
0.010002
0.009891
0.008428
0.002049
0.013645
0.013791
0.013796
0.007438
0.007577
0.005053
0.010251
0.008266
0.008791
0.010541
0.010392
0.011638
0.000915
0.001617
0.008116
0.013796
0.013787
0.013835
0.013843
0.013798
0.013814
0.013944
0.013952
0.007944
0.009344
0.009537
0.009737
0.009850
0.006890
0.007026
0.002182
0.012675
0.007468
0.007609
0.007462
0.009908
0.001751
0.010160
0.012859
0.010563
0.010967
0.010261
0.008462
0.009864
0.001973
0.002107
0.002240
0.010411
0.010369
0.010356
0.010342
0.010213
0.010327
0.010724
0.010565
0.010691
0.010973
0.010815
0.010797
0.011061
0.005060
0.004917
0.001095
0.000961
0.004781
0.007150
0.012753
0.012753
0.000967
0.000948
0.000920
0.000910
0.002238
0.002509
0.002379
0.002516
0.002918
0.003050
0.003183
0.003179
0.003451
0.003583
0.009822
0.010101
0.009619
0.009592
0.002794
0.010381
0.009247
0.010777
0.013160
0.012286
0.010020
0.010212
0.007711
0.007882
0.007582
0.007192
0.000942
0.007275
0.003712
0.004647
0.009964
0.009527
0.009892
0.010014
0.004386
0.004526
0.004251
0.004116
0.004210
0.010226
0.002036
0.007641
0.008447
0.010013
0.010162
0.011022
0.009142
0.012264
0.003382
0.008566
0.008405
0.003177
0.008341
0.008194
0.008196
0.008192
0.008049
0.008515
0.012072
0.007861
0.008026
0.009736
0.009606
0.009611
0.009468
0.009890
0.009616
0.011094
0.011101
0.002448
0.003655
0.003374
0.009477
0.009480
0.009338
0.013891
0.005857
0.012723
0.002843
0.002838
0.002834
0.002828
0.002823
0.002965
0.003089
0.003095
0.002560
0.002424
0.002410
0.007150
0.010889
0.010959
0.010992
0.010791
0.010759
0.010672
0.011434
0.010553
0.000770
0.000925
0.008703
0.008393
0.008379
0.008665
0.008365
0.008500
0.008481
0.010461
0.010343
0.010578
0.004200
0.008609
0.007905
0.008051
0.006211
0.005280
0.007614
0.007605
0.008835
0.007346
0.010568
0.000679
0.000807
0.008291
0.000661
0.000808
0.012842
0.002237
0.009796
0.003987
0.002240
0.002374
0.002646
0.002641
0.002911
0.002640
0.009777
0.002800
0.002662
0.003201
0.012580
0.012603
0.001745
0.008423
0.007043
0.013312
0.012049
0.010842
0.010988
0.012501
0.008350
0.008485
0.010521
0.012965
0.010918
0.003786
0.010437
0.010582
0.010850
0.010284
0.010083
0.008650
0.008800
0.013457
0.011361
0.008691
0.013887
0.007902
0.010374
0.008545
0.003179
0.003043
0.011104
0.011706
0.011559
0.010374
0.003235
0.002308
0.009334
0.009198
0.010129
0.000790
0.008755
0.006354
0.006226
0.006482
0.010292
0.003577
0.010047
0.006746
0.006755
0.003177
0.007914
0.007806
0.000542
0.000721
0.007534
0.009513
0.013488
0.006122
0.005849
0.005841
0.006104
0.005700
0.006358
0.009436
0.011836
0.011590
0.011790
0.011887
0.011351
0.009567
0.000915
0.006846
0.006863
0.008852
0.008714
0.010955
0.009573
0.011262
0.011502
0.011763
0.011878
0.010383
0.008888
0.009456
0.004271
0.010402
0.010110
0.010237
0.011548
0.011806
0.012167
0.002275
0.011940
0.006895
0.007025
0.005138
0.002139
0.000974
0.010383
0.000854
0.000861
0.001134
0.000868
0.000887
0.000754
0.000764
0.000614
0.000768
0.000780
0.000781
0.001049
0.000785
0.000800
0.001068
0.000805
0.000808
0.000813
0.000678
0.000815
0.000818
0.000823
0.000813
0.000826
0.000688
0.001088
0.000822
0.000821
0.000821
0.000817
0.000811
0.004059
0.001286
0.004855
0.005126
0.008049
0.008046
0.007899
0.007506
0.001214
0.008159
0.011123
0.002370
0.002775
0.008025
0.005567
0.003583
0.008544
0.008442
0.008665
0.009855
0.009361
0.002156
0.007222
0.007969
0.011522
0.011447
0.001606
0.008398
0.011386
0.001617
0.010712
0.012290
0.008331
0.011941
0.011580
0.011709
0.002170
0.002441
0.002439
0.010419
0.010147
0.008623
0.011232
0.007314
0.008243
0.003227
0.011337
0.012490
0.012604
0.000511
0.012665
0.009200
0.009057
0.009482
0.010462
0.001867
0.001739
0.010105
0.010164
0.013235
0.011337
0.008988
0.008862
0.008999
0.009244
0.001344
0.001890
0.014379
0.009041
0.007760
0.010524
0.001054
0.007006
0.001221
0.006345
0.000555
0.000363
0.002101
0.008781
0.011224
0.009165
0.000557
0.000489
0.000415
0.010083
0.001467
0.001600
0.000644
0.000494
0.003046
0.008906
0.007660
0.008374
0.013238
0.009564
0.002535
0.011709
0.009482
0.003709
0.003444
0.003709
0.009935
0.010356
0.011831
0.008299
0.010343
0.010846
0.010557
0.010294
0.010013
0.010299
0.010437
0.010369
0.010485
0.011248
0.001055
0.007310
0.007594
0.008275
0.009058
0.009584
0.010441
0.010574
0.010574
0.013035
0.012003
0.002640
0.005812
0.008529
0.008963
0.010577
0.011335
0.008279
0.011219
0.011477
0.011355
0.002388
0.011028
0.010997
0.008895
0.009019
0.010779
0.012254
0.004643
0.002144
0.002148
0.009623
0.009483
0.011489
0.008934
0.007330
0.008496
0.014108
0.002029
0.008872
0.008733
0.009010
0.013632
0.006610
0.009145
0.009049
0.011325
0.008899
0.005303
0.003587
0.009645
0.013028
0.002301
0.007081
0.002282
0.002005
0.008992
0.001867
0.001328
0.003734
0.010857
0.010715
0.011559
0.010068
0.009665
0.007600
0.007736
0.007895
0.010687
0.007729
0.010461
0.000358
0.003088
0.007760
0.009052
0.004509
0.000604
0.007116
0.000389
0.008626
0.000597
0.000589
0.000581
0.000577
0.010115
0.006996
0.001977
0.002113
0.008203
0.002023
0.007265
0.007117
0.011106
0.005363
0.010177
0.010311
0.011899
0.009890
0.009894
0.009272
0.009170
0.010192
0.012371
0.010096
0.009938
0.010069
0.010977
0.008010
0.008018
0.010108
0.011201
0.009034
0.001375
0.010130
0.009855
0.010020
0.010977
0.010031
0.008895
0.008749
0.009041
0.008901
0.008910
0.007023
0.011566
0.001407
0.010279
0.009832
0.003110
0.014442
0.014455
0.013343
0.012954
0.004645
0.012399
0.003832
0.003955
0.012142
0.012662
0.006402
0.012980
0.012978
0.012585
0.006660
0.012575
0.003126
0.012465
0.012251
0.012141
0.012093
0.013576
0.012499
0.006376
0.012271
0.013875
0.011968
0.004923
0.012420
0.000868
0.008079
0.002342
0.006369
0.002934
0.002651
0.006501
0.006131
0.006442
0.002637
0.007492
0.011634
0.013989
0.011691
0.012493
0.011899
0.011657
0.011930
0.003082
0.014058
0.014326
0.014041
0.011502
0.006109
0.012447
0.013552
0.014269
0.013564
0.008182
0.000248
0.014243
0.004290
0.008741
0.008451
0.012853
0.006975
0.008468
0.006826
0.010708
0.008317
0.010816
0.006677
0.013590
0.013895
0.006537
0.006517
0.006546
0.012115
0.006397
0.006406
0.011992
0.011981
0.012477
0.011968
0.012081
0.006655
0.006644
0.006495
0.006483
0.006619
0.006470
0.006592
0.011955
0.012325
0.014076
0.008365
0.006368
0.012490
0.004985
0.006448
0.011923
0.011815
0.011936
0.011576
0.004999
0.013898
0.011704
0.006301
0.006596
0.006151
0.006451
0.008268
0.006147
0.006290
0.006285
0.006597
0.006239
0.005942
0.013382
0.005763
0.011453
0.006427
0.007353
0.011425
0.010993
0.006805
0.006554
0.014272
0.010898
0.008531
0.007217
0.006918
0.006176
0.005869
0.005574
0.004509
0.002662
0.002193
0.000141
0.000346
0.000365
0.000378
0.000355
0.000338
0.000331
0.000314
0.000258
0.000242
0.000148
0.014397
0.013055
0.011115
0.010490
0.010419
0.004619
0.004319
0.004310
0.003708
0.012706
0.006823
0.010735
0.011849
0.012472
0.009272
0.007353
0.002692
0.008936
0.008105
0.008228
0.009087
0.009108
0.009108
0.008350
0.009128
0.013493
0.010669
0.010817
0.008847
0.008696
0.009654
0.011296
0.013010
0.011257
0.012291
0.004425
0.004564
0.004695
0.005094
0.005214
0.005343
0.011217
0.001719
0.012289
0.012885
0.004003
0.001596
0.011827
0.006397
0.012286
0.001698
0.009725
0.005326
0.011076
0.009873
0.006376
0.004284
0.007806
0.009761
0.010053
0.005785
0.008323
0.008442
0.010294
0.012279
0.012466
0.012324
0.008650
0.003987
0.014196
0.008814
0.012983
0.010439
0.013876
0.012072
0.001065
0.005985
0.009963
0.006633
0.000502
0.000790
0.000692
0.000955
0.003580
0.002149
0.003095
0.012486
0.008523
0.012363
0.006728
0.008423
0.013047
0.013136
0.013035
0.008828
0.008417
0.011016
0.004641
0.010903
0.013406
0.009793
0.006742
0.011864
0.008976
0.001909
0.000478
0.009448
0.003498
0.013153
0.011434
0.011319
0.011288
0.011493
0.011232
0.011115
0.011086
0.010638
0.010516
0.010394
0.009897
0.009600
0.009611
0.009473
0.009619
0.009338
0.009057
0.008915
0.008913
0.008772
0.009760
0.009900
0.010039
0.010314
0.010714
0.011483
0.003566
0.008483
0.008105
0.008128
0.008350
0.009128
0.008151
0.003893
0.004286
0.012081
0.013391
0.007477
0.007642
0.007531
0.007403
0.007274
0.007124
0.007142
0.007291
0.007298
0.007156
0.007304
0.007167
0.007314
0.007171
0.007174
0.007030
0.007177
0.007034
0.009963
0.009428
0.012078
0.012854
0.004427
0.012071
0.014042
0.007683
0.006736
0.006733
0.006871
0.001134
0.008323
0.013293
0.013892
0.008665
0.008800
0.006585
0.006580
0.008335
0.009113
0.007007
0.007156
0.007001
0.013283
0.005140
0.010110
0.012279
0.009166
0.007149
0.007304
0.007001
0.011963
0.008834
0.003458
0.011698
0.011714
0.003001
0.013136
0.008268
0.006710
0.014145
0.013131
0.012295
0.010068
0.007893
0.013572
0.013687
0.011201
0.007922
0.004982
0.002351
0.000237
0.004328
0.005067
0.003142
0.012895
0.012981
0.013423
0.003122
0.004032
0.013712
0.007452
0.007179
0.007032
0.010418
0.013650
0.001763
0.007980
0.004141
0.006883
0.004140
0.004137
0.013909
0.011679
0.006876
0.004273
0.004414
0.004704
0.001027
0.007325
0.003347
0.005656
0.003988
0.003991
0.003985
0.004994
0.006644
0.005656
0.007969
0.003850
0.013733
0.003597
0.014200
0.005084
0.012038
0.012264
0.001159
0.012706
0.007736
0.007729
0.007581
0.004691
0.003112
0.008354
0.011143
0.007276
0.001856
0.010966
0.010966
0.008545
0.007692
0.007842
0.013630
0.007852
0.009698
0.007177
0.007030
0.013409
0.001762
0.001622
0.007991
0.008140
0.011736
0.013838
0.009319
0.007321
0.007318
0.008289
0.010261
0.008307
0.008314
0.009652
0.007465
0.014056
0.008462
0.001164
0.008586
0.004119
0.003983
0.008173
0.009463
0.011073
0.005913
0.008554
0.008393
0.008379
0.008515
0.008500
0.013813
0.008609
0.007609
0.007614
0.011161
0.012851
0.010225
0.007759
0.013908
0.011962
0.002448
0.000615
0.009350
0.012506
0.013847
0.014122
0.000994
0.001001
0.000895
0.000913
0.000956
0.000946
0.007902
0.007905
0.014228
0.002943
0.007732
0.006324
0.007314
0.008468
0.008769
0.012381
0.003561
0.008840
0.008852
0.008901
0.007452
0.011219
0.008946
0.004773
0.008881
0.005037
0.007594
0.007890
0.007742
0.008042
0.008879
0.013934
0.003443
0.001095
0.007942
0.008742
0.009034
-0.000002
0.004362
0.004354
0.009042
0.002831
0.008891
0.002553
0.013522
0.008184
0.010779
0.008221
0.007923
0.012718
0.005956
0.012662
0.001968
0.002510
0.002757
0.003374
0.007819
0.011422
0.011303
0.005319
0.003942
0.003570
0.003569
0.013204
0.006697
0.006713
0.002312
0.002451
0.002906
0.002359
0.011214
0.009626
0.009745
0.007895
0.013470
0.013541
0.013733
0.012753
0.013734
0.006666
0.005760
0.013867
0.008761
0.008879
0.009229
0.001909
0.001050
0.006357
0.011983
0.012081
0.007038
0.012701
0.004504
0.002817
0.003089
0.012987
0.013690
0.000981
0.013247
0.002595
0.008118
0.006569
0.000476
0.014324
0.013160
0.011602
0.002535
0.003572
0.000384
0.013667
0.002670
0.013978
0.009042
0.001726
0.014154
0.013391
0.012709
0.011227
0.011960
0.012185
0.011174
0.011152
0.010939
0.013154
0.013065
0.013061
0.008910
0.001457
0.013324
0.013570
0.013877
0.008752
0.001581
0.001576
0.001984
0.001686
0.001521
0.001703
0.001356
0.001915
0.001146
0.003993
0.013972
0.001171
0.014122
0.002794
0.003069
0.011355
0.002947
0.000615
0.013878
0.004093
0.009166
0.014255
0.002415
0.003609
0.012419
0.009740
0.010460
0.010563
0.013628
0.012868
0.014052
0.011864
0.004700
0.011580
0.014411
0.006781
0.003572
0.004841
0.009644
0.013748
0.011104
0.011232
0.011844
0.011042
0.009146
0.006805
0.013454
0.001856
0.008016
0.007423
0.007149
0.013832
0.006887
0.011871
0.006513
0.003995
0.001159
0.000891
0.013877
0.004604
0.010426
0.000615
0.011114
0.004999
0.013953
0.013439
0.007772
0.014161
0.007098
0.013493
0.013813
0.007206
0.014021
0.014177
0.013963
0.006865
0.003089
0.007914
0.013782
0.013713
0.013773
0.009482
0.006232
0.005269
0.008629
0.008483
0.008623
0.008478
0.008619
0.008468
0.008594
0.010583
0.011358
0.010879
0.010712
0.010566
0.010419
0.010122
0.009973
0.011803
0.009823
0.009548
0.009776
0.008733
0.010066
0.008872
0.007314
0.009010
0.010557
0.008999
0.009147
0.010817
0.003646
0.009165
0.005205
0.013656
0.013789
0.011282
0.012279
0.012623
0.009990
0.002649
0.010096
0.008755
0.010166
0.009473
0.011107
0.014041
0.011434
0.010404
0.011670
0.004997
0.004854
0.007439
0.011227
0.004240
0.008251
0.013309
0.002118
0.012692
0.007454
0.004714
0.010075
0.010313
0.009302
0.006402
0.002661
0.013155
0.011886
0.011852
0.004328
0.011355
0.003424
0.007401
0.009740
0.013055
0.004930
0.013235
0.013492
0.004050
0.008752
0.013932
0.008010
0.001298
0.013206
0.004251
0.003633
0.010429
0.012983
0.004351
0.000968
0.012150
0.000956
0.008026
0.003704
0.009306
0.007346
0.010699
0.006481
0.000509
0.005305
0.013095
0.004512
0.004250
0.014200
0.004959
0.004906
0.014129
0.012003
0.008576
0.011598
0.007732
0.004714
0.004056
0.006941
0.003299
0.002779
0.007541
0.007923
0.009019
0.004290
0.004841
0.011232
0.013053
0.007630
0.013609
0.010452
0.013636
0.013737
0.001280
0.006260
0.012623
0.013807
0.013820
0.013917
0.013823
0.000753
0.003583
0.012512
0.010708
0.006485
0.010563
0.013905
0.014224
0.014181
0.014233
0.005976
0.014240
0.002535
0.000479
0.013925
0.013854
0.012836
0.006738
0.013733
0.013662
0.013575
0.002111
0.012851
0.012538
0.009537
0.009408
0.009278
0.009297
0.009316
0.009333
0.009380
0.009709
0.009448
0.009302
0.009728
0.009318
0.008478
0.010847
0.011483
0.012801
0.012983
0.012983
0.012982
0.013069
0.003117
0.010098
0.013476
0.002405
0.012433
0.003646
0.007649
0.011842
0.011187
0.009624
0.008978
0.013618
0.011323
0.011618
0.012289
0.011684
0.011428
0.013804
0.010679
0.012069
0.011480
0.001484
0.013859
0.013845
0.013953
0.002540
0.012177
0.011079
0.010132
0.013790
0.011751
0.012864
0.011107
0.001309
0.013576
0.013981
0.000620
0.002496
0.012076
0.012399
0.009508
0.012054
0.011704
0.013259
0.002118
0.002588
0.010046
0.013812
0.010119
0.009071
0.010847
0.010051
0.014100
0.010979
0.011331
0.008626
0.004383
0.006697
0.010955
0.008895
0.009439
0.009873
0.013315
0.014364
0.012355
0.005568
0.012431
0.012184
0.013584
0.012352
0.006357
0.011883
0.005798
0.013549
0.014035
0.014131
0.000898
0.014026
0.001963
0.008579
0.006142
0.013963
0.003572
0.003887
0.013556
0.001576
0.010115
0.003269
0.000628
0.011357
0.012186
0.005983
0.006273
0.012895
0.011255
0.012984
0.006643
0.007314
0.008205
0.008472
0.013407
0.013491
0.013316
0.008979
0.002144
0.002805
0.013522
0.012883
0.003333
0.003524
0.003608
0.003878
0.004016
0.005334
0.005621
0.005760
0.006005
0.006144
0.001490
0.011177
0.006788
0.006913
0.001205
0.001171
0.012677
0.001071
0.000936
0.012428
0.013892
0.013879
0.013823
0.013909
0.001757
0.013806
0.008697
0.006015
0.012466
0.006221
0.006517
0.013238
0.007015
0.004855
0.003979
0.002103
0.000728
0.002455
0.006339
0.005977
0.006705
0.013070
0.003865
0.010421
0.009280
0.002017
0.005794
0.012503
0.010521
0.008579
0.010485
0.013945
0.008405
0.010891
0.014010
0.003554
0.003550
0.006482
0.000392
0.014467
0.013318
0.004473
0.003993
0.003851
0.003708
0.012165
0.013239
0.009833
0.012205
0.008525
0.006457
0.013153
0.013232
0.013385
0.008612
0.012987
0.005610
0.011930
0.011924
0.013693
0.010815
0.011282
0.013859
0.009020
0.009394
0.008417
0.008820
0.011774
0.009369
0.012069
0.013645
0.009567
0.012730
0.010108
0.013828
0.013943
0.006739
0.006589
0.012753
0.013854
0.012180
0.007019
0.012799
0.012289
0.013878
0.009527
0.009742
0.009770
0.009895
0.008761
0.010971
0.009600
0.013070
0.010992
0.011936
0.007007
0.000920
0.014265
0.013272
0.011634
0.011763
0.009592
0.012887
0.012054
0.009306
0.011324
0.008426
0.011607
0.011941
0.012501
0.012555
0.009342
0.010878
0.010139
0.014085
0.011948
0.011447
0.010294
0.011878
0.010580
0.012604
0.006175
0.012505
0.012167
0.005720
0.013028
0.012003
0.002308
0.009247
0.008224
0.006442
0.008800
0.009330
0.004310
0.004548
0.004814
0.005287
0.005752
0.002854
0.002264
0.012258
0.003260
0.013545
0.011929
0.004276
0.004417
0.006901
0.004414
0.004700
0.003497
0.007424
0.003988
0.013576
0.004849
0.004667
0.013154
0.013234
0.007748
0.014296
0.004261
0.014010
0.002311
0.007470
0.002589
0.005289
0.005431
0.009328
0.007323
0.012235
0.013748
0.013769
0.012662
0.013649
0.013883
0.013849
0.011825
0.008635
0.010568
0.013386
0.000936
0.000954
0.011580
0.005857
0.001739
0.002307
0.002308
0.000509
0.003791
0.012661
0.014137
0.013683
0.013641
0.007541
0.012651
0.007752
0.001211
0.013380
0.010359
0.004499
0.005435
0.005290
0.005428
0.005282
0.005425
0.005421
0.005275
0.005723
0.003150
0.003126
0.003250
0.002831
0.002860
0.012977
0.002686
0.011077
0.003684
0.005343
0.005610
0.010163
0.003967
0.013823
0.014122
0.002649
0.002785
0.003183
0.011878
0.012271
0.008500
0.012490
0.002934
0.003069
0.002792
0.006142
0.013312
0.013986
0.002503
0.002779
0.006004
0.002750
0.010568
0.006008
0.014065
0.012863
0.005162
0.004849
0.008200
0.003942
0.005848
0.013983
0.013806
0.006113
0.004410
0.004396
0.001973
0.005842
0.013940
0.011605
0.011726
0.011711
0.013576
0.009278
0.011364
0.010452
0.013576
0.008346
0.013488
0.013838
0.011386
0.013823
0.013845
0.013852
0.006257
0.014017
0.013652
0.009765
0.013878
0.006137
0.006290
0.006294
0.008379
0.008093
0.000906
0.010582
0.002595
0.011817
0.012576
0.013980
0.007980
0.004704
0.013069
0.005960
0.013832
0.013733
0.005682
0.006996
0.013713
0.009923
0.009762
0.012812
0.012501
0.005412
0.006013
0.011849
0.006531
0.002553
0.007132
0.008590
0.008439
0.002094
0.013678
0.006835
0.006965
0.005472
0.013409
0.013491
0.013650
0.013782
0.003497
0.001600
0.001844
0.001668
0.001865
0.001356
0.006397
0.006388
0.006655
0.006644
0.006632
0.006619
0.006606
0.006592
0.006578
0.006727
0.006109
0.006265
0.001977
0.004383
0.010149
0.006279
0.006285
0.006862
0.008393
0.006103
0.001540
0.013979
0.000615
0.006301
0.014041
0.004522
0.006442
0.012894
0.011059
0.010276
0.010400
0.011790
0.006728
0.013519
0.011836
0.002399
0.003904
0.000927
0.000691
0.013079
0.004857
0.004857
0.004540
0.006847
0.006596
0.000649
0.010383
0.012274
0.014181
0.010847
0.000568
0.006151
0.014195
0.005542
0.006146
0.005875
0.006433
0.006742
0.006597
0.006091
0.012792
0.000749
0.006081
0.005794
0.006070
0.006059
0.002371
0.012167
0.012801
0.006592
0.013627
0.006943
0.007068
0.005079
0.005212
0.012506
0.003403
0.012984
0.012940
0.013326
0.007865
0.007731
0.007597
0.007748
0.007447
0.007477
0.007492
0.007506
0.007355
0.007793
0.007519
0.007531
0.007819
0.007403
0.007264
0.007432
0.013390
0.012968
0.007156
0.004539
0.012580
0.007162
0.007014
0.007167
0.007457
0.007171
0.007318
0.007027
0.007030
0.007032
0.006886
0.007325
0.012846
0.001625
0.012133
0.012829
0.013818
0.006384
0.004376
0.011975
0.012893
0.012692
0.006865
0.013087
0.007304
0.009823
0.011336
0.014065
0.012979
0.012887
0.000940
0.013028
0.014039
0.011808
0.008064
0.012167
0.013989
0.004515
0.004570
0.012796
0.013155
0.013405
0.006733
0.006871
0.013154
0.006844
0.003572
0.007097
0.012873
0.006852
0.012969
0.001948
0.012325
0.007956
0.012864
0.007572
0.004137
0.005574
0.005393
0.005239
0.005378
0.012408
0.009573
0.006419
0.013070
0.002866
0.004417
0.008018
0.008131
0.007542
0.007831
0.013449
0.013448
0.013144
0.012753
0.007980
0.008381
0.006023
0.013325
0.013782
0.012179
0.001362
0.001229
0.003854
0.006736
0.001021
0.013875
0.005162
0.006728
0.012700
0.004192
0.010352
0.012983
0.006160
0.003189
0.002772
0.007712
0.007265
0.007605
0.006536
0.007061
0.004369
0.012894
0.011023
0.000841
0.011402
0.004653
0.000898
0.012984
0.005057
0.013310
0.012873
0.009390
0.000475
0.000510
0.012749
0.012741
0.014154
0.007588
0.007721
0.002299
0.003474
0.014332
0.000226
0.000046
0.005573
0.011774
0.009128
0.011963
0.003250
0.006257
0.012891
0.012685
0.003007
0.012711
0.013053
0.013473
0.013408
0.009087
0.008936
0.008112
0.007703
0.006755
0.013232
0.013448
0.013380
0.013381
0.013513
0.013448
0.013573
0.011512
0.013690
0.007032
0.007852
0.011575
0.007030
0.013324
0.001624
0.001620
0.001436
0.012766
0.008694
0.011792
0.011083
0.009976
0.008279
0.008150
0.011635
0.012428
0.008946
0.009071
0.010661
0.007468
0.007561
0.008139
0.008159
0.013791
0.007229
0.013870
0.013935
0.012718
0.012298
0.012812
0.007612
0.007462
0.012710
0.004923
0.013023
0.004521
0.009864
0.012293
0.012506
0.002906
0.002764
0.012573
0.012961
0.013896
0.012731
0.001060
0.007759
0.007488
0.001564
0.001878
0.007174
0.013462
0.013934
0.011852
0.012142
0.013961
0.012930
0.000834
0.011621
0.013154
0.012385
0.001001
0.000868
0.000807
0.008032
0.001739
0.013813
0.011143
0.007877
0.012165
0.007171
0.003242
0.012598
0.013385
0.013382
0.011455
0.014296
0.005563
0.012714
0.008051
0.001101
0.013293
0.005689
0.007748
0.007446
0.008065
0.003540
0.013937
0.012601
0.007284
0.012060
0.013971
0.011977
0.014122
0.009673
0.011693
0.008038
0.007594
0.012695
0.013740
0.007942
0.001286
0.007796
0.008106
0.009806
0.002590
0.012643
0.006965
0.005393
0.005253
0.005099
0.005360
0.005320
0.005173
0.005542
0.005675
0.012984
0.013070
0.012979
0.013068
0.012458
0.002424
0.010115
0.012165
0.013693
0.001757
0.008149
0.012643
0.007998
0.003998
0.007848
0.007830
0.007697
0.007547
0.012940
0.007155
0.011889
0.003983
0.005498
0.003189
0.000880
0.003992
0.003625
0.014177
0.000847
0.004248
0.011724
0.008185
0.014186
0.007613
0.006280
0.007355
0.002662
0.003009
0.001427
0.006103
0.008718
0.004881
0.007711
0.012689
0.006249
0.004667
0.004522
0.004376
0.012074
0.004238
0.003699
0.005224
0.005941
0.003416
0.006074
0.006028
0.003275
0.004100
0.011193
0.011060
0.003145
0.002838
0.002697
0.013042
0.013492
0.003754
0.013239
0.013055
0.005737
0.005174
0.005055
0.007192
0.006776
0.014056
0.006369
0.006501
0.013301
0.013099
0.002861
0.005385
0.007943
0.007793
0.004935
0.007642
0.007656
0.007529
0.011504
0.012371
0.011808
0.009795
0.006988
0.007114
0.007679
0.012479
0.013282
0.014381
0.013649
0.002308
0.004964
0.007542
0.014397
0.005420
0.005431
0.006305
0.012802
0.003130
0.002410
0.013479
0.013482
0.013407
0.003392
0.006632
0.001661
0.009557
0.012554
0.013917
0.012032
0.013709
0.009822
0.010130
0.003987
0.013921
0.012727
0.012838
0.014226
0.005422
0.008240
0.008240
0.003579
0.014200
0.012961
0.005808
0.009626
0.009797
0.012493
0.000947
0.008714
0.007969
0.012662
0.000478
0.008026
0.008174
0.008471
0.014045
0.012506
0.011441
0.011453
0.011605
0.013155
0.010638
0.008542
0.014155
0.006026
0.011662
0.011548
0.009553
0.009429
0.009456
0.009463
0.009468
0.009616
0.009477
0.009198
0.008629
0.008485
0.009757
0.010177
0.010314
0.011359
0.005428
0.005574
0.005140
0.005425
0.006435
0.006694
0.003118
0.007079
0.003110
0.012892
0.007061
0.007207
0.007333
0.013068
0.002706
0.002692
0.002573
0.002547
0.012450
0.002673
0.002399
0.002535
0.012325
0.009630
0.003778
0.004024
0.003530
0.009624
0.010040
0.006655
0.011955
0.011968
0.003541
0.004009
0.005084
0.005214
0.005343
0.001852
0.003684
0.012053
0.004003
0.001648
0.003961
0.001782
0.003244
0.003647
0.009408
0.001715
0.001710
0.013590
0.006927
0.005319
0.012643
0.013801
0.010411
0.000906
0.007775
0.013042
0.012291
0.007752
0.007472
0.007342
0.013993
0.002011
0.008192
0.011636
0.013684
0.010524
0.005183
0.008051
0.005280
0.007488
0.003580
0.003855
0.012580
0.010731
0.014208
0.010271
0.007905
0.007906
0.011225
0.009597
0.009548
0.011262
0.010090
0.010237
0.000834
0.000943
0.012565
0.007506
0.008478
0.006242
0.014145
0.002772
0.005696
0.011088
0.000476
0.004265
0.009584
0.011140
0.008678
0.008771
0.003591
0.007967
0.007602
0.012604
0.003436
0.012186
0.005724
0.005146
0.005417
0.003541
0.011307
0.003001
0.013673
0.001604
0.006146
0.005888
0.003988
0.013862
0.013979
0.005145
0.002941
0.003992
0.010598
0.006616
0.004714
0.013921
0.000630
0.004401
0.013404
0.002388
0.005000
0.014134
0.002138
0.013573
0.013629
0.001627
0.003361
0.003633
0.012737
0.008974
0.003776
0.004383
0.008455
0.010194
0.013989
0.008405
0.005488
0.008529
0.014186
0.010776
0.005442
0.013902
0.005808
0.005822
0.008665
0.008703
0.009115
0.007753
0.010532
0.000798
0.013070
0.008965
0.008895
0.008888
0.004700
0.004966
0.013953
0.013931
0.008902
0.008976
0.014052
0.014137
0.014089
0.004773
0.006197
0.006197
0.000373
0.005425
0.014468
0.000226
0.005559
0.006989
0.003770
0.013564
0.009429
0.001436
0.009736
0.012226
0.010108
0.014115
0.010392
0.005784
0.012325
0.007287
0.006159
0.009473
0.009334
0.011172
0.010642
0.013528
0.002237
0.002911
0.013457
0.009573
0.008618
0.009365
0.002676
0.000944
0.000947
0.000953
0.007514
0.014068
0.013312
0.003570
0.011839
0.003174
0.013883
0.011946
0.014058
0.007000
0.014021
0.000405
0.006494
0.005410
0.002113
0.000567
0.005393
0.005378
0.005092
0.005075
0.011089
0.003004
0.001546
0.006159
0.011489
0.009681
0.004056
0.004328
0.010101
0.006305
0.003197
0.003189
0.002913
0.001032
0.000745
0.004515
0.003069
0.005442
0.002670
0.007891
0.004911
0.004570
0.014314
0.004791
0.004087
0.008256
0.010266
0.009396
0.002202
0.006354
0.012538
0.012074
0.012294
0.012401
0.012608
0.005369
0.003823
0.003684
0.003131
0.003005
0.002869
0.008763
0.003286
0.013227
0.003149
0.010797
0.014017
0.013734
0.011679
0.003715
0.013220
0.005213
0.013905
0.004078
0.009710
0.003428
0.008665
0.013696
0.013556
0.010532
0.009281
0.011573
0.013870
0.011405
0.002722
0.012447
0.013482
0.011632
0.009494
0.013450
0.013476
0.008505
0.012012
0.014033
0.014109
0.004049
0.010500
0.008609
0.008307
0.008314
0.005700
0.005400
0.005417
0.005408
0.004569
0.004548
0.004280
0.004137
0.005421
0.005809
0.011094
0.011122
0.011099
0.002132
0.003754
0.009293
0.006781
0.001581
0.012501
0.001442
0.005275
0.008996
0.009871
0.004100
0.010129
0.010147
0.010226
0.009019
0.009606
0.002710
0.002834
0.010791
0.002776
0.003316
0.012904
0.000478
0.010536
0.001014
0.000932
0.013963
0.009280
0.014195
0.006266
0.000511
0.004959
0.005888
0.002876
0.005664
0.004048
0.004881
0.003441
0.002162
0.012219
0.006197
0.013684
0.011106
0.004300
0.009311
0.000350
0.010082
0.006965
0.006546
0.012780
0.001622
0.013820
0.005772
0.014193
0.013576
0.013388
0.006564
0.013235
0.006352
0.000630
0.006352
0.013155
0.000469
0.002296
0.014056
0.003690
0.006128
0.003265
0.011050
0.010956
0.003149
0.010956
0.013239
0.013154
0.005482
0.008971
0.005752
0.005199
0.006501
0.010545
0.012754
0.005344
0.007875
0.002927
0.007660
0.006633
0.012942
0.012772
0.002664
0.004072
0.014123
-0.000003
0.013638
0.013544
0.011548
0.011402
0.011172
0.011377
0.010997
0.010758
0.009771
0.009793
0.009665
0.009350
0.009365
0.009418
0.009439
0.009330
0.009338
0.009334
0.009057
0.009058
0.008628
0.008341
0.008772
0.008483
0.008749
0.008167
0.007861
0.009898
0.009723
0.010177
0.010448
0.011843
0.003273
0.010542
0.012662
0.011521
0.006677
0.002838
0.003140
0.002726
0.008275
0.002667
0.008852
0.009761
0.004425
0.011968
0.009902
0.011840
0.004825
0.010181
0.001668
0.001375
0.011538
0.011297
0.008244
0.001612
0.001596
0.011527
0.013834
0.013839
0.013758
0.013852
0.012836
0.013813
0.000910
0.013875
0.013627
0.013851
0.012603
0.011889
0.013143
0.012395
0.007861
0.013911
0.004220
0.008338
0.008051
0.013873
0.004865
0.012472
0.010741
0.013934
0.013883
0.008410
0.002036
0.003367
0.007760
0.000666
0.007944
0.004087
0.009471
0.010110
0.010363
0.013773
0.010257
0.010887
0.001424
0.004609
0.010198
0.008481
0.001472
0.011441
0.010304
0.010470
0.009964
0.009096
0.010488
0.010228
0.012402
0.012592
0.007761
0.013604
0.013685
0.009753
0.011566
0.009456
0.004703
0.012798
0.013396
0.005836
0.012870
0.012854
0.012447
0.013822
0.006249
0.012794
0.004724
0.007333
0.012493
0.000954
0.006764
0.005849
0.006081
0.005932
0.010882
0.013983
0.009529
0.009667
0.010271
0.004137
0.002415
0.013402
0.013406
0.006606
0.006457
0.013237
0.001515
0.013813
0.009686
0.013627
0.013718
0.012298
0.013879
0.012940
0.012187
0.008953
0.004483
0.012506
0.012276
0.005833
0.010439
0.013144
0.013963
0.004111
0.002307
0.005868
0.007132
0.008289
0.001761
0.012705
0.011871
0.005772
0.000707
0.011336
0.014065
0.013568
0.014382
0.005433
0.003430
0.010650
0.003567
0.002799
0.008049
0.002312
0.012433
0.013972
0.002820
0.011516
0.009428
0.009333
0.005106
0.005246
0.004953
0.004244
0.012685
0.002692
0.007150
0.008395
0.008244
0.001759
0.001179
0.001314
0.004139
0.003995
0.001630
0.005184
0.008289
0.007593
0.007396
0.013801
0.002107
0.001101
0.003319
0.003451
0.007775
0.007711
0.011500
0.010130
0.002397
0.003197
0.005785
0.003069
0.011547
0.011164
0.011183
0.014078
0.006357
0.013309
0.014324
0.001222
0.005433
0.000661
0.011022
0.010714
0.011773
0.013945
0.002144
0.007190
0.014046
0.001562
0.007222
0.011946
0.011559
0.014238
0.003318
0.010694
0.005726
0.014305
0.012608
0.006548
0.003985
0.004129
0.014171
0.012488
0.014026
0.010082
0.002138
0.013685
0.012745
0.001788
0.001184
0.011866
0.003319
0.008500
0.008379
0.013388
0.013949
0.002898
0.007914
0.000700
0.010641
0.013164
0.004512
0.000522
0.008049
0.013923
0.011527
0.004087
0.004590
0.004280
0.006548
0.005237
0.008334
0.010924
0.004106
0.012235
0.003991
0.004244
0.012229
0.003850
0.012693
0.011801
0.011821
0.006154
0.004420
0.004845
0.004696
0.004837
0.008130
0.006294
0.006137
0.011515
0.013501
0.003433
0.010815
0.014415
0.009241
0.008096
0.009941
0.010583
0.012643
0.009596
0.002415
0.001608
0.013801
0.001704
0.001165
0.013932
0.012031
0.013892
0.008901
0.007136
0.008800
0.000751
0.002372
0.002776
0.008106
0.009574
0.010110
0.010708
0.002415
0.014278
0.001087
0.010636
0.006941
0.013353
0.000415
0.003735
0.000256
0.004507
0.005344
0.012748
0.012506
0.013613
0.004808
0.008139
0.009278
0.013729
0.003998
0.012727
0.004420
0.013727
0.011736
0.012569
0.013738
0.002898
0.012692
0.010409
0.007014
0.010257
0.010780
0.014259
0.014352
0.011743
0.013482
0.001928
0.011956
0.008203
0.014398
0.000316
0.006326
0.008386
0.012601
0.004337
0.003283
0.012802
0.011201
0.011316
0.011174
0.010864
0.011111
0.011248
0.011079
0.010777
0.012984
0.003110
0.002971
0.008567
0.006769
0.013534
0.012503
0.010181
0.007033
0.011575
0.007998
0.007848
0.011241
0.003998
0.007697
0.004135
0.007547
0.007679
0.011840
0.012068
0.004849
0.012776
0.010834
0.002490
0.008785
0.012651
0.013926
0.011751
0.010854
0.011077
0.011405
0.004947
0.012012
0.011667
0.011684
0.011821
0.011946
0.007477
0.008003
0.003592
0.011297
0.014209
0.011299
0.009537
0.007205
0.007368
0.013324
0.012133
0.011849
0.002883
0.003993
0.011474
0.014023
0.010590
0.013683
0.011286
0.001625
0.005857
0.001890
0.000915
0.009873
0.007630
0.010565
0.000936
0.001153
0.011386
0.013309
0.002436
0.000618
0.004900
0.008656
0.013937
0.008546
0.012295
0.007457
0.007742
0.001218
0.002428
0.010271
0.013959
0.014188
0.014384
0.009243
0.009525
0.012593
0.011693
0.011203
0.011377
0.011086
0.010850
0.009621
0.009577
0.009184
0.009674
0.009753
0.008773
0.004522
0.004376
0.004369
0.010177
0.010313
0.010715
0.010582
0.003566
0.003266
0.011500
0.010688
0.011500
0.011572
0.009548
0.009892
0.013070
0.002971
0.012575
0.009328
0.012569
0.002556
0.008957
0.008497
0.002276
0.008618
0.008886
0.009033
0.008953
0.010512
0.011603
0.008827
0.011148
0.012037
0.011793
0.009087
0.008827
0.008676
0.008827
0.008525
0.008676
0.008505
0.013385
0.013311
0.011601
0.011676
0.008768
0.011557
0.011557
0.011407
0.009843
0.009719
0.011809
0.009557
0.008620
0.009987
0.009843
0.011838
0.001509
0.011953
0.012352
0.008417
0.011889
0.005723
0.012180
0.008268
0.001026
0.005043
0.008139
0.008447
0.008455
0.013818
0.012289
0.010183
0.010287
0.011094
0.011815
0.010311
0.011234
0.008579
0.010261
0.004757
0.004494
0.013796
0.008360
0.010460
0.009770
0.010044
0.010312
0.012184
0.011608
0.007943
0.008565
0.011227
0.011663
0.011255
0.010908
0.010821
0.010821
0.008370
0.008256
0.010396
0.014186
0.009091
0.009230
0.003043
0.009923
0.007793
0.007642
0.006517
0.010493
0.008635
0.010557
0.013313
0.002516
0.009115
0.013915
0.008860
0.011926
0.010261
0.008749
0.008036
0.007627
0.013484
0.013174
0.011646
0.012887
0.010598
0.011751
0.009016
0.010402
0.013155
0.010068
0.010843
0.011662
0.003518
0.012461
0.010506
0.007769
0.008291
0.008291
0.012096
0.009478
0.002349
0.011608
0.011377
0.008546
0.010550
0.012603
0.008334
0.010758
0.009997
0.012116
0.008828
0.008965
0.008399
0.009032
0.011618
0.007280
0.009032
0.011751
0.005162
0.008953
0.011573
0.002868
0.009706
0.008596
0.009201
0.009439
0.008542
0.011354
0.010411
0.008405
0.011201
0.008895
0.009045
0.009771
0.012457
0.011287
0.002081
0.010042
0.010785
0.008742
0.010672
0.011463
0.008619
0.008724
0.008814
0.010276
0.009897
0.013449
0.008480
0.009450
0.001347
0.010578
0.010727
0.012854
0.010173
0.013309
0.009908
0.009186
0.009046
0.009318
0.011208
0.009330
0.009806
0.010271
0.014119
0.001027
0.011094
0.002853
0.001573
0.002941
0.005313
0.006124
0.006117
0.006324
0.013423
0.008714
0.013205
0.010512
0.003117
0.008073
0.004714
0.010988
0.002978
0.003382
0.007207
0.007333
0.002573
0.002699
0.013239
0.007585
0.007440
0.002686
0.007710
0.007835
0.002673
0.001984
0.003201
0.012701
0.003885
0.004009
0.005877
0.006016
0.006132
0.009297
0.006156
0.010633
0.013719
0.001680
0.001941
0.001642
0.001496
0.006666
0.001623
0.013888
0.007038
0.006527
0.003622
0.010020
0.005644
0.003082
0.011214
0.001896
0.005926
0.008485
0.001885
0.004746
0.012607
0.012930
0.013484
0.011899
0.013069
0.002399
0.006466
0.011714
0.005256
0.011595
0.002448
0.011720
0.013098
0.014186
0.005968
0.013141
0.006059
0.005911
0.006048
0.001037
0.002008
0.001291
0.012186
0.000693
0.010429
0.013820
0.012706
0.010900
0.003122
0.013484
0.012973
0.012623
0.009322
0.013926
0.013070
0.004372
0.001064
0.013147
0.007098
0.011983
0.014072
0.012118
0.000480
0.013958
0.013968
0.014033
0.008386
0.002044
0.000350
0.000354
0.000368
0.000361
0.000356
0.000336
0.000323
0.006624
0.007515
0.007659
0.008673
0.013193
0.011261
0.010715
0.009193
0.008374
0.012141
0.011723
0.007613
0.007254
0.007149
0.007806
0.011940
0.011923
0.011801
0.013879
0.012133
0.012710
0.007472
0.005318
0.010304
0.014265
0.007381
0.012493
0.012490
0.012271
0.003564
0.013807
0.004516
0.009665
0.008064
0.013678
0.003998
0.007423
0.009033
0.014150
0.006174
0.013908
0.013820
0.011233
0.011428
0.001159
0.003204
0.003043
0.012392
0.011264
0.014255
0.008411
0.002302
0.007890
0.014328
0.004929
0.007572
0.010549
0.007947
0.007980
0.003977
0.003844
0.009195
0.006880
0.013791
0.008159
0.009496
0.001339
0.005140
0.010759
0.008542
0.004078
0.003045
0.000693
0.013404
0.011502
0.011143
0.007877
0.002525
0.007895
0.009820
0.003936
0.013985
0.014093
0.011357
0.012345
0.000431
0.010176
0.000137
0.004585
0.013068
0.003988
0.014034
0.000814
0.004201
0.002657
0.003845
0.005941
0.013852
0.014428
0.000297
0.008239
0.005689
0.003001
0.001719
0.001573
0.005729
0.001935
0.003991
0.014130
0.013898
0.001081
0.014172
0.011232
0.007314
0.014167
0.013731
0.006695
0.002730
0.014337
0.011184
0.012895
0.007001
0.001674
0.013741
0.013822
0.002182
0.002540
0.006649
0.014230
0.013164
0.013921
0.003504
0.007205
0.008955
0.005231
0.007381
0.007133
0.002375
0.008765
0.004303
0.007323
0.008282
0.011717
0.012662
0.004056
0.010251
0.010384
0.002238
0.007177
0.010434
0.000974
0.010341
0.010510
0.013472
0.004881
0.009952
0.007898
0.000482
0.013658
0.014340
0.005825
0.005031
0.010842
0.009913
0.009041
0.013961
0.000139
0.014274
0.003557
0.005462
0.003283
0.013943
0.007097
0.013835
0.012569
0.002623
0.002805
0.010889
0.003316
0.014145
0.013312
0.004514
0.013832
0.004745
0.005286
0.007600
0.007898
0.003166
0.014139
0.013997
0.014013
0.009101
0.009384
0.008601
0.007287
0.008307
0.008173
0.013525
0.008733
0.014050
0.008515
0.007861
0.008566
0.008243
0.008650
0.002307
0.007902
0.004245
0.000954
0.012315
0.002023
0.008635
0.009034
0.011849
0.013154
0.000920
0.012399
0.010918
0.007136
0.011137
0.012769
0.009027
0.009019
0.008949
0.000340
0.000560
0.007283
0.014044
0.014389
0.014001
0.014230
0.013449
0.013352
0.013254
0.010878
0.010271
0.010147
0.008629
0.011844
0.012984
0.013155
0.013205
0.009508
0.005449
0.013879
0.001041
0.009153
0.012187
0.009471
0.009895
0.012612
0.002476
0.009325
0.008785
0.002651
0.013125
0.010882
0.012869
0.000940
0.006094
0.011634
0.014171
0.011849
0.007263
0.014058
0.002101
0.009319
0.012136
0.013634
0.013690
0.008370
0.010311
0.003366
0.006474
0.012913
0.012395
0.010516
0.001165
0.013873
0.002941
0.002328
0.009598
0.013378
0.013259
0.008869
0.002506
0.001472
0.003426
0.007612
0.002020
0.013959
0.010273
0.012848
0.010147
0.010341
0.003103
0.013487
0.013408
0.013493
0.002937
0.002122
0.009333
0.001719
0.001585
0.012397
0.005334
0.005632
0.001528
0.001642
0.006524
0.005326
0.010887
0.001211
0.007176
0.006345
0.011983
0.006890
0.003391
0.001895
0.013324
0.005984
0.001060
0.008835
0.003979
0.007006
0.000666
0.002410
0.014267
0.009936
0.005833
0.012327
0.014167
0.006098
0.000922
0.000954
0.012226
0.006154
0.003447
0.013659
0.011751
0.000627
0.011140
0.012695
0.011992
0.013690
0.012951
0.002716
0.000170
0.002420
0.011345
0.003554
0.007001
0.014299
0.005434
0.010905
0.011658
0.011559
0.012071
0.013989
0.000117
0.009771
0.009728
0.012980
0.006606
0.009802
0.003661
0.012547
0.008886
0.010311
0.009468
0.007399
0.005178
0.007944
0.013174
0.007117
0.011377
0.011474
0.012446
0.013080
0.008828
0.008862
0.013921
0.010343
0.010304
0.009494
0.007452
0.013999
0.001836
0.000525
0.010139
0.014123
0.000046
0.003125
0.004319
0.005119
0.002854
0.006931
0.013682
0.001899
0.006883
0.007882
0.007318
0.004281
0.004137
0.007284
0.009757
0.007905
0.006632
0.003734
0.001014
0.000907
0.013927
0.004713
0.005084
0.004125
0.001557
0.002523
0.007510
0.014415
0.002114
0.000007
0.000111
0.000015
0.008718
0.011883
0.013382
0.003361
0.010760
0.013997
0.000457
0.010816
0.012589
0.013892
0.013922
0.004473
0.012569
0.005307
0.000617
0.011504
0.004491
0.011793
0.012868
0.000475
0.005173
0.010708
0.000742
0.006190
0.010462
0.003554
0.014283
0.003550
0.005983
0.002846
0.013741
0.005644
0.005270
0.010319
0.003040
0.013747
0.006211
0.000479
0.005408
0.013452
0.014100
0.006345
0.000883
0.008879
0.010129
0.002432
0.005290
0.005265
0.003149
0.002282
0.013479
0.003768
0.006208
0.010968
0.011464
0.013596
0.000847
0.005434
0.011123
0.013901
0.013739
0.002301
0.005689
0.005862
0.002312
0.004192
0.012402
0.003407
0.006236
0.011262
0.012526
0.012226
0.012251
0.005462
0.012612
0.012799
0.003149
0.012893
0.012689
0.012695
0.001018
0.004372
0.012165
0.013945
0.012038
0.009343
0.005253
0.002000
0.002100
0.001350
0.013791
0.013059
0.013423
0.009207
0.009552
0.005213
0.013313
0.005194
0.011693
0.004482
0.011483
0.012984
0.012801
0.012976
0.012365
0.013154
0.002824
0.007061
0.002265
0.011916
0.006769
0.005084
0.011808
0.011437
0.001752
0.012643
0.010402
0.011754
0.011521
0.013883
0.013452
0.012178
0.010439
0.012853
0.011515
0.007839
0.013514
0.002011
0.011061
0.010838
0.001994
0.002446
0.005053
0.009923
0.012392
0.013243
0.005572
0.000987
0.000781
0.012315
0.011698
0.011343
0.003638
0.014181
0.000688
0.011188
0.011592
0.011793
0.009306
0.006016
0.012601
0.002134
0.008473
0.006498
0.012819
0.007257
0.010557
0.004903
0.007413
0.010031
0.009873
0.009891
0.005492
0.013070
0.006777
0.004848
0.004270
0.006794
0.001680
0.012987
0.007865
0.008112
0.013055
0.005568
0.007462
0.005237
0.005378
0.012290
0.005025
0.001328
0.014068
0.003407
0.002008
0.005305
0.011591
0.005067
0.003511
0.013491
0.013763
0.004526
0.008049
0.014005
0.007809
0.008821
0.009864
0.008953
0.010854
0.013394
0.013812
0.007806
0.012760
0.008442
0.007360
0.000745
0.012123
0.013141
0.002908
0.001776
0.009887
0.014045
0.011891
0.004390
0.000345
0.011806
0.009762
0.005724
0.007226
0.008957
0.005224
0.005197
0.001612
0.001356
0.007561
0.001751
0.008360
0.009982
0.008338
0.002701
0.001176
0.003845
0.012235
0.013211
0.001606
0.009191
0.010166
0.003110
0.007284
0.009806
0.001799
0.012402
0.004930
0.012327
0.001021
0.005374
0.012030
0.001448
0.003428
0.011691
0.013963
0.003977
0.012695
0.003535
0.013929
0.008773
0.008001
0.013070
0.013514
0.005205
0.001626
0.001869
0.009291
0.001462
0.010403
0.012954
0.008049
0.012116
0.002301
0.010669
0.007114
0.009020
0.009142
0.010075
0.010876
0.014013
0.010626
0.004937
0.001296
0.001286
0.001159
0.000484
0.004644
0.004709
0.004704
0.010850
0.005406
0.010181
0.013144
0.005146
0.003201
0.004768
0.007231
0.000550
0.007597
0.012589
0.004551
0.005331
0.011111
0.010920
0.011975
0.013816
0.001425
0.013885
0.001194
0.005963
0.001453
0.002637
0.004217
0.012160
0.004072
0.000344
0.009885
0.000802
0.002349
0.013618
0.010822
0.007506
0.008670
0.004674
0.005222
0.009300
0.008323
0.009042
0.010037
0.008583
0.006777
0.000158
0.000343
0.000164
0.014036
0.005867
0.004555
0.002697
0.005632
0.000768
0.005976
0.002356
0.001586
0.009395
0.004540
0.004826
0.005812
0.003289
0.000491
0.003283
0.012796
0.003290
0.001674
0.001419
0.012124
0.007379
0.013316
0.010512
0.013887
0.013905
0.013798
0.003288
0.010976
0.009051
0.013182
0.014328
0.012703
0.000757
0.005848
0.008814
0.012115
0.006468
0.005842
0.013980
0.014449
0.008447
0.002847
0.002556
0.002284
0.002551
0.001869
0.001433
0.001292
0.008243
0.007547
0.005244
0.013782
0.009925
0.006098
0.000943
0.007465
0.013658
0.012945
0.006100
0.000621
0.013896
0.013981
0.014093
0.005695
0.006016
0.013772
0.004385
0.013858
0.000335
0.010220
0.010022
0.004681
0.005092
0.005289
0.005151
0.007460
0.002838
0.002706
0.013493
0.003069
0.009216
0.004286
0.005836
0.001585
0.001452
0.001655
0.006662
0.001286
0.011854
0.014097
0.012737
0.000771
0.005456
0.002551
0.005149
0.000801
0.006705
0.002817
0.009698
0.013813
0.005552
0.011465
0.013863
0.004780
0.003728
0.006156
0.004648
0.002288
0.013999
0.004443
0.009049
0.005682
0.002965
0.003352
0.005292
0.005162
0.002247
0.006028
0.010162
0.003345
0.013977
0.000138
0.009810
0.009477
0.013734
0.011203
0.001692
0.011886
0.011706
0.003728
0.009016
0.013958
0.008240
0.010997
0.010878
0.010758
0.005579
0.005435
0.005279
0.005137
0.005883
0.010797
0.013010
0.001762
0.003833
0.003841
0.013813
0.004780
0.008480
0.005968
0.003101
0.006182
0.004855
0.013125
0.006993
0.004636
0.000940
0.007901
0.005662
0.003232
0.011585
0.013953
0.006305
0.003419
0.011480
0.000140
0.005571
0.006013
0.006113
0.006770
0.011720
0.001763
0.010950
0.013834
0.008244
0.011815
0.010485
0.011083
0.000902
0.003580
0.012612
0.004269
0.009719
0.014144
0.012395
0.013883
0.014167
0.000824
0.005567
0.000763
0.013058
0.011105
0.006220
0.004849
0.009054
0.001467
0.001333
0.002828
0.010164
0.012700
0.014030
0.009858
0.005553
0.006531
0.006660
0.006788
0.006626
0.006498
0.004425
0.002516
0.001966
0.004434
0.003354
0.005862
0.006386
0.004238
0.004529
0.004857
0.006369
0.006501
0.010712
0.010381
0.003075
0.004093
0.004395
0.003942
0.009191
0.004565
0.004691
0.005555
0.004983
0.012400
0.002523
0.001573
0.002444
0.006841
0.003920
0.002382
0.006294
0.003837
0.001033
0.013958
0.004248
0.001837
0.006633
0.010752
0.011557
0.014259
0.008064
0.002792
0.013972
0.004609
0.004003
0.003699
0.005113
0.005231
0.002726
0.003514
0.007669
0.005129
0.006023
0.004139
0.005626
0.004337
0.002369
0.006333
0.007265
0.006451
0.005351
0.004711
0.004568
0.006747
0.006239
0.004837
0.010611
0.006831
0.006619
0.004423
0.013870
0.004420
0.003690
0.006142
0.002764
0.002641
0.010744
0.006059
0.004567
0.010135
0.013451
0.006345
0.006184
0.003842
0.002031
0.005983
0.014052
0.009386
0.002192
0.006677
0.005835
0.005688
0.005553
0.005412
0.005259
0.005113
0.005246
0.004953
0.004994
0.004558
0.004404
0.003416
0.003150
0.003148
0.007169
0.007187
0.003514
0.003778
0.003885
0.006918
0.010001
0.013740
0.005970
0.010562
0.001890
0.012392
0.007715
0.007882
0.003993
0.004165
0.001014
0.006368
0.007360
0.003991
0.006594
0.007962
0.005498
0.005646
0.004410
0.007430
0.003040
0.002476
0.007914
0.003354
0.003062
0.003474
0.007333
0.004696
0.003324
0.007628
0.000714
0.004799
0.003740
0.006682
0.007613
0.007413
0.003865
0.007218
0.004791
0.005378
0.003055
0.006208
0.005763
0.007763
0.010749
0.003431
0.013406
0.007027
0.003504
0.013501
0.000627
0.007146
0.002450
0.007690
0.012981
0.006943
0.005812
0.005664
0.005265
0.006219
0.014429
0.008148
0.006851
0.008168
0.010006
0.007703
0.006397
0.006109
0.005794
0.006159
0.006236
0.003009
0.003250
0.004100
0.010925
0.011201
0.003260
0.003242
0.003103
0.002824
0.007506
0.012971
0.007439
0.012951
0.008167
0.008300
0.001759
0.001899
0.011031
0.005593
0.005043
0.005199
0.004911
0.006353
0.006517
0.006723
0.007510
0.008635
0.002898
0.014226
0.005080
0.007327
0.013220
0.002375
0.012706
0.004230
0.003288
0.002764
0.005648
0.003484
0.003734
0.005840
0.001075
0.011585
0.003524
0.003701
0.000490
0.007679
0.007114
0.009306
0.007104
0.003804
0.013600
0.002209
0.003290
0.008033
0.007898
0.002906
0.008049
0.007066
0.006947
0.002950
0.002602
0.007914
0.006337
0.011691
0.004372
0.013592
0.002174
0.002174
0.005888
0.006880
0.003255
0.006798
0.008001
0.007124
0.012060
0.003266
0.012603
0.012710
0.002993
0.009258
0.001989
0.001254
0.009441
0.011201
0.006901
0.003189
0.000904
0.007818
0.013915
0.003177
0.009664
0.000823
0.008256
0.003103
0.013182
0.005695
0.008183
0.008820
0.014262
0.007895
0.002062
0.008642
0.010687
0.008902
0.006852
0.000237
0.011402
0.009873
0.009148
0.009259
0.009480
0.011483
0.006289
0.007098
0.010979
0.011734
0.003399
0.007226
0.007353
0.002553
0.007627
0.002144
0.009006
0.008834
0.007773
0.012093
0.009390
0.009478
0.012037
0.008414
0.008282
0.001585
0.003471
0.004704
0.005205
0.008119
0.001581
0.001590
0.001590
0.005867
0.012898
0.001521
0.001509
0.011068
0.001899
0.001899
0.001750
0.001448
0.001715
0.001869
0.007051
0.011838
0.001229
0.001217
0.008796
0.003484
0.001623
0.007163
0.007822
0.007593
0.007716
0.000930
0.001899
0.011981
0.011981
0.001896
0.005926
0.010638
0.010939
0.004912
0.002914
0.003315
0.008082
0.008460
0.010900
0.007839
0.008010
0.007752
0.007453
0.002175
0.010321
0.004516
0.004248
0.002023
0.001872
0.008596
0.009982
0.012293
0.009186
0.002724
0.002036
0.007300
0.010843
0.010512
0.007522
0.000635
0.003712
0.010527
0.002510
0.002779
0.007772
0.008032
0.011698
0.009387
0.010633
0.010434
0.011382
0.009626
0.010075
0.011741
0.002444
0.007759
0.007523
0.007780
0.008049
0.000667
0.000693
0.005833
0.005965
0.006092
0.010844
0.009848
0.002975
0.010237
0.008118
0.008997
0.003865
0.006324
0.001241
0.000644
0.000841
0.000847
0.000875
0.000790
0.000823
0.000814
0.007388
0.002011
0.011354
0.007761
0.002579
0.003498
0.006182
0.000655
0.005592
0.002576
0.006242
0.002643
0.005433
0.002907
0.000381
0.002403
0.011547
0.011573
0.010026
0.011126
0.011405
0.009366
0.012951
0.001437
0.007822
0.002250
0.008554
0.010878
0.013234
0.013977
0.010170
0.002236
0.010341
0.009878
0.004640
0.001872
0.003630
0.003901
0.010192
0.002292
0.001472
0.009068
0.008869
0.006738
0.006865
0.003719
0.012698
0.011343
0.011208
0.010529
0.001060
0.010744
0.007922
0.001076
0.002295
0.010545
0.002241
0.001182
0.009885
0.005727
0.012659
0.009805
0.010777
0.009723
0.002950
0.007838
0.000141
0.008586
0.006337
0.002706
0.007024
0.010262
0.001467
0.010044
0.012687
0.005780
0.011963
0.006169
0.014193
0.013534
0.013734
0.013645
0.008567
0.012105
0.006506
0.006606
0.004146
0.009345
0.006847
0.011422
0.006091
0.013613
0.005370
0.014081
0.007514
0.001886
0.000354
0.000366
0.000303
0.000146
0.013638
0.010341
0.012983
0.008859
0.013219
0.002008
0.004434
0.006271
0.006788
0.012661
0.001065
0.007791
0.006054
0.003399
0.013070
0.012274
0.014023
0.012401
0.010466
0.013125
0.013908
0.010688
0.003630
0.008806
0.008656
0.011667
0.008567
0.010834
0.013153
0.012381
0.000289
0.010273
0.013589
0.008026
0.003713
0.014292
0.009802
0.008462
0.010708
0.008594
0.013958
0.012920
0.002008
0.004175
0.005279
0.009742
0.008117
0.003981
0.001235
0.012271
0.012760
0.000756
0.007959
0.007162
0.012021
0.014056
0.012501
0.005417
0.005128
0.003974
0.001701
0.006580
0.002448
0.009850
0.014296
0.006219
0.012802
0.002986
0.002382
0.013780
0.003633
0.011288
0.011086
0.000920
0.013623
0.010507
0.002236
0.002288
0.014058
0.012402
0.000634
0.009494
0.003260
0.007124
0.007115
0.007142
0.011109
0.013922
0.009463
0.006303
0.007902
0.003172
0.002503
0.014170
0.002312
0.004755
0.010838
0.013574
0.013577
0.003609
0.012715
0.013902
0.013233
0.009387
0.009685
0.013828
0.011889
0.009567
0.003448
0.010900
0.009892
0.006384
0.011751
0.010216
0.000814
0.000745
0.010308
0.012366
0.010577
0.003361
0.008073
0.005231
0.009186
0.012133
0.008533
0.012155
0.001425
0.000627
0.012598
0.013982
0.013960
0.014041
0.014119
0.006550
0.007575
0.008876
0.009713
0.010547
0.002565
0.008834
0.007545
0.010891
0.005899
0.012766
0.012496
0.007379
0.006333
0.005351
0.000854
0.013930
0.013929
0.003569
0.008840
0.003398
0.008033
0.009592
0.000756
0.010582
0.012504
0.006895
0.008886
0.003398
0.006283
0.013724
0.003654
0.008306
0.001745
0.013838
0.005700
0.013387
0.003697
0.011445
0.009278
0.002847
0.002415
0.011953
0.006913
0.010160
0.010574
0.001836
0.002168
0.012880
0.010020
0.005223
0.010134
0.003768
0.004135
0.002985
0.002970
0.003955
0.004991
0.004711
0.005861
0.013662
0.008450
0.007433
0.007149
0.006098
0.005805
0.005500
0.000103
0.000224
0.000237
0.000247
0.000241
0.000238
0.000215
0.000198
0.000179
0.001448
0.011809
0.000920
0.003088
0.013923
0.012898
0.002786
0.003743
0.001807
0.008414
0.003148
0.010296
0.013153
0.008106
0.002941
0.012543
0.003709
0.014046
0.001155
0.010022
0.009825
0.010854
0.013576
0.010962
0.001431
0.005729
0.004696
0.000562
0.002580
0.000422
0.014065
0.013613
0.013251
0.000431
0.013963
0.007117
0.013023
0.012971
0.012634
0.012585
0.009765
0.007901
0.012608
0.011676
0.011297
0.000341
0.009237
0.013047
0.012883
0.008414
0.013313
0.003852
0.003711
0.004346
0.011099
0.012245
0.013585
0.011203
0.012798
0.012883
0.012689
0.012365
0.010447
0.013153
0.013308
0.013576
0.001235
0.012131
0.005763
0.004278
0.003622
0.012569
0.006321
0.007928
0.012612
0.012358
0.010704
0.013534
0.012836
0.012513
0.001071
0.012527
0.012600
0.005721
0.010785
0.011891
0.001153
0.008843
0.012185
0.009046
0.004806
0.004260
0.002139
0.001755
0.001044
0.010781
0.001182
0.006548
0.011889
0.002451
0.006206
0.006044
0.003679
0.011803
0.003009
0.013063
0.005723
0.005331
0.007796
0.007510
0.005080
0.012869
0.002209
0.008916
0.004569
0.010462
0.001425
0.012029
0.013489
0.000898
0.002588
0.014109
0.002034
0.011595
0.012465
0.005259
0.002978
0.002686
0.001714
0.001521
0.006296
0.006776
0.003977
0.007491
0.008952
0.005646
0.000915
0.006863
0.008806
0.002165
0.001867
0.012352
0.013516
0.012634
0.010601
0.007778
0.014027
0.004774
0.001194
0.010247
0.007875
0.002275
0.009471
0.002103
0.002124
0.013907
0.006184
0.002506
0.002529
0.009976
0.013670
0.013961
0.014003
0.014021
0.003968
0.009163
0.009442
0.002975
0.007150
0.006887
0.006755
0.002483
0.012253
0.004930
0.013309
0.006481
0.012984
0.009193
0.004389
0.014048
0.002516
0.003752
0.012812
0.000882
0.003407
0.008395
0.001887
0.000920
0.010967
0.003429
0.012365
0.011474
0.000252
0.003407
0.011618
0.002999
0.011405
0.010375
0.001739
0.013884
0.010429
0.000631
0.009935
0.002376
0.011836
0.006747
0.012894
0.013234
0.012776
0.014340
0.001153
0.009889
0.013282
0.002134
0.001577
0.010051
0.001419
0.003174
0.008796
0.014005
0.014023
0.005386
0.009573
0.005318
0.003848
0.009885
0.010955
0.012885
0.001114
0.011741
0.011512
0.012124
0.013995
0.005204
0.007606
0.013629
0.013584
0.008370
0.001570
0.005048
0.003315
0.009215
0.008646
0.009706
0.008913
0.013560
0.003455
0.006621
0.009345
0.013518
0.010612
0.003008
0.010918
0.003024
0.008139
0.012801
0.012870
0.001431
0.009149
0.010308
0.010445
0.013958
0.014044
0.007069
0.006024
0.005727
0.005419
0.014139
0.013846
0.009878
0.000767
0.006895
0.010292
0.004983
0.002728
0.002963
0.008565
0.008266
0.009258
0.001763
0.001893
0.010521
0.001888
0.004923
0.003367
0.006226
0.012226
0.013368
0.011887
0.011248
0.003062
0.012043
0.009057
0.005827
0.002167
0.009987
0.007962
0.007187
0.013846
0.009962
0.010237
0.002101
0.005995
0.008451
0.014253
0.007690
0.005092
0.003993
0.001972
0.013887
0.002764
0.011470
0.013938
0.003672
0.010578
0.006321
0.000676
0.005370
0.000347
0.000661
0.011431
0.001844
0.012374
0.001861
0.012279
0.007899
0.012276
0.012709
0.009970
0.013577
0.001553
0.013368
0.014364
0.010051
0.009098
0.005983
0.009970
0.008433
0.008167
0.013293
0.012796
0.011940
0.012938
0.012607
0.014260
0.013324
0.011338
0.010765
0.014090
0.009873
0.005868
0.012799
0.013070
0.013308
0.013315
0.008483
0.001627
0.001746
0.009597
0.012399
0.014108
0.006370
0.002643
0.000650
0.010066
0.010166
0.010498
0.010670
0.008317
0.002581
0.007055
0.011111
0.008300
0.008696
0.009998
0.009622
0.009848
0.012790
0.012634
0.009895
0.013323
0.010447
0.010781
0.010171
0.008240
0.008642
0.011598
0.007699
0.014053
0.012155
0.010931
0.008915
0.012698
0.009792
0.011203
0.002342
0.010053
0.008618
0.009664
0.013259
0.010216
0.008411
0.013151
0.012499
0.008698
0.010493
0.013407
0.011321
0.011003
0.010274
0.008971
0.009221
0.008916
0.010509
0.012245
0.010977
0.011331
0.009621
0.009843
0.010022
0.013520
0.011115
0.008346
0.011480
0.008694
0.013154
0.009832
0.010708
0.007978
0.013983
0.011024
0.010522
0.003137
0.011734
0.010478
0.003149
0.013398
0.005772
0.012703
0.013705
0.013576
0.010674
0.004378
0.008571
0.002168
0.000763
0.012167
0.007012
0.006070
0.013233
0.014449
0.001978
0.012343
0.013653
0.014205
0.003149
0.004711
0.010220
0.010979
0.001867
0.002379
0.001187
0.002572
0.010931
0.011001
0.000701
0.009531
0.002863
0.000479
0.010547
0.002959
0.002173
0.014422
0.005057
0.005883
0.004686
0.005740
0.014208
0.006815
0.004404
0.006386
0.012768
0.011836
0.014092
0.012772
0.014107
0.003583
0.014033
0.008496
0.004405
0.002640
0.006143
0.001877
0.005985
0.010042
0.012962
0.001994
0.013141
0.011918
0.007254
0.003235
0.011313
0.013319
0.010321
0.014327
0.000678
0.007879
0.011405
0.001600
0.010779
0.014072
0.001703
0.007491
0.010757
0.008771
0.008772
0.003633
0.012499
0.008398
0.008934
0.000524
0.009215
0.003667
0.013863
0.009480
0.009805
0.011793
0.001902
0.005706
0.002247
0.012479
0.002971
0.010149
0.008906
0.014241
0.000208
0.013515
0.013575
0.013770
0.007079
0.006947
0.014238
0.004003
0.003266
0.003250
0.013325
0.006059
0.009068
0.012476
0.011849
0.010384
0.012776
0.010170
0.008317
0.014064
0.014200
0.009723
0.004165
0.001581
0.005995
0.007026
0.007038
0.007622
0.012698
0.003851
0.010276
0.000553
0.001412
0.000217
0.012819
0.012205
0.003448
0.010891
0.012261
0.002311
0.009305
0.004464
0.009447
0.008634
0.002055
0.010565
0.000961
0.009645
0.010013
0.002148
0.009206
0.007163
0.000614
0.002676
0.004265
0.006798
0.012659
0.004437
0.000173
0.000131
0.014244
0.014262
0.013042
0.001788
0.003752
0.001972
0.004515
0.000139
0.001710
0.012800
0.000827
0.000378
0.010341
0.014449
0.004455
0.010878
0.012130
0.002692
0.002986
0.013977
0.002152
0.012059
0.005970
0.004256
0.000748
0.002820
0.009710
0.012569
0.012819
0.004900
0.012703
0.005374
0.013961
0.012698
0.014046
0.012608
0.012771
0.009522
0.009895
0.012235
0.009136
0.012961
0.003531
0.012890
0.007647
0.000981
0.001763
0.010308
0.008311
0.012920
0.002029
0.004462
0.013155
0.012314
0.003602
0.012898
0.014097
0.007163
0.012261
0.008460
0.012385
0.013233
0.014144
0.000618
0.012476
0.013929
0.003630
0.011321
0.002288
0.012517
0.001881
0.007414
0.012486
0.012771
0.004445
0.014259
0.008119
0.001674
0.001596
0.001032
0.002735
0.004354
0.013567
0.014005
0.013144
0.011126
0.012258
0.007902
0.008915
0.014011
0.009237
0.001966
0.003871
0.001515
0.010942
0.001725
0.010034
0.001020
0.007453
0.010096
0.011621
0.001085
0.006503
0.004059
0.005584
0.007838
0.002282
0.008149
0.004031
0.003474
0.012665
0.002351
0.006256
0.010891
0.006011
0.013656
0.009169
0.013902
0.004321
0.011303
0.008918
0.012171
0.005969
0.000143
0.013647
0.013488
0.013667
0.006996
0.002304
0.003046
0.013323
0.000336
0.003387
0.013729
0.014177
0.008997
0.013991
0.003709
0.005265
0.004946
0.012337
0.001082
0.011789
0.002664
0.001491
0.008691
0.006989
0.011585
0.001298
0.001292
0.002276
0.011022
0.012689
0.008768
0.001570
0.007413
0.003055
0.008845
0.004834
0.007942
0.012066
0.001844
0.013624
0.013949
0.011590
0.014328
0.006423
0.010039
0.004137
0.002139
0.002004
0.013885
0.000895
0.006242
0.002779
0.004526
0.001725
0.004959
0.006513
0.013879
0.010650
0.001101
0.004583
0.013658
0.005137
0.001078
0.002609
0.010164
0.014277
0.003250
0.002013
0.004746
0.014205
0.005290
0.004555
0.013388
0.003828
0.004494
0.003095
0.012662
0.005395
0.009908
0.004987
0.001972
0.000136
0.009406
0.005129
0.006143
0.012891
0.002388
0.001570
0.007577
0.012675
0.010510
0.003047
0.004516
0.000940
0.013956
0.006437
0.011701
0.002541
0.012186
0.009964
0.010466
0.004555
0.001296
0.003625
0.004119
0.001305
0.002595
0.006863
0.006354
0.011774
0.005828
0.014367
0.001425
0.013858
0.006225
0.004600
0.004156
0.013537
0.001893
0.005875
0.003625
0.001007
0.003768
0.012208
0.004491
0.004012
0.012461
0.005320
0.006666
0.013308
0.001305
0.013582
0.003726
0.013313
0.003324
0.006753
0.009083
0.001049
0.006682
0.005724
0.013292
0.007104
0.004674
0.004175
0.005128
0.004859
0.004692
0.006353
0.012359
0.004031
0.001462
0.007648
0.007811
0.005119
0.004116
0.003640
0.002195
0.005137
0.003768
0.006448
0.001121
0.003711
0.003291
0.010541
0.010741
0.012165
0.005234
0.003583
0.003289
0.007061
0.005626
0.007114
0.002953
0.002451
0.007602
0.007942
0.007660
0.005580
0.004972
0.012160
0.010670
0.007852
0.004383
0.002993
0.010915
0.003382
0.003535
0.013051
0.006888
0.001400
0.013567
0.005868
0.005462
0.011097
0.006765
0.007393
0.013240
0.002657
0.007211
0.012982
0.005344
0.002772
0.002349
0.011187
0.008995
0.012261
0.003654
0.001941
0.002588
0.003784
0.003647
0.005031
0.003122
0.007681
0.010829
0.006781
0.011059
0.012794
0.009595
0.006599
0.013641
0.010194
0.012573
0.002799
0.002188
0.002382
0.008847
0.003638
0.001734
0.013816
0.014428
0.009340
0.011050
0.006712
0.010689
0.011164
0.009835
0.009320
0.002857
0.002434
0.002421
0.010705
0.001723
0.008936
0.003328
0.004556
0.001895
0.001885
0.001509
0.005463
0.012651
0.008903
0.001776
0.008971
0.006941
0.007699
0.012526
0.011658
0.013970
0.013846
0.010612
0.010439
0.002374
0.010653
0.007323
0.012053
0.012073
0.003531
0.010810
0.008696
0.010022
0.009757
0.001534
0.002556
0.002551
0.001337
0.011405
0.009387
0.009537
0.011059
0.002490
0.007630
0.007734
0.000931
0.000567
0.012115
0.007097
0.011383
0.000834
0.001121
0.000693
0.009450
0.009300
0.009913
0.001612
0.010611
0.012709
0.001985
0.011284
0.010547
0.003936
0.009058
0.002388
0.003770
0.010547
0.009342
0.010753
0.000785
0.010708
0.007114
0.010752
0.010046
0.000827
0.012074
0.003795
0.001600
0.002023
0.003723
0.008576
0.002315
0.004670
0.004663
0.002516
0.002107
0.012793
0.002963
0.010069
0.013155
0.010650
0.008913
0.009863
0.001267
0.006639
0.004453
0.008906
0.012976
0.013801
0.012392
0.001292
0.002914
0.013087
0.004816
0.013846
0.000402
0.000372
0.007381
0.002950
0.014241
0.013652
0.001309
0.001267
0.010122
0.011940
0.009577
0.010712
0.013843
0.012096
0.013927
0.011242
0.008159
0.008100
0.014072
0.009051
0.006930
0.012607
0.010679
0.010705
0.003972
0.008921
0.010850
0.006092
0.010506
0.013914
0.002004
0.001328
0.009792
0.013907
0.002630
0.011402
0.013225
0.003361
0.013534
0.007146
0.005124
0.010818
0.010765
0.012466
0.011208
0.011003
0.012580
0.001072
0.014224
0.013653
0.012802
0.009656
0.008903
0.001089
0.008447
0.012604
0.010066
0.010020
0.011914
0.007470
0.013876
0.008866
0.002713
0.013789
0.006666
0.002523
0.003118
0.013451
0.003328
0.001972
0.012073
0.001071
0.013463
0.010609
0.013567
0.013582
0.004972
0.010854
0.013818
0.010194
0.013464
0.014118
0.013721
0.001668
0.014115
0.013387
0.001078
0.013705
0.001726
0.006815
0.012493
0.005268
0.013970
0.009342
0.005578
0.013243
0.008847
0.002799
0.009776
0.005428
0.008845
0.010319
0.001720
0.008694
0.014023
0.009938
0.009848
0.003985
0.002860
0.002556
0.006226
0.013854
0.003786
0.000749
0.009320
0.014167
0.001971
0.012366
0.013855
0.011886
0.013448
0.013902
0.013949
0.012700
0.011789
0.006014
0.000808
0.002222
0.011162
0.012133
0.011405
0.001220
0.012780
0.013292
0.013319
0.013398
0.012343
0.002993
0.001832
0.013964
0.013322
0.009622
0.014034
0.004039
0.012894
0.007097
0.013852
0.012784
0.002818
0.010781
0.001922
0.012668
0.012865
0.006503
0.013235
0.008971
0.013653
0.012486
0.000365
0.012792
0.009058
0.010777
0.012671
0.009900
0.013821
0.006251
0.007752
0.009477
0.010509
0.013206
0.000775
0.013714
0.001341
0.003044
0.005060
0.007265
0.006639
0.008918
0.002103
0.002049
0.012569
0.001723
0.013709
0.003524
0.008820
0.006144
0.013929
0.000925
0.013136
0.012274
0.002168
0.003066
0.014221
0.008643
0.003238
0.009111
0.013382
0.001394
0.005137
0.011241
0.008172
0.003784
0.002750
0.013154
0.002107
0.001735
0.000886
0.001474
0.001648
0.009366
0.009898
0.009621
0.002968
0.001179
0.002375
0.001838
0.001963
0.007645
0.012281
0.007641
0.003275
0.003828
0.012749
0.013952
0.013637
0.012598
0.013867
0.010073
0.012703
0.002724
0.004462
0.003920
0.009736
0.006582
0.013556
0.009232
0.000780
0.003776
0.012521
0.013971
0.014144
0.008694
0.013938
0.014245
0.010445
0.010924
0.004911
0.010939
0.009537
0.014243
0.012408
0.001439
0.012984
0.012704
0.012894
0.001298
0.012604
0.010626
0.007146
0.008884
0.007772
0.013051
0.008565
0.012495
0.002569
0.008433
0.010963
0.012177
0.005868
0.003107
0.011297
0.011218
0.007430
0.011187
0.009151
0.011086
0.005529
0.001381
0.013070
0.008694
0.005007
0.004147
0.008496
0.012624
0.013981
0.003214
0.012973
0.006609
0.011918
0.011169
0.009522
0.010319
0.009478
0.009045
0.012326
0.013993
0.007822
0.013585
0.010183
0.009973
0.009806
0.011590
0.007769
0.011084
0.014120
0.012032
0.009366
0.008691
0.008670
0.002075
0.010529
0.010341
0.010577
0.006764
0.008473
0.012294
0.009898
0.013380
0.011688
0.008694
0.008716
0.009083
0.010149
0.009777
0.010931
0.009900
0.010039
0.013652
0.005053
0.014246
0.004303
0.013624
0.004248
0.010798
0.005007
0.013479
0.010661
0.011590
0.012503
0.012029
0.012873
0.010020
0.011097
0.000533
0.009567
0.010194
0.012249
0.007852
0.010529
0.011201
0.014099
0.008963
0.009890
0.013883
0.000931
0.010102
0.004780
0.001437
0.012794
0.001989
0.005076
0.000827
0.013452
0.009217
0.007768
0.013924
0.010661
0.001604
0.014167
0.004848
0.009760
0.013467
0.003032
0.013448
0.013953
0.008425
0.014254
0.011079
0.001984
0.012796
0.013519
0.012800
0.005357
0.012283
0.011658
0.003218
0.014131
0.013739
0.011548
0.008845
0.012385
0.006113
0.008949
0.013237
0.007732
0.009685
0.013484
0.001763
0.003927
0.001071
0.013927
0.011232
0.009985
0.013596
0.013742
0.004648
0.011512
0.013613
0.012968
0.012385
0.002587
0.012298
0.012859
0.005867
0.008496
0.001205
0.013585
0.006890
0.000667
0.000484
0.010411
0.010341
0.005039
0.003095
0.010053
0.012983
0.009743
0.013919
0.001248
0.008934
0.009201
0.004247
0.013197
0.003575
0.004579
0.013970
0.001803
0.000004
0.008131
0.013943
0.004529
0.005262
0.012693
0.004648
0.003760
0.012676
0.013734
0.014327
0.009962
0.012589
0.002055
0.000589
0.008520
0.012859
0.005875
0.013484
0.011201
0.014041
0.000545
0.013479
0.012808
0.005634
0.013574
0.012705
0.005313
0.011383
0.004985
0.003191
0.012945
0.005448
0.010592
0.012799
0.012327
0.012815
0.004647
0.011184
0.013154
0.011255
0.003795
0.004377
0.000884
0.013980
0.003150
0.013070
0.007246
0.012965
0.007243
0.007792
0.013382
0.002335
0.002265
0.012801
0.013918
0.013964
0.010878
0.004590
0.009674
0.002553
0.002255
0.011172
0.004278
0.012840
0.000773
0.013708
0.001155
0.013317
0.003323
0.011977
0.010955
0.010490
0.010037
0.009685
0.009137
0.000640
0.010590
0.011593
0.002035
0.013233
0.012140
0.005897
0.011050
0.002253
0.000889
0.007211
0.003290
0.000763
0.013964
0.005005
0.005482
0.013903
0.013917
0.008438
0.007792
0.010545
0.008852
0.001565
0.013425
0.001164
0.002640
0.014195
0.006815
0.001007
0.008974
0.014177
0.002202
0.008333
0.001324
0.013396
0.013705
0.001730
0.001559
0.006466
0.013323
0.007669
0.005593
0.002288
0.004877
0.003844
0.005116
0.005435
-0.000001
0.004692
0.005853
0.001978
0.010638
0.014429
0.004695
0.006310
0.014265
0.005262
0.006633
0.007531
0.012623
0.004987
0.004140
0.009483
0.010005
0.008720
0.008472
0.000752
0.002020
0.001474
0.006367
0.012772
0.002657
0.013342
0.006398
0.012920
0.013948
0.005926
0.010810
0.012563
0.003284
0.006548
0.006742
0.001439
0.005592
0.004184
0.006662
0.012904
0.003778
0.003869
0.004735
0.003955
0.003717
0.013737
0.004139
0.003466
0.014314
0.005656
0.013520
0.013901
0.003708
0.003433
0.003283
0.001443
0.007263
0.003433
0.002750
0.012385
0.002356
0.013324
0.012504
0.003032
0.007296
0.004039
0.003912
0.010611
0.010753
0.012771
0.007582
0.007622
0.007254
0.004201
0.004056
0.002560
0.003498
0.011137
0.012471
0.005897
0.006913
0.013197
0.004389
0.003218
0.005212
0.006930
0.004803
0.005780
0.013484
0.012889
0.002713
0.003845
0.004891
0.011115
0.002529
0.010992
0.010653
0.001248
0.006755
0.013070
0.010664
0.002265
0.004024
0.004286
0.004434
0.001388
0.001978
0.005900
0.009201
0.009201
0.007287
0.011532
0.001045
0.002035
0.000780
0.011403
0.010864
0.002265
0.003980
0.007914
0.002909
0.002506
0.008161
0.003506
0.007902
0.007647
0.000655
0.000827
0.005410
0.005007
0.012521
0.002238
0.003978
0.009153
0.002436
0.001612
0.000562
0.002777
0.007136
0.004512
0.001734
0.009052
0.011374
0.010638
0.013773
0.005385
0.003455
0.001462
0.010341
0.010403
0.006594
0.009068
0.003927
0.010488
0.001704
0.003186
0.002779
0.001280
0.007521
0.003103
0.009297
0.009297
0.011086
0.001394
0.002956
0.014118
0.014041
0.003570
0.000137
0.005043
0.010173
0.001024
0.001431
0.003290
0.005005
0.002699
0.013690
0.001776
0.011603
0.012605
0.013568
0.013880
0.014034
0.008927
0.002156
0.001565
0.011688
0.007811
0.009660
0.010704
0.014087
0.012766
0.013546
0.013063
0.008724
0.008676
0.013010
0.014100
0.013898
0.010296
0.000678
0.009747
0.013326
0.013943
0.012326
0.013884
0.007791
0.006310
0.009244
0.009006
0.012895
0.001167
0.010527
0.010653
0.009068
0.005826
0.002971
0.012766
-0.000001
0.013771
0.012471
0.006098
0.012165
0.003572
0.010854
0.013901
0.014120
0.009698
0.004826
0.004859
0.012708
0.002965
0.008071
0.004558
0.002462
0.014156
0.013356
0.013940
0.012227
0.009436
0.013385
0.007265
0.007721
0.002415
0.012651
0.002023
0.001612
0.003506
0.005811
0.013781
0.010529
0.002250
0.002156
0.007257
0.004547
0.012678
0.011532
0.005395
0.012226
0.012019
0.012895
0.013953
0.014260
0.007635
0.012894
0.005212
0.012869
0.014130
0.013356
0.009259
0.001432
0.001431
0.001430
0.006712
0.002288
0.001088
0.001630
0.014156
0.011918
0.001909
0.013063
0.012671
0.010026
0.006271
0.014323
0.013773
0.011050
0.004209
0.007470
0.007500
0.009148
0.013783
0.013887
0.004877
0.002269
0.014137
0.009300
0.014076
0.012279
0.003095
0.006451
0.004282
0.014120
0.003032
0.010664
0.010849
0.013479
0.010757
0.005442
0.013236
0.004041
0.009232
0.001140
0.003407
0.013977
0.013820
0.010171
0.010956
0.012180
0.013901
0.013484
0.014109
0.004844
0.001838
0.003734
0.008161
0.014012
0.010368
0.013384
0.006249
0.003005
0.003004
0.003854
0.003623
0.005173
0.005037
0.000808
0.010183
0.007769
0.002167
0.014048
0.012185
0.003647
0.005341
0.006897
0.005502
0.011629
0.007257
0.002371
0.010612
0.010633
0.013942
0.003367
0.010777
0.009709
0.009660
0.006097
0.005190
0.003101
0.009033
0.013155
0.013947
0.003324
0.013696
0.013667
0.001050
0.007296
0.001254
0.003186
0.000473
0.003186
0.005434
0.003465
0.002420
0.005648
0.009597
0.006376
0.009892
0.009598
0.003558
0.012140
0.011286
0.010849
0.013408
0.012359
0.010753
0.009329
0.006650
0.001877
0.014127
0.013877
0.010284
0.008038
0.008060
0.003352
0.001636
0.013914
0.008586
0.009153
0.006629
0.006028
0.009920
0.010739
0.010636
0.011780
0.009624
0.012140
0.010308
0.008174
0.012705
0.011313
0.001292
0.010955
0.007635
0.008327
0.008546
0.009221
0.009300
0.008304
0.008583
0.010176
0.009098
0.009863
0.010590
0.002296
0.002857
0.001686
0.010815
0.010580
0.012043
0.012766
0.012193
0.006846
0.008554
0.007033
0.009201
0.010383
0.014025
0.013513
0.004692
0.011418
0.001909
0.006765
0.001898
0.014109
0.001121
0.014086
0.004123
0.011286
0.013240
0.003466
0.012477
0.002854
0.001457
0.006410
0.001642
0.010777
0.012920
0.008843
0.012077
0.008976
0.004300
0.010963
0.004548
0.009342
0.011031
0.002132
0.013155
0.006550
0.002013
0.002247
0.009016
0.013938
0.006225
0.013729
0.014314
0.000316
0.010066
0.009864
0.013915
0.007669
0.008172
0.012335
0.009878
0.003805
0.014270
0.012585
0.001590
0.009952
0.003466
0.002891
0.003232
0.001060
0.010691
0.011935
0.011287
0.013232
0.011284
0.013256
0.004659
0.010673
0.011997
0.012643
0.013975
0.013768
0.005965
0.005410
0.009508
0.003701
0.003778
0.013981
0.012868
0.013070
0.000345
0.013572
0.001483
0.000889
0.002238
0.012865
0.002388
0.005113
0.002122
0.005445
0.013925
0.014122
0.013790
0.009777
0.013155
0.008716
0.009200
0.014221
0.013953
0.003711
0.014254
0.010020
0.013811
0.013967
0.007104
0.014262
0.013898
0.008654
0.005309
0.014013
0.003709
0.002576
0.004504
0.014008
0.001849
0.009052
0.005709
0.013310
0.005785
0.009843
0.005579
0.010363
0.001146
0.013948
0.005502
0.014076
0.005673
0.008903
0.013895
0.014391
0.013854
0.003697
0.009272
0.000944
0.003805
0.004604
0.013305
0.004848
0.007373
0.009955
0.006515
0.004636
0.011024
0.014050
0.004891
0.000623
0.003895
0.014244
0.010527
0.004911
0.008093
0.005282
0.007660
0.013522
0.005864
0.002587
0.012314
0.001521
0.001323
0.004022
0.004022
0.013623
0.009124
0.001467
0.010262
0.003548
0.001697
0.006972
0.003017
0.003166
0.004590
0.003450
0.003290
0.004064
0.003531
0.006294
0.007130
0.003583
0.003854
0.008093
0.014384
0.004217
0.008565
0.013596
0.008282
0.012178
0.012420
0.003331
0.011914
0.010993
0.012920
0.007857
0.007519
0.003290
0.003672
0.002573
0.008182
0.001757
0.001045
0.001127
0.002034
0.001573
0.002811
0.008765
0.013541
0.003498
0.013574
0.007611
0.004686
0.005492
0.001877
0.001553
0.001636
0.006650
0.013578
0.001763
0.008026
0.009419
0.009033
0.001065
0.002653
0.010939
0.007902
0.013315
0.011983
0.006563
0.006972
0.002264
0.001075
0.001078
0.000688
0.004724
0.009272
0.001085
0.008652
0.013393
0.010014
0.002129
0.002013
0.002572
0.002713
0.002328
0.010641
0.010194
0.006437
0.014053
0.007792
0.008053
0.002031
0.009342
0.009124
0.006028
0.002159
0.007775
0.008197
0.009448
0.003345
0.002029
0.010689
0.010580
0.002020
0.004725
0.004031
0.000474
0.010447
0.005319
0.001159
0.005922
0.003431
0.012258
0.014007
0.013790
0.014114
0.013690
0.001394
0.009997
0.014081
0.010296
0.014078
0.004793
0.010673
0.013235
0.009419
0.008791
0.004224
0.004516
0.004254
0.009448
0.013849
0.002956
0.001302
0.013307
0.013770
0.004254
0.013943
0.009098
0.001029
0.002616
0.013232
0.008053
0.007902
0.013921
0.009832
0.011808
0.014038
0.012624
0.006599
0.008566
0.002405
0.010758
0.010547
0.013382
0.001725
0.005621
0.005492
0.010765
0.003762
0.004230
0.014115
0.009246
0.014058
0.002113
0.010493
0.012053
0.013439
0.013938
0.013993
0.005794
0.000344
0.012981
0.005455
0.001024
0.009189
0.013883
0.013968
0.011997
0.012623
0.013153
0.010037
0.004385
0.013978
0.014027
0.002590
0.013404
0.001534
0.001966
0.002811
0.011521
0.006690
0.005577
0.011411
0.007150
0.010444
0.014256
0.004703
0.005662
0.005489
0.012364
0.014440
0.006742
0.013384
0.002999
0.006240
0.014002
0.006650
0.014122
0.013822
0.012123
0.014010
0.013408
0.000910
0.014269
0.007130
0.010653
0.001407
0.003885
0.006367
0.014005
0.007382
0.013989
0.011926
0.014088
0.012854
0.013109
0.005037
0.013901
0.002036
0.002653
0.010925
0.009471
0.010429
0.002017
0.004116
0.008843
0.012264
0.001076
0.009723
0.006897
0.010887
0.013235
0.009535
0.012976
0.003784
0.013324
0.000875
0.014025
0.014036
0.009390
0.012031
0.010522
0.008244
0.007616
0.000395
0.001153
0.011484
0.013053
0.011418
0.012869
0.004417
0.013939
0.001697
0.013618
0.009125
0.012889
0.014440
0.009272
0.009871
0.010566
0.011109
0.013740
0.009254
0.009300
0.009878
0.010368
0.010219
0.008520
0.013399
0.010466
0.010612
0.011482
0.010155
0.008038
0.009124
0.001564
0.010312
0.010854
0.009016
0.002296
0.011660
0.011241
0.014076
0.006524
0.004691
0.002292
0.003429
0.012782
0.004163
0.012390
0.009184
0.009687
0.007239
0.001254
0.004959
0.006283
0.006877
0.009395
0.007222
0.006980
0.013488
0.014238
0.000139
0.001065
0.003279
0.012962
0.010739
0.001199
0.007470
0.014340
0.013944
0.014098
0.000313
0.014412
0.013632
0.000821
0.009871
0.009111
0.003617
0.004369
0.013820
0.004184
0.006666
0.003843
0.007346
0.014272
0.014007
0.002238
0.013213
0.004068
0.014196
0.007222
0.011405
0.009217
0.010674
0.008992
0.011382
0.003441
0.001045
0.010661
0.013463
0.001698
0.006765
0.009170
0.003291
0.013901
0.006289
0.010781
0.006972
0.002516
0.000494
0.010312
0.013425
0.000899
0.002367
0.005634
0.002520
0.001199
0.013256
0.003471
0.012227
0.002560
0.004686
0.013819
0.012760
0.013877
0.014001
0.010816
0.012281
0.012776
0.008244
0.005900
0.003855
0.007857
0.013938
0.012681
0.013796
0.005126
0.006915
0.003424
0.001915
0.007716
0.003043
0.011983
0.002710
0.010636
0.011929
0.006028
0.004657
0.001562
0.001442
0.010403
0.014265
0.002579
0.004156
0.003856
0.013770
0.002315
0.010403
0.001171
0.000936
0.013513
0.013741
0.012358
0.013522
0.006359
0.001428
0.005533
0.010183
0.012711
0.012031
0.004409
0.002757
0.006083
0.003017
0.003269
0.013316
0.004966
0.013977
0.005138
0.010212
0.012984
0.006043
0.005869
0.002451
0.001686
0.012035
0.003575
0.004319
0.010536
0.003887
0.006815
0.001309
0.010527
0.010488
0.003878
0.012887
0.002891
0.013232
0.002883
0.004735
0.003166
0.003623
0.010148
0.010673
0.001807
0.003977
0.011914
0.003471
0.013059
0.004080
0.013356
0.002451
0.005502
0.010798
0.000889
0.013903
0.003339
0.010046
0.007274
0.002547
0.010592
0.004417
0.004834
0.001723
0.001865
0.001344
0.003186
0.007140
0.004657
0.002322
0.008646
0.002909
0.001966
0.000519
0.010810
0.001033
0.001059
0.000437
0.011632
0.000796
0.005455
0.005584
0.008745
0.010712
0.006310
0.009747
0.001339
0.012210
0.008141
0.004974
0.011313
0.012249
0.003832
0.005853
0.012054
0.012177
0.007263
0.008691
0.011956
0.004704
0.013989
0.010327
0.008141
0.013843
0.014002
0.002370
0.002013
0.013901
0.009020
0.010429
0.004825
0.009272
0.013283
0.009624
0.014079
0.002657
0.013958
0.012877
0.005197
0.009254
0.005577
0.013576
0.003430
-0.000001
0.005525
0.000682
0.005825
0.013852
0.013981
0.009259
0.010735
0.008714
0.005363
0.012269
0.014245
0.013980
0.000386
-0.000006
0.001394
0.002382
0.003887
0.013670
0.001462
0.008182
0.004793
0.013742
0.012174
0.011374
0.014172
0.012062
0.013319
0.014453
0.013948
0.013968
0.010612
0.013883
0.012337
0.004140
0.005897
0.013502
0.005374
0.006970
0.002679
0.001502
0.009246
0.013514
0.009918
0.013516
0.011299
0.013449
0.013849
0.002909
0.013773
0.001344
0.013855
0.014098
0.011950
0.005712
0.005709
0.010155
0.011997
0.010788
0.004593
0.014177
0.006643
0.008060
0.009136
0.013907
0.005363
0.010014
0.005104
0.010753
0.004791
0.013144
0.013600
0.002029
0.003776
0.004692
0.002569
0.014099
0.004024
0.007514
0.013455
0.001261
0.002259
0.002062
0.007877
0.011465
0.001897
0.013232
0.007190
0.012563
0.004097
0.007066
0.001999
0.012310
0.010962
0.013380
0.010691
0.008621
0.014256
0.010327
0.008205
0.013394
0.001304
0.005794
0.014411
0.004996
0.013154
0.013822
0.006913
0.012249
0.006781
0.013727
0.005001
0.000635
0.011547
0.001567
0.002713
0.006482
0.013980
0.006826
0.001223
0.010219
0.008327
0.014453
0.014026
0.013885
0.001375
0.013811
0.002312
0.012887
0.013236
0.007857
0.001499
0.002907
0.005709
0.004245
0.013977
0.011512
0.003672
0.010443
0.012816
0.014105
0.006159
0.011886
0.004865
0.000772
0.003770
0.004647
0.002427
0.013564
0.013092
0.013948
0.013740
0.003286
0.004321
0.013455
0.004346
0.007684
0.005841
0.006083
0.011983
0.012950
0.006549
0.004713
0.004312
0.009019
0.014428
0.005723
0.003158
0.013574
0.014122
0.012037
0.012071
0.011724
0.013634
0.001333
0.013627
0.013917
0.012356
0.013516
0.005214
0.001865
0.001033
0.010265
0.013515
0.001182
0.013953
0.007393
0.012671
0.001298
0.000568
0.006996
0.014008
0.013980
0.013780
0.013939
0.005954
0.006240
0.000627
0.001567
0.009283
0.008949
0.006105
0.013938
0.000994
0.006384
0.004704
0.003912
0.002451
0.006399
0.010636
0.007373
0.000763
0.011337
0.012165
0.006815
0.003158
0.006741
0.004579
0.004445
0.003965
0.010815
0.010247
0.007364
0.003032
0.004714
0.002720
0.011601
0.012442
0.006562
0.001801
0.003059
0.003148
0.007644
0.006682
0.014052
0.005565
0.014198
0.007500
0.009537
0.006410
0.005448
0.012538
0.000790
0.002132
0.002662
0.001969
0.007644
0.005713
0.009111
0.000736
0.004190
0.012977
0.001751
0.001088
0.009208
0.008809
0.008566
0.002295
0.009173
0.010834
0.003220
0.001606
0.002156
0.002081
0.014109
0.009820
0.005178
0.013551
0.012049
0.014327
0.014277
0.012990
0.008321
0.009216
0.011956
0.010727
0.012677
0.013650
0.013832
0.004462
0.011363
0.009173
0.013981
0.000796
0.013989
0.013632
0.007265
0.013645
0.011164
0.010973
0.013909
0.008979
0.013812
0.003339
0.009153
0.007997
0.013488
0.001528
0.006398
0.013582
0.012784
0.004141
0.006196
0.014034
0.003220
0.013315
0.014241
0.001743
0.013696
0.001855
0.014122
0.013921
0.012251
0.013967
0.003220
0.013237
0.014097
0.009820
0.001922
0.014087
0.013390
0.011263
0.005774
0.014048
0.014360
0.007061
0.002735
0.005696
0.009330
0.003571
0.010488
0.012210
0.008720
0.003001
0.005455
0.013472
0.012977
0.006546
0.002068
0.000894
0.003719
0.000826
0.002462
0.006835
0.003855
0.000649
0.013729
0.013630
0.014053
0.009051
0.009147
0.002547
0.001559
0.001329
0.012442
0.005326
0.008586
0.000910
0.003918
0.014118
0.014114
0.014332
0.002105
0.013393
0.002719
0.007129
0.011688
0.007005
0.013754
0.009908
0.009045
0.011075
0.000340
0.004832
0.011557
0.012851
0.012885
0.001254
0.003566
0.013574
0.009272
0.010924
0.003935
0.002643
0.011075
0.010612
0.012569
0.006054
0.003845
0.011431
0.013972
0.014092
0.007519
0.007325
0.013796
0.003126
0.006788
0.004022
0.011842
0.004016
0.014042
0.004312
0.013937
0.001333
0.003428
0.009060
0.000747
0.006435
0.003059
0.008765
0.001484
0.012167
0.005223
0.014118
0.014057
0.011591
0.001055
0.007875
0.006310
0.009357
0.004659
0.009806
0.012141
0.009535
0.010105
0.014057
0.006437
0.007521
0.011842
0.003995
0.013578
0.000888
0.013918
0.013801
0.014150
0.005313
0.008963
0.013957
0.003333
0.013861
0.005214
0.009236
0.003403
0.001570
0.001187
0.001612
0.012155
0.013772
0.001565
0.005363
0.013763
0.003546
0.000494
0.003276
0.007760
0.013972
0.011826
0.013559
0.002017
0.014014
0.003143
0.006435
0.003024
0.003617
0.013356
0.009124
0.001562
0.007226
0.013070
0.008745
0.006486
0.009300
0.003288
0.014246
0.002209
0.003291
0.007097
0.006629
0.008428
0.001696
0.010834
0.003920
0.006801
0.002590
0.002706
0.002861
0.013243
0.013520
0.002719
0.007721
0.007580
0.002150
0.005104
0.001855
0.001388
0.008784
0.001484
0.007373
0.011287
0.008974
0.001878
0.009216
0.000685
0.004123
0.012363
0.010418
0.000649
0.002432
0.011195
0.010712
0.009098
0.001339
0.012127
0.000631
0.003909
0.002112
0.006128
0.008669
0.013316
0.002031
0.005309
0.013857
0.003284
0.010466
0.009165
0.010399
0.007471
0.014440
0.013584
0.013522
0.008910
0.001442
0.000899
0.002455
0.004409
0.001745
0.012671
0.011956
0.002139
0.002996
0.013828
0.014296
0.011632
0.001720
0.005171
0.004816
0.001305
0.001184
0.013404
0.014153
0.012028
0.013513
0.012283
0.009054
0.013741
0.012676
0.001570
0.004971
0.009195
0.003323
0.008160
0.008927
0.010409
0.009186
0.002421
0.014400
0.013708
0.008665
0.009208
0.001928
0.006564
0.001472
0.001339
0.013637
0.005695
0.012140
0.013818
0.005488
0.012155
0.012969
0.004856
0.012634
0.001388
0.011056
0.009046
0.007684
0.009955
0.012063
0.003878
0.010130
0.006592
0.013575
0.009293
0.008939
0.003856
0.009272
0.005636
0.013592
0.000888
0.010083
0.013582
0.006616
0.008196
0.011736
0.002100
0.014374
0.005319
0.002150
0.000790
0.004713
0.005434
0.005568
0.001241
0.010566
0.003841
0.014039
0.014152
0.001884
0.004946
0.003856
0.012104
0.013580
0.004564
0.013573
0.005094
0.001855
0.007902
0.001114
0.002112
0.009394
0.012679
0.010557
0.014034
0.008843
0.008809
0.013113
0.012273
0.005084
0.001576
0.001430
0.014445
0.002728
0.014379
0.013580
0.003134
0.000759
0.010198
0.014012
0.013690
0.013977
0.003288
0.007760
0.003869
0.003787
0.011195
0.000994
0.004966
0.014041
0.014177
0.003299
0.003713
0.006703
0.006486
0.006788
0.004659
0.002883
0.013067
0.012677
0.013186
0.007616
0.002713
0.007432
0.008912
0.001935
0.001223
0.002507
0.007879
0.011948
0.009156
0.007752
0.001776
0.011983
0.001999
0.002156
0.013816
0.009279
0.006872
0.000497
0.007761
0.002124
0.001261
0.009180
0.004857
0.013237
0.013812
0.012472
0.010374
0.011918
0.009985
0.003282
0.014415
0.006406
0.005713
0.008038
0.013741
0.005000
0.013740
0.002202
0.004111
0.013452
0.014013
0.013877
0.006610
0.000431
0.003450
0.013634
0.014155
0.003713
0.004657
0.012062
0.004713
0.006370
0.007226
0.008468
0.006755
0.013805
0.001400
0.013967
0.003841
0.010163
0.009685
0.013901
0.008714
0.013812
0.011936
0.013630
0.004362
0.003833
0.013927
0.013233
0.006913
0.005712
0.001963
0.013636
0.003422
0.006298
0.006279
0.014054
0.011482
0.002088
0.012337
0.001205
0.013956
0.013863
0.000685
0.014065
0.005601
0.001189
0.001723
0.004974
0.002713
0.013641
0.006399
0.012170
0.013125
0.008521
0.012141
0.010612
0.013682
0.007580
0.008895
0.009357
0.013846
0.013356
0.008720
0.013237
0.013646
0.001428
0.013463
0.009302
0.014100
0.014031
0.001978
0.013957
0.000898
0.006515
0.013942
0.000900
0.014360
0.012513
0.004123
0.004570
0.014093
0.010075
0.004877
0.013492
0.013404
0.009311
0.000895
0.014244
0.002861
0.013982
0.013734
0.013659
0.013659
0.006533
0.013563
0.012395
0.012366
0.005577
0.012982
0.007856
0.013854
0.005455
0.008331
0.006846
0.005326
0.013155
0.003411
0.013741
0.006736
0.003282
0.001835
0.010274
0.011161
0.008988
0.001606
0.014186
0.005584
0.012678
0.009083
0.001324
0.007364
0.004190
0.000340
0.013585
0.002729
0.009369
0.014283
0.005566
0.006289
0.004793
0.014108
0.001294
0.014166
0.003282
0.013522
0.005669
0.013578
0.004016
0.004310
0.014218
0.006124
0.013862
0.003564
0.004455
0.003855
0.004250
0.001935
0.001928
0.002427
0.002215
0.002679
0.009802
0.012679
0.008046
0.006880
0.003918
0.004050
0.001176
0.005825
0.004593
0.001205
0.001467
0.002156
0.004735
0.007612
0.002243
0.001419
0.007648
0.001324
0.009136
0.009083
0.001710
0.004509
0.011336
0.000497
0.013948
0.004452
0.003158
0.014131
0.004395
0.013652
0.014008
0.013996
0.005448
0.013575
0.003982
0.003998
0.014402
0.001715
0.006746
0.005435
0.003146
0.013658
0.013515
0.012286
0.004539
0.013637
0.012466
0.013546
0.005515
0.005842
0.008546
0.013186
0.013113
0.000476
0.001199
0.013719
0.014270
0.005593
0.001553
0.001033
0.004930
0.002371
0.000757
0.007274
0.013578
0.003980
0.012634
0.013166
0.003991
0.011793
0.006159
0.014050
0.005397
0.003134
0.002853
0.002288
0.010321
0.014079
0.013516
0.014233
0.013515
0.012174
0.003422
0.002573
0.004704
0.009125
0.009805
0.003714
0.014455
0.013059
0.003575
0.014177
0.007346
0.011840
0.005309
0.003415
0.002362
0.012554
0.008912
0.014013
0.005700
0.013575
0.014389
0.014079
0.013573
0.011593
0.000886
0.012063
0.006662
0.013630
0.003856
0.014092
0.009034
0.013924
0.008999
0.013528
0.005839
0.013638
0.009071
0.013473
0.005305
0.005104
0.014026
0.008571
0.004834
0.004558
0.003286
0.009938
0.005725
0.004210
0.014079
0.005828
0.002588
0.012358
0.001852
0.002590
0.013109
0.004473
0.003569
0.002068
0.003352
0.006739
0.012171
0.007465
0.005839
0.008771
0.014029
0.014042
0.004113
0.001196
0.001314
0.003333
0.005740
0.002235
0.009147
0.014296
0.002727
0.013983
0.006620
0.013473
0.001196
0.013896
0.005178
0.012957
0.002075
0.005043
0.003936
0.006494
0.013877
0.011953
0.003843
0.012182
0.014166
0.013245
0.013452
0.014186
0.001745
0.001999
0.002507
0.013957
0.014381
0.014188
0.013125
0.008621
0.014129
0.005463
0.004643
0.003140
0.005954
0.007611
0.001878
0.007500
0.001714
0.004127
0.013795
0.003548
0.005983
0.005397
0.007901
0.011958
0.006450
0.004680
0.011445
0.014051
0.006515
0.014051
0.002646
0.012170
0.010557
0.012554
0.005539
0.003424
0.009395
0.006620
0.011723
0.013518
0.009087
0.009180
0.002023
0.012062
0.001027
0.006747
0.013653
0.004097
0.005305
0.003523
0.003299
0.009010
0.007373
0.014233
0.013993
0.006273
0.013794
0.012846
0.004181
0.010255
0.002729
0.013820
0.014193
0.013649
0.008895
0.011107
0.007015
0.013563
0.008771
0.013925
0.013846
0.014445
0.005234
0.007468
0.003273
0.008669
0.006242
0.002706
0.006533
0.004535
0.014296
0.007470
0.007616
0.006747
0.002643
0.007753
0.007314
0.004312
0.000513
0.009156
0.007649
0.011741
0.000392
0.001928
0.001273
0.006897
0.001833
0.011222
0.002243
0.011263
0.009041
0.014023
0.013534
0.002068
0.013952
0.014314
0.013463
0.014307
0.012871
0.001865
0.001134
0.003273
0.013903
0.012957
0.012914
0.014171
0.013462
0.007488
0.010444
0.014005
0.003166
0.005954
0.010102
0.007005
0.013519
0.003276
0.008018
0.009165
0.008665
0.011445
0.013438
0.013317
0.008119
0.014076
0.007753
0.009019
0.014051
0.013670
0.005969
0.014193
0.014097
0.003982
0.013317
0.002662
0.003279
0.007648
0.001692
0.014292
0.001969
0.013985
0.011741
0.004453
0.005718
0.001710
0.007614
0.010163
0.013630
0.001320
0.005774
0.007471
0.013211
0.004816
0.001877
0.014297
0.014328
0.004443
0.003146
0.005673
0.010020
0.013796
0.014350
0.003997
0.003709
0.005636
0.002421
0.012089
0.002182
0.006143
0.009189
0.005577
0.009191
0.002222
0.001884
0.008974
0.014065
0.011891
0.003143
0.004119
0.001211
0.014118
0.005533
0.001565
0.001581
0.000886
0.009776
0.010195
0.014065
0.003714
0.011956
0.014041
0.009027
0.003411
0.013584
0.004955
0.009318
0.013546
0.014326
0.013741
0.014153
0.014309
0.010105
0.014186
0.013716
0.007594
0.004310
0.013574
0.013576
0.007588
0.003998
0.006746
0.014314
0.004455
0.001021
0.014026
0.010816
0.002049
0.001698
0.006157
0.013384
0.004964
0.004116
0.006686
0.003403
0.004574
0.012748
0.004724
0.013519
0.001140
0.007024
0.003856
0.013662
0.003856
0.006826
0.003567
0.004877
0.008643
0.001329
0.008321
0.006788
0.013623
0.001038
0.004604
0.001171
0.007884
0.001559
0.008173
0.006770
0.009737
0.013967
0.012846
0.003567
0.012962
0.002295
0.006011
0.001860
0.014223
0.010452
0.014194
0.014105
0.003713
0.003832
0.007716
0.007761
0.004443
0.013402
0.007978
0.013647
0.008952
0.009835
0.014166
0.008784
0.013204
0.011711
0.011803
0.008180
0.006886
0.003419
0.013259
0.014186
0.000351
0.010707
0.012358
0.011723
0.011917
0.002356
0.012250
0.010562
0.008194
0.004735
0.004865
0.014131
0.004059
0.013943
0.009046
0.001458
0.014123
0.003855
0.009333
0.004856
0.004857
0.001697
0.003984
0.001701
0.003540
0.004224
0.002567
0.012395
0.007133
0.002188
0.009054
0.006273
0.001027
0.009908
0.008194
0.006386
0.004041
0.000357
0.010313
0.009180
0.011840
0.003134
0.009325
0.005568
0.004113
0.013555
0.014013
0.008817
0.005305
0.013895
0.010821
0.014309
0.014211
0.006753
0.009985
0.002448
0.003130
0.013871
0.001273
0.008018
0.014114
0.014093
0.003984
0.012812
0.013576
0.005467
0.014026
0.013551
0.001751
0.005579
0.010404
0.007997
0.012356
0.012030
0.001941
0.014029
0.012521
0.014374
0.001559
0.001425
0.002586
0.008403
0.013017
0.014137
0.009180
0.003264
0.014332
0.008906
0.013054
0.006562
0.001715
0.009385
0.004825
0.003264
0.003426
0.014221
0.004377
0.002094
0.003998
0.003852
0.006406
0.011958
0.005983
0.007488
0.008180
0.006515
0.008042
0.009656
0.006643
0.013970
0.014085
0.014177
0.007291
0.000655
0.009506
0.003852
0.013233
0.013596
0.004695
0.014152
0.011917
0.013741
0.007616
0.013945
0.012069
0.001699
0.002222
0.006872
0.004670
0.004583
0.013467
0.001314
0.006445
0.013953
0.007734
0.002582
0.003707
0.013555
0.013525
0.014457
0.014115
0.009925
0.014198
0.014155
0.013977
0.013438
0.001860
0.014194
0.013384
0.005868
0.002582
0.006298
0.013959
0.004570
0.006279
0.012069
0.003419
0.006993
0.002068
0.002228
0.007423
0.008189
0.010707
0.014223
0.007814
0.002450
0.014066
0.013871
0.003714
0.013589
0.005175
0.014170
0.001187
0.003273
0.003569
0.013596
0.002572
0.013801
0.012062
0.003564
0.012060
0.004111
0.013111
0.008341
0.012914
0.007142
0.014421
0.013989
0.013959
0.010731
0.010583
0.010959
0.003540
0.008569
0.007129
0.006124
0.003276
0.001696
0.004583
0.003558
0.001171
0.013724
0.010672
0.003279
0.001165
0.014221
0.007729
0.004050
0.009395
0.013794
0.006880
0.014115
0.004434
0.001292
0.003523
0.013662
0.001176
0.001056
0.013962
0.014412
0.013953
0.007643
0.001044
0.013977
0.013968
0.014056
0.007042
0.005724
0.003140
0.013392
0.004331
0.006011
0.006226
0.003909
0.006157
0.014081
0.000618
0.014161
0.007024
0.005983
0.009652
0.006975
0.013111
0.003424
0.002322
0.003415
0.007015
0.007609
0.010051
0.005115
0.007401
0.001292
0.001425
0.007734
0.001208
0.013763
0.014382
0.007870
0.001419
0.001558
0.013926
0.006386
0.003981
0.001833
0.013989
0.001795
0.014379
0.012356
0.003561
0.014092
0.005579
0.013983
0.014171
0.005115
0.002446
0.012200
0.002588
0.013724
0.007594
0.014360
0.007729
0.013972
0.014307
0.003415
0.005983
0.001453
0.004127
0.000513
0.009685
0.005175
0.013884
0.008051
0.008665
0.013940
0.014427
0.010352
0.014042
0.002785
0.008338
0.005821
0.007577
0.001564
0.008689
0.008139
0.013531
0.014292
0.013959
0.013567
0.009191
0.006626
0.004250
0.003997
0.013789
0.014211
0.005725
0.002449
0.003965
0.013589
0.002853
0.000486
0.002075
0.014310
0.010810
0.012501
0.004985
0.007150
0.007877
0.008196
0.004800
0.014203
0.014384
0.006301
0.004452
0.014094
0.004321
0.005303
0.001320
0.002292
0.013958
0.013454
0.003978
0.005626
0.001038
0.008192
0.001994
0.000895
0.012250
0.008335
0.013164
0.013392
0.008784
0.013646
0.013226
0.006154
0.003972
0.013326
0.013870
0.000752
0.008196
0.005681
0.013014
0.014367
0.013935
0.013789
0.014343
0.013951
0.006880
0.006596
0.007468
0.008927
0.007275
0.005171
0.010083
0.009071
0.009060
0.014079
0.011926
0.003965
0.014309
0.013968
0.004791
0.014426
0.001059
0.002228
0.012501
0.013014
0.011780
0.014373
0.010452
0.010212
0.004181
0.002569
0.007321
0.013855
0.000486
0.000799
0.007283
0.014343
0.009908
0.008038
0.014068
0.010105
0.008189
0.006788
0.008331
0.014130
0.013551
0.008185
0.006154
0.003709
0.005385
0.007150
0.005234
0.002649
0.011038
0.008260
0.012565
0.007323
0.006128
0.014145
0.003693
0.007258
0.013951
0.001324
0.009955
0.010014
0.005998
0.004190
0.009955
0.014033
0.007129
0.014065
0.007275
0.004535
0.014373
0.014203
0.010284
0.013952
0.013684
0.008340
0.008327
0.006596
0.006013
0.005867
0.003837
0.003655
0.004116
0.005604
0.011559
0.007545
0.006753
0.005527
0.009776
0.007756
0.004111
0.002653
0.001211
0.001165
0.005527
0.004800
0.007140
0.007793
0.014274
0.002722
0.001309
0.007616
0.001196
0.013295
0.001620
0.013956
0.009484
0.011670
0.014010
0.008835
0.009163
0.014260
0.005682
0.005853
0.004574
0.014054
0.008049
0.011559
0.005861
0.006660
0.011369
0.008173
0.002589
0.002428
0.000930
0.002589
0.003837
0.006257
0.002520
0.001483
0.008192
0.001458
0.007432
0.004068
0.007937
0.008139
0.014364
0.010313
0.007895
0.010702
0.014360
0.004210
0.010959
0.014107
0.008042
0.009020
0.008046
0.013964
0.014316
0.006143
0.006643
0.013959
0.007258
0.001349
0.013144
0.006739
0.003936
0.006531
0.001481
0.008185
0.008189
0.010434
0.014402
0.005998
0.013572
0.013925
0.004341
0.014044
0.008042
0.002520
0.013702
0.010404
0.014389
0.003927
0.002152
0.004059
0.010135
0.013985
0.002436
0.011482
0.008060
0.007716
0.002926
0.004200
0.013556
0.014002
0.014427
0.013968
0.008189
0.008038
0.001462
0.003424
0.013534
0.005867
0.008321
0.013940
0.004791
0.014031
0.003663
0.006402
0.006660
0.007649
0.005853
0.014107
0.002016
0.003787
0.014352
0.013945
0.013958
0.013820
0.003655
0.002726
0.001329
0.005604
0.014426
0.003795
0.005245
0.001208
0.013967
0.010583
0.006770
0.002781
0.002586
0.001319
0.007294
0.002781
0.007588
0.008032
0.007916
0.007609
0.007168
0.005174
0.007381
0.006013
0.011073
0.001319
0.007814
0.002441
0.001200
0.013795
0.007439
0.001068
0.002724
0.013549
0.004341
0.014001
0.007042
0.007736
0.007756
0.011222
0.005104
0.002296
0.001056
0.013673
0.001063
0.003531
0.014090
0.001072
0.007870
0.007420
0.008180
0.001835
0.013719
0.004247
0.007266
0.006531
0.014205
0.007294
0.014400
0.013637
0.013531
0.003391
0.007471
0.014277
0.004331
0.001333
0.008180
0.002579
0.003972
0.013993
0.013997
0.009765
0.009908
0.010434
0.014260
0.007439
0.007937
0.009254
0.007388
0.009137
0.006880
0.010553
0.001200
0.007266
0.013113
0.007420
0.003399
0.005043
0.010731
0.013985
0.007572
0.005539
0.013993
0.005186
0.009279
0.007168
0.012271
0.007669
0.009656
0.002439
0.009805
0.001834
0.013927
0.013690
0.010242
0.013958
0.001458
0.013560
0.010242
0.009737
0.001075
0.003663
0.009990
0.007142
0.013961
0.013924
0.014274
0.008260
0.002572
0.007916
0.012723
0.013204
0.008160
0.013572
0.013646
0.001337
0.013953
0.002444
0.007525
0.010791
0.005669
0.009652
0.013650
0.008425
0.008282
0.014384
0.010135
0.008665
0.006844
0.008060
0.002713
0.014020
0.014211
0.007388
0.013972
0.011335
0.010553
0.013993
0.009484
0.007124
0.013988
0.013979
0.013979
0.013962
0.012143
0.008569
0.014153
0.014077
0.013972
0.001204
0.013967
0.010132
0.002649
0.009254
0.004107
0.001191
0.014402
0.013535
0.007545
0.008032
0.014411
0.010791
0.012035
0.011447
0.008809
0.004111
0.013958
0.007510
0.009369
0.014381
0.004200
0.002576
0.009624
0.013054
0.014079
0.001481
0.013939
0.014066
0.002576
0.012250
0.001355
0.007510
0.007381
0.014238
0.013498
0.013604
0.013770
0.002719
0.012822
0.011889
0.010908
0.014188
0.001341
0.013472
0.014241
0.009510
0.010925
0.008038
0.001347
0.013958
0.014277
0.011817
0.013953
0.013394
0.014352
0.011038
0.002579
0.002584
0.012315
0.008903
0.004245
0.001191
0.001204
0.007401
0.002716
0.013972
0.014020
0.002926
0.009137
0.002584
0.013951
0.013640
0.013949
0.011187
0.001486
0.013977
0.002428
0.014010
0.014296
0.009045
0.001216
0.014145
0.008403
0.013951
0.013963
0.014309
0.002436
0.008282
0.013473
0.012143
0.012461
0.012475
0.014360
0.012667
0.014391
0.003795
0.009163
0.011187
0.009624
0.014292
0.001349
0.012418
0.013637
0.013111
0.013956
0.001349
0.001618
0.013972
0.001487
0.001220
0.014373
0.001216
0.006984
0.007793
0.001349
0.006984
0.009020
0.013792
0.013997
0.012521
0.013989
0.013067
0.001489
0.001351
0.012623
0.013953
0.001351
0.001352
0.011369
0.008927
0.004245
0.001216
0.002152
0.001622
0.010020
0.013385
0.011595
0.012250
0.013985
0.014464
0.001341
0.013993
0.008784
0.014002
0.013204
0.014390
0.008546
0.014010
0.009878
0.014031
0.013985
0.013941
0.013964
0.014023
0.014293
0.001341
0.013628
0.008689
0.013943
0.014211
0.014001
0.013308
0.001329
0.014402
0.013552
0.001218
0.014452
0.013590
0.012723
0.014183
0.014107
0.013964
0.012418
0.001204
0.001204
0.014012
0.002383
0.013945
0.014034
0.001487
0.014020
0.013396
0.012461
0.013977
0.012315
0.014094
0.012374
0.014177
0.001489
0.013983
0.013465
0.001347
0.014122
0.000928
0.001353
0.014200
0.013014
0.011996
0.001356
0.014042
0.011926
0.011706
0.001220
0.013972
0.013941
0.013970
0.014352
0.014412
0.014109
0.014203
0.014122
0.001353
0.013962
0.014155
0.014010
0.013941
0.013962
0.014031
0.000806
0.011780
0.013977
0.014005
0.013956
0.014309
0.011706
0.001355
0.001356
0.014093
0.013678
0.014400
0.013628
0.011335
0.014023
0.014066
0.014375
0.001490
0.001355
0.013952
0.014033
0.013985
0.001221
0.014343
0.014343
0.013952
0.013016
0.014123
0.013211
0.014411
0.014020
0.011996
0.014044
0.014079
0.014161
0.014013
0.001222
0.013979
0.013979
0.013295
0.012104
0.014056
0.001356
0.001222
0.014398
0.014309
0.014046
0.014107
0.014068
0.001061
0.014001
0.001486
0.014325
0.013535
0.014228
0.014042
0.013609
0.014367
0.011482
0.013545
0.001491
0.001222
0.014314
0.014295
0.014099
0.014310
0.014171
0.013623
0.014350
0.014278
0.001192
0.001356
0.001356
0.014072
0.014054
0.013404
0.012210
0.001356
0.014054
0.013623
0.012356
0.012104
0.014360
0.014427
0.014327
0.014379
0.014114
0.014139
0.014221
0.001491
0.014259
0.001356
0.013295
0.013352
0.014316
0.013681
0.014085
0.001356
0.014245
0.014093
0.013557
0.014327
0.014332
0.014169
0.011889
0.001491
0.014291
0.012035
0.014449
0.001491
0.014426
0.013710
0.013715
0.014256
0.011817
0.011670
0.001222
0.012870
0.013470
0.014292
0.014129
0.013465
0.013537
0.014256
0.014364
0.013404
0.014427
0.014455
0.001221
0.013445
0.013618
0.013618
0.012475
0.013259
0.012667
0.013014
0.014457
0.001356
0.013352
0.001490
0.014094
0.014306
0.014137
0.012769
0.014177
0.014364
0.001624
0.001353
0.014358
0.014412
0.014137
0.014355
0.014299
0.001356
0.001486
0.001489
0.014068
0.001207
0.001352
0.012822
0.014428
0.012623
0.014399
0.013557
0.014323
0.013710
0.014244
0.014375
0.014391
0.012769
0.001211
0.001078
0.001207
0.013111
0.001081
0.014423
0.014427
0.013308
0.001075
0.014194
0.001337
0.001211
0.001344
0.001071
0.014194
0.001347
0.014382
0.001337
0.014454
0.014367
0.001471
0.014440
0.001214
0.014426
0.014221
0.001214
0.001200
0.001474
0.014374
0.000928
0.013545
0.013590
0.014314
0.001467
0.001333
0.013385
0.014381
0.014171
0.001333
0.013640
0.014360
0.013609
0.014203
0.013792
0.014169
0.001192
0.014423
0.013470
0.013445
0.014427
0.013067
0.014396
0.013016
0.012870
0.014421
0.014421
0.013537
0.013164
0.001353
0.014454
0.001486
0.012969
0.000339
0.000876
0.013945
0.013796
0.014098
0.014020
0.013795
0.013875
0.013172
0.013097
0.004120
0.014019
0.013714
0.003210
0.001433
0.004971
0.001443
0.001853
0.001860
0.013093
0.012930
0.012260
0.004387
0.013026
0.003148
0.003213
0.012094
0.012311
0.012256
0.013343
0.013165
0.011375
0.007740
0.003427
0.007152
0.009771
0.009882
0.005828
0.005964
0.010819
0.011985
0.014334
0.000035
0.014336
0.014334
0.014339
0.011618
0.010471
0.010472
0.005140
0.012077
0.012941
0.011204
0.003828
0.011846
0.010894
0.003122
0.001439
0.008985
0.001170
0.001173
0.012214
0.012222
0.007365
0.000439
0.001427
0.001289
0.000467
0.000597
0.012402
0.013329
0.006750
0.006751
0.001414
0.001570
0.011937
0.011985
0.012127
0.007213
0.011794
0.007067
0.000018
0.012901
0.006551
0.012089
0.012489
0.004281
0.004197
0.003281
0.006102
0.009607
0.002797
0.002798
0.012637
0.009771
0.013559
0.005963
0.010763
0.006388
0.013769
0.011938
0.002216
0.003526
0.013616
0.013776
0.005503
0.001424
0.011053
0.003580
0.003577
0.008018
0.012947
0.011895
0.006091
0.011861
0.000730
0.009637
0.007506
0.007503
0.000870
0.009016
0.011616
0.014360
0.014363
0.000133
0.011290
0.011192
0.004380
0.004514
0.008750
0.004374
0.003830
0.002501
0.000611
0.000745
0.011907
0.010932
0.011063
0.004771
0.004642
0.004644
0.005697
0.006190
0.010937
0.005431
0.007254
0.008519
0.012033
0.007239
0.013395
0.009509
0.011039
0.012066
0.005185
0.000601
0.003307
0.003699
0.003290
0.001702
0.007367
0.013444
0.010238
0.010237
0.011768
0.011303
0.012787
0.011949
0.005693
0.003440
0.009989
0.009993
0.009509
0.006210
0.013007
0.002233
0.002778
0.002777
0.012836
0.012972
0.012552
0.009957
0.009965
0.006737
0.006738
0.009010
0.009109
0.008961
0.002217
0.010480
0.010480
0.008146
0.005025
0.005162
0.012311
0.001266
0.001105
0.001263
0.001104
0.003899
0.003736
0.005707
0.005713
0.011556
0.011698
0.007804
0.007650
0.000342
0.000681
0.000562
0.000455
0.000290
0.000142
0.000415
0.000553
0.000380
-0.000018
0.000062
0.000001
0.000034
0.000438
0.000487
0.000232
0.000212
0.000137
0.000011
0.000079
0.000049
0.000682
0.000370
0.000312
0.000651
0.000344
0.000421
0.000499
0.000441
0.000786
0.000655
0.000401
0.012046
0.004210
0.004053
0.007766
0.008006
0.013960
0.013962
0.014091
0.014091
0.004967
0.004810
0.011418
0.012201
0.012342
0.013218
0.013085
0.005869
0.006030
0.009260
0.009264
0.010705
0.010705
0.005278
0.005119
0.008774
0.006983
0.006983
0.012348
0.003033
0.003037
0.001972
0.001975
0.009751
0.013843
0.013691
0.000944
0.006477
0.006030
0.003895
0.013347
0.009689
0.007447
0.011561
0.002501
0.012584
0.007949
0.008102
0.000310
0.000469
0.000442
0.000459
0.000295
0.000371
0.000259
0.000422
0.000352
0.000279
0.000343
0.000290
0.000169
0.000142
0.000196
0.000465
0.000117
0.000265
0.000184
0.000153
0.000213
0.000565
0.000513
0.000249
0.000378
0.000276
0.000681
0.001744
0.001717
0.004200
0.013350
0.002422
0.008327
0.000785
0.000945
0.013676
0.001427
0.008266
0.004896
0.003261
0.000469
0.008666
0.008818
0.004254
0.014087
0.000120
0.000030
0.000028
0.014303
0.000127
0.014302
0.014087
0.012780
0.013130
0.012634
0.009767
0.005919
0.011827
0.001496
0.012170
0.013768
0.011434
0.002506
0.012126
0.007233
0.008525
0.008515
0.002506
0.012172
0.004085
0.011665
0.012781
0.010913
0.004658
0.006625
0.002233
0.011138
0.006477
0.012082
0.001558
0.009264
0.009260
0.006170
0.004361
0.012799
0.009531
0.013562
0.008252
0.010240
0.010239
0.013567
0.007512
0.007471
0.006325
0.005430
0.005429
0.000303
0.003594
0.001412
0.013700
0.005420
0.005426
0.010220
0.010221
0.008245
0.009240
0.009245
0.006476
0.012717
0.002507
0.001422
0.008457
0.013840
0.003579
0.003581
0.011885
0.001708
0.005923
0.011995
0.013685
0.009786
0.007508
0.007510
0.008258
0.011190
0.004379
0.004807
0.004371
0.000613
0.013241
0.012593
0.011896
0.011032
0.004645
0.004646
0.010940
0.013675
0.000781
0.011283
0.008523
0.008526
0.007238
0.012460
0.001577
0.010938
0.003283
0.004115
0.005646
0.012503
0.001716
0.001708
0.012461
0.007289
0.013465
0.008265
0.004087
0.011972
0.005695
0.005702
0.003355
0.012053
0.009989
0.009995
0.005954
0.009747
0.009515
0.002227
0.006206
0.013648
0.013212
0.000295
0.000353
0.000344
0.000480
0.000562
0.000378
0.000286
0.000184
0.000155
0.000490
0.000249
0.000215
0.000311
0.000277
0.000442
0.000481
0.000458
0.000371
0.000259
0.000423
0.000290
0.000143
0.000168
0.000280
0.000120
0.000198
0.000678
0.013025
0.002229
0.002780
0.002780
0.012842
0.012565
0.011699
0.006742
0.006741
0.009009
0.003737
0.009019
0.002269
0.010490
0.010490
0.005155
0.004898
0.001179
0.001179
0.011337
0.003825
0.011588
0.007730
0.000575
0.000459
0.000455
0.000568
0.000444
0.000412
0.000271
0.000371
0.000262
0.000294
0.000177
0.000318
0.000136
0.000139
0.000164
0.000360
0.000570
0.000339
0.000262
0.000525
0.000178
0.000193
0.000149
0.000437
0.000658
0.000280
0.000253
0.000385
0.000216
0.000301
0.000874
0.004126
0.007771
0.008003
0.013853
0.013853
0.004896
0.004894
0.000875
0.011435
0.012224
0.013066
0.005950
0.012711
0.011379
0.010708
0.010708
0.011628
0.005194
0.008782
0.006977
0.006977
0.012358
0.003034
0.003038
0.003826
0.001969
0.001972
0.009753
0.013640
0.013805
0.003826
0.011589
0.000377
0.000692
0.000567
0.000465
0.000466
0.000469
0.000516
0.000261
0.000278
0.000252
0.000442
0.000368
0.000291
0.000424
0.000398
0.000399
0.000360
0.000360
0.000239
0.000232
0.000233
0.000243
0.000239
0.000243
0.000249
0.000249
0.000432
0.000280
0.000268
0.000280
0.000432
0.000268
0.000455
0.000456
0.000341
0.000342
0.000360
0.000361
0.000457
0.000346
0.000558
0.000558
0.000566
0.000451
0.000351
0.000467
0.000455
0.000568
0.000365
0.000426
0.000239
0.000138
0.000564
0.000352
0.000539
0.000533
0.000323
0.000349
0.000243
0.000245
0.000138
0.000423
0.000331
0.000340
0.000347
0.000138
0.000438
0.000397
0.000138
0.000341
0.000139
0.000353
0.000298
0.000148
0.000510
0.000166
0.000148
0.000458
0.000241
0.000573
0.000469
0.000255
0.000454
0.000252
0.000231
0.000248
0.000476
0.000263
0.000242
0.000335
0.000240
0.000215
0.000677
0.000554
0.000449
0.000378
0.000139
0.000352
0.000237
0.000555
0.000451
0.000136
0.000355
0.000227
0.000132
0.000356
0.000140
0.000159
0.000240
0.000467
0.000455
0.000344
0.000565
0.000368
0.000367
0.000351
0.000356
0.000327
0.000557
0.000527
0.000426
0.000338
0.000530
0.000336
0.000239
0.000243
0.000438
0.000258
0.000341
0.000245
0.000647
0.000358
0.000460
0.000137
0.000146
0.000243
0.000340
0.000137
0.000172
0.000364
0.000446
0.000143
0.000389
0.000342
0.000340
0.000141
0.000255
0.000344
0.000248
0.000241
0.000240
0.000288
0.000517
0.000335
0.000154
0.000268
0.000256
0.000242
0.000141
0.000352
0.000384
0.000799
0.000466
0.000248
0.000443
0.000437
0.000347
0.000345
0.000345
0.000125
0.000240
0.000357
0.000431
0.000327
0.000457
0.000457
0.000468
0.000468
0.000352
0.000352
0.000252
0.000252
0.000240
0.000240
0.000344
0.000344
0.000244
0.000244
0.000370
0.000370
0.000377
0.000692
0.000466
0.000469
0.000567
0.000465
0.000261
0.000518
0.000278
0.000252
0.000442
0.000368
0.000424
0.000291
0.008019
0.000566
0.000362
0.000546
0.000316
0.000424
0.000478
0.000371
0.000405
0.000232
0.000681
0.000152
0.000358
0.000219
0.000008
0.000068
0.000044
0.000128
-0.000021
0.000640
0.000019
0.000060
0.000409
0.000085
0.000806
0.000486
0.000363
0.000392
0.012525
0.014271
0.000120
0.014270
0.004257
0.002507
0.000868
0.013410
0.001857
0.001869
0.003150
0.012237
0.003136
0.009614
0.006099
0.008738
0.014211
0.000148
0.000148
0.014211
0.003431
0.011949
0.007361
0.011013
0.013222
0.000475
0.011059
0.000117
0.001649
0.009746
0.006091
0.009637
0.005950
0.000143
0.001560
0.007365
0.011820
0.011999
0.013330
0.003424
0.012705
0.001880
0.001872
0.003137
0.014205
0.000138
0.014206
0.004125
0.012694
0.000123
0.000562
0.003144
0.012183
0.004263
0.001475
0.013484
0.001576
0.009535
0.006191
0.004364
0.000577
0.000461
0.000456
0.000565
0.000444
0.000413
0.000371
0.000262
0.000294
0.000274
0.000318
0.000177
0.000142
0.000166
0.000364
0.000568
0.000342
0.000264
0.000523
0.000180
0.000152
0.000193
0.000280
0.000253
0.000385
0.000301
0.000209
0.000232
0.000232
0.000330
0.010977
0.007286
0.012055
0.003354
0.003037
0.001974
0.001971
0.012313
0.003038
SCALARS strain_e22 float 1
LOOKUP_TABLE default
-0.023615
-0.001236
-0.028862
-0.023620
-0.045343
-0.032721
-0.035933
-0.023417
-0.023414
-0.035937
-0.042951
-0.030318
-0.029087
-0.000749
-0.032616
-0.000775
-0.035816
-0.035823
-0.027026
-0.037636
-0.025488
-0.017514
-0.004134
-0.004156
-0.017592
-0.034504
-0.034502
-0.011982
-0.030365
-0.022056
-0.012530
-0.037251
-0.042007
-0.008852
-0.008854
-0.039391
-0.007856
-0.042811
-0.030249
-0.018367
-0.037907
-0.021093
-0.031270
-0.031277
-0.033626
-0.033621
-0.022059
-0.018565
-0.042921
-0.002131
-0.025571
-0.044903
-0.045575
-0.005229
-0.039053
-0.011459
-0.024555
-0.027952
-0.015031
-0.015030
-0.001577
-0.026827
-0.000764
-0.025722
-0.021079
-0.001228
-0.027815
-0.015568
-0.013973
-0.045928
-0.008536
-0.036773
-0.047283
-0.047285
-0.028930
-0.000740
-0.020823
-0.017481
-0.016067
-0.028143
-0.031558
-0.004113
-0.004119
-0.017365
-0.034765
-0.034766
-0.018724
-0.012559
-0.038908
-0.030176
-0.045329
-0.007698
-0.008062
-0.022295
-0.022293
-0.040777
-0.045312
-0.045224
-0.026984
-0.014737
-0.041975
-0.009088
-0.009085
-0.025612
-0.044257
-0.007606
-0.000254
-0.045831
-0.043188
-0.001227
-0.019577
-0.020862
-0.037386
-0.031521
-0.012242
-0.002391
-0.039083
-0.020099
-0.039460
-0.013935
-0.033456
-0.033452
-0.002635
-0.018807
-0.015820
-0.002667
-0.043755
-0.001257
-0.001257
-0.000814
-0.000815
-0.044964
-0.005508
-0.001289
-0.008605
-0.008139
-0.046942
-0.046943
-0.011988
-0.011161
-0.041289
-0.000271
-0.026915
-0.037240
-0.037073
-0.039412
-0.024316
-0.004552
-0.028211
-0.001329
-0.016120
-0.036631
-0.002138
-0.015291
-0.015286
-0.032207
-0.002243
-0.016601
-0.002705
-0.016801
-0.001847
-0.046783
-0.046780
-0.002684
-0.003198
-0.014762
-0.040517
-0.013440
-0.006836
-0.006837
-0.021567
-0.037196
-0.021361
-0.038256
-0.018278
-0.024823
-0.009854
-0.009855
-0.015570
-0.029040
-0.043486
-0.041332
-0.029454
-0.026096
-0.042745
-0.011733
-0.039339
-0.046452
-0.003181
-0.039487
-0.017075
-0.026461
-0.021781
-0.004939
-0.027720
-0.045479
-0.040792
-0.023013
-0.023012
-0.038544
-0.013048
-0.029483
-0.038537
-0.013058
-0.001774
-0.003596
-0.003606
-0.046490
-0.018291
-0.040534
-0.001315
-0.035418
-0.035433
-0.001043
-0.002255
-0.033916
-0.033917
-0.045375
-0.037467
-0.028991
-0.016981
-0.003122
-0.043999
-0.036263
-0.029791
-0.031050
-0.031052
-0.023932
-0.029385
-0.021379
-0.032282
-0.041552
-0.001736
-0.038286
-0.019641
-0.047681
-0.047683
-0.042762
-0.026429
-0.008141
-0.020819
-0.026119
-0.002198
-0.026559
-0.031580
-0.008558
-0.027693
-0.042378
-0.010700
-0.006756
-0.006752
-0.010698
-0.008551
-0.039689
-0.020028
-0.040593
-0.026979
-0.021567
-0.009947
-0.009949
-0.040559
-0.021788
-0.027302
-0.037193
-0.030634
-0.030649
-0.000957
-0.001002
-0.001888
-0.001151
-0.000709
-0.001435
-0.000962
-0.000943
-0.000999
-0.000939
-0.000927
-0.000982
-0.000699
-0.000948
-0.000228
-0.000242
-0.000236
-0.000259
-0.000285
-0.000289
-0.000231
-0.000225
-0.000233
-0.000237
-0.000265
-0.000953
-0.041089
-0.035153
-0.035152
-0.003170
-0.039901
-0.029776
-0.000267
-0.043717
-0.022697
-0.022696
-0.034311
-0.034311
-0.000676
-0.017863
-0.017880
-0.000774
-0.041577
-0.023113
-0.023111
-0.009502
-0.009506
-0.044937
-0.007192
-0.038691
-0.038987
-0.029348
-0.043546
-0.020445
-0.012604
-0.013004
-0.004508
-0.031919
-0.040378
-0.027746
-0.012163
-0.026903
-0.026477
-0.033043
-0.033055
-0.041073
-0.019209
-0.019232
-0.046984
-0.025242
-0.025190
-0.044548
-0.027313
-0.014513
-0.035482
-0.035483
-0.014335
-0.007192
-0.023916
-0.028622
-0.028603
-0.015711
-0.036251
-0.040493
-0.046077
-0.000612
-0.000551
-0.000565
-0.000559
-0.000577
-0.000611
-0.000615
-0.000555
-0.000502
-0.000548
-0.000559
-0.000591
-0.000616
-0.046363
-0.000642
-0.001549
-0.001112
-0.000684
-0.001476
-0.001027
-0.000646
-0.000628
-0.000682
-0.000626
-0.000611
-0.000665
-0.001027
-0.046570
-0.003130
-0.046856
-0.019518
-0.032795
-0.017035
-0.017424
-0.039040
-0.043733
-0.026536
-0.027395
-0.027814
-0.012522
-0.046641
-0.043502
-0.013399
-0.016523
-0.000780
-0.014265
-0.038080
-0.002202
-0.040247
-0.046265
-0.002689
-0.014514
-0.014013
-0.046611
-0.046602
-0.026532
-0.046489
-0.001462
-0.001113
-0.004991
-0.001762
-0.026907
-0.000703
-0.042021
-0.041750
-0.005993
-0.006028
-0.040031
-0.040231
-0.002649
-0.025989
-0.000713
-0.042025
-0.001733
-0.045748
-0.039804
-0.028234
-0.001277
-0.046397
-0.001241
-0.000808
-0.048606
-0.048583
-0.048574
-0.002747
-0.048551
-0.009883
-0.048540
-0.047758
-0.005484
-0.048515
-0.012556
-0.049409
-0.047753
-0.012559
-0.011718
-0.005985
-0.010378
-0.048504
-0.005944
-0.048187
-0.005987
-0.016975
-0.009877
-0.005945
-0.010770
-0.008584
-0.016590
-0.048614
-0.048477
-0.006854
-0.011665
-0.010824
-0.010376
-0.015844
-0.005989
-0.048180
-0.016330
-0.043510
-0.005527
-0.009927
-0.005947
-0.010327
-0.052674
-0.029860
-0.048464
-0.008533
-0.017202
-0.012610
-0.005942
-0.029514
-0.018932
-0.016274
-0.005990
-0.029151
-0.051832
-0.009926
-0.014043
-0.008984
-0.011663
-0.012163
-0.014083
-0.012115
-0.016536
-0.018471
-0.005948
-0.018872
-0.014490
-0.005991
-0.048435
-0.010374
-0.005981
-0.018886
-0.036154
-0.014531
-0.018900
-0.014937
-0.018927
-0.021714
-0.016960
-0.014977
-0.021749
-0.029504
-0.005949
-0.019877
-0.005940
-0.020308
-0.009931
-0.011716
-0.010324
-0.020345
-0.011219
-0.015710
-0.020776
-0.016290
-0.010330
-0.028828
-0.019839
-0.017179
-0.038141
-0.020813
-0.010821
-0.048421
-0.016124
-0.016713
-0.016596
-0.005992
-0.017113
-0.037883
-0.009876
-0.016087
-0.017027
-0.037920
-0.018431
-0.028742
-0.015661
-0.003656
-0.018394
-0.017968
-0.018429
-0.016563
-0.005950
-0.010771
-0.017904
-0.005852
-0.029192
-0.038029
-0.016559
-0.018854
-0.021714
-0.012717
-0.018892
-0.037748
-0.035998
-0.018915
-0.013783
-0.046400
-0.016314
-0.007286
-0.016601
-0.029494
-0.001797
-0.017071
-0.009034
-0.017155
-0.010325
-0.015140
-0.017034
-0.035910
-0.015884
-0.034094
-0.010772
-0.017074
-0.014288
-0.018281
-0.018921
-0.037996
-0.019385
-0.005525
-0.007238
-0.005992
-0.034022
-0.015614
-0.010822
-0.042087
-0.015178
-0.009499
-0.033368
-0.046819
-0.018939
-0.048391
-0.021241
-0.034393
-0.024932
-0.036077
-0.014288
-0.017554
-0.018325
-0.014248
-0.018717
-0.025750
-0.029911
-0.025479
-0.011271
-0.022383
-0.035991
-0.016081
-0.011269
-0.046230
-0.007636
-0.021672
-0.039406
-0.015232
-0.013823
-0.013783
-0.014253
-0.021282
-0.027970
-0.018699
-0.019837
-0.016151
-0.027853
-0.033892
-0.015272
-0.047456
-0.020559
-0.019203
-0.016129
-0.027825
-0.025514
-0.018784
-0.035239
-0.033978
-0.032899
-0.007236
-0.013822
-0.017966
-0.001807
-0.028379
-0.048634
-0.007684
-0.036335
-0.022766
-0.015657
-0.001852
-0.022835
-0.022315
-0.011219
-0.019237
-0.038351
-0.012250
-0.038417
-0.016671
-0.018003
-0.015147
-0.005951
-0.022363
-0.017999
-0.047394
-0.026724
-0.001856
-0.014286
-0.018932
-0.047348
-0.038911
-0.014398
-0.002312
-0.013176
-0.006896
-0.048666
-0.014840
-0.017963
-0.013782
-0.019689
-0.007188
-0.038847
-0.001857
-0.022207
-0.007635
-0.001811
-0.016687
-0.047327
-0.051415
-0.019407
-0.029462
-0.019656
-0.017958
-0.034051
-0.043250
-0.013316
-0.020108
-0.050332
-0.006787
-0.002791
-0.019876
-0.011667
-0.047020
-0.017162
-0.011720
-0.043515
-0.039450
-0.024884
-0.009484
-0.032733
-0.048375
-0.012655
-0.028335
-0.023581
-0.016095
-0.015655
-0.006738
-0.001353
-0.001810
-0.044372
-0.013058
-0.015185
-0.012846
-0.021245
-0.015296
-0.011949
-0.027886
-0.018768
-0.013005
-0.021641
-0.046259
-0.036456
-0.049085
-0.039344
-0.038280
-0.007770
-0.013817
-0.013774
-0.013583
-0.038298
-0.023494
-0.011272
-0.033271
-0.038627
-0.017580
-0.017995
-0.020719
-0.034166
-0.028011
-0.017947
-0.020571
-0.029553
-0.012557
-0.001409
-0.001805
-0.015133
-0.011717
-0.016609
-0.012610
-0.038349
-0.017983
-0.048138
-0.016775
-0.017219
-0.013452
-0.011909
-0.018942
-0.017036
-0.020988
-0.008593
-0.012800
-0.013895
-0.015191
-0.018751
-0.036925
-0.042308
-0.019368
-0.049945
-0.022048
-0.011957
-0.001358
-0.008084
-0.013124
-0.015711
-0.030046
-0.042946
-0.001817
-0.016728
-0.016145
-0.016571
-0.021841
-0.018354
-0.023128
-0.021020
-0.013005
-0.014791
-0.011953
-0.017989
-0.023555
-0.017940
-0.022332
-0.020291
-0.020258
-0.033742
-0.048660
-0.007672
-0.014847
-0.008643
-0.050368
-0.021437
-0.017976
-0.019830
-0.017933
-0.048614
-0.028055
-0.045514
-0.016106
-0.004944
-0.021751
-0.021469
-0.028136
-0.013058
-0.047753
-0.001820
-0.043282
-0.037795
-0.002681
-0.013961
-0.045997
-0.018902
-0.037265
-0.001845
-0.012198
-0.017832
-0.019369
-0.021885
-0.005993
-0.043456
-0.028093
-0.042204
-0.002251
-0.011222
-0.009430
-0.037777
-0.018889
-0.011914
-0.019334
-0.017862
-0.044663
-0.017953
-0.032831
-0.049131
-0.020140
-0.045946
-0.049979
-0.004560
-0.034215
-0.024390
-0.024064
-0.018880
-0.052152
-0.046696
-0.011806
-0.016554
-0.012162
-0.034167
-0.009927
-0.014393
-0.017882
-0.037261
-0.044709
-0.043976
-0.043193
-0.043380
-0.036803
-0.038300
-0.014334
-0.047322
-0.047310
-0.016129
-0.013823
-0.044347
-0.005446
-0.049075
-0.047875
-0.009549
-0.006336
-0.046902
-0.013301
-0.036759
-0.013824
-0.006354
-0.019342
-0.037207
-0.012112
-0.001407
-0.011793
-0.014274
-0.045904
-0.043342
-0.038050
-0.037061
-0.029103
-0.019350
-0.048708
-0.008144
-0.002728
-0.025573
-0.051771
-0.033766
-0.037769
-0.038072
-0.007235
-0.035172
-0.042538
-0.044422
-0.021957
-0.013895
-0.013264
-0.046435
-0.020571
-0.011451
-0.029235
-0.047310
-0.009433
-0.018475
-0.013229
-0.001325
-0.005889
-0.020550
-0.020518
-0.013071
-0.016604
-0.021212
-0.011494
-0.037192
-0.011271
-0.032857
-0.023949
-0.031870
-0.039563
-0.010825
-0.022702
-0.049092
-0.014248
-0.006831
-0.041452
-0.042339
-0.043193
-0.041617
-0.021916
-0.032803
-0.018941
-0.032723
-0.032217
-0.037209
-0.015276
-0.014248
-0.051730
-0.028337
-0.036747
-0.001372
-0.013000
-0.021679
-0.043355
-0.005993
-0.037213
-0.017596
-0.047804
-0.023458
-0.015713
-0.011918
-0.014592
-0.007722
-0.029685
-0.013502
-0.013189
-0.022430
-0.018374
-0.040700
-0.018734
-0.028302
-0.037217
-0.021180
-0.011424
-0.040604
-0.007658
-0.037182
-0.023072
-0.003208
-0.027861
-0.002299
-0.012116
-0.008536
-0.048548
-0.047631
-0.006294
-0.005838
-0.007255
-0.021783
-0.018896
-0.012171
-0.004993
-0.049391
-0.028462
-0.014791
-0.009479
-0.013907
-0.039456
-0.014785
-0.049869
-0.047859
-0.035390
-0.006397
-0.028986
-0.037768
-0.033979
-0.011007
-0.018409
-0.041682
-0.001864
-0.050422
-0.021179
-0.001326
-0.044976
-0.015226
-0.011856
-0.032810
-0.011247
-0.039194
-0.046160
-0.037317
-0.009502
-0.045903
-0.037794
-0.044504
-0.021932
-0.041183
-0.047826
-0.041679
-0.048343
-0.017869
-0.040593
-0.037279
-0.013780
-0.012165
-0.019953
-0.018433
-0.019371
-0.013355
-0.021740
-0.021865
-0.013824
-0.007693
-0.027816
-0.020301
-0.012857
-0.024820
-0.040593
-0.011470
-0.024857
-0.005951
-0.023218
-0.002266
-0.021409
-0.036726
-0.003704
-0.020988
-0.040188
-0.025504
-0.033345
-0.033368
-0.048254
-0.006796
-0.020752
-0.009440
-0.017551
-0.002296
-0.038114
-0.005951
-0.044742
-0.036071
-0.021041
-0.017031
-0.024786
-0.016448
-0.022266
-0.049929
-0.010324
-0.015004
-0.001858
-0.034775
-0.006787
-0.025961
-0.012382
-0.011667
-0.049218
-0.027063
-0.029192
-0.017916
-0.018359
-0.010862
-0.024891
-0.049075
-0.031448
-0.003686
-0.045165
-0.049906
-0.003162
-0.024198
-0.024752
-0.016022
-0.021140
-0.037794
-0.037587
-0.002271
-0.041980
-0.048723
-0.005944
-0.033751
-0.047535
-0.041292
-0.023779
-0.033070
-0.048634
-0.046353
-0.013800
-0.022589
-0.016096
-0.016411
-0.008600
-0.022387
-0.035582
-0.004986
-0.045423
-0.007686
-0.013452
-0.024022
-0.031048
-0.015240
-0.023985
-0.032390
-0.022132
-0.030930
-0.050712
-0.025536
-0.038914
-0.023215
-0.044627
-0.016074
-0.020027
-0.023168
-0.046913
-0.044517
-0.040695
-0.044948
-0.006344
-0.021010
-0.004490
-0.014771
-0.024918
-0.017827
-0.016111
-0.043008
-0.050147
-0.022989
-0.016173
-0.024993
-0.044242
-0.024718
-0.044007
-0.012570
-0.050085
-0.044923
-0.039377
-0.045027
-0.027521
-0.002268
-0.045354
-0.049066
-0.018473
-0.048684
-0.039766
-0.044016
-0.016046
-0.013088
-0.031413
-0.013218
-0.045855
-0.037087
-0.022804
-0.049190
-0.015959
-0.036627
-0.030739
-0.015996
-0.001863
-0.034655
-0.005887
-0.018909
-0.051740
-0.006806
-0.037023
-0.052188
-0.013778
-0.015658
-0.001393
-0.050314
-0.017977
-0.048384
-0.027074
-0.011486
-0.011441
-0.028050
-0.021982
-0.016050
-0.041741
-0.021932
-0.017537
-0.038032
-0.024753
-0.023807
-0.037248
-0.006407
-0.005443
-0.005993
-0.007650
-0.020160
-0.012412
-0.005886
-0.003640
-0.033493
-0.038693
-0.009440
-0.003254
-0.020204
-0.023024
-0.050331
-0.013168
-0.020496
-0.003585
-0.032096
-0.008086
-0.049115
-0.049906
-0.040197
-0.024899
-0.044871
-0.022699
-0.046134
-0.021457
-0.011904
-0.039771
-0.001373
-0.013329
-0.002705
-0.022953
-0.020678
-0.050892
-0.036442
-0.037784
-0.032968
-0.018283
-0.030592
-0.032644
-0.041294
-0.035105
-0.006786
-0.001777
-0.019405
-0.016229
-0.044050
-0.018735
-0.014356
-0.016800
-0.007667
-0.013102
-0.022197
-0.003632
-0.034137
-0.007696
-0.029146
-0.049077
-0.042732
-0.023278
-0.008116
-0.048725
-0.022510
-0.016067
-0.032658
-0.038249
-0.048641
-0.003584
-0.051659
-0.015221
-0.005511
-0.015282
-0.016059
-0.046647
-0.047822
-0.045357
-0.015437
-0.019409
-0.028828
-0.011961
-0.019895
-0.013358
-0.013809
-0.022553
-0.014719
-0.009663
-0.021062
-0.050753
-0.048523
-0.019365
-0.002703
-0.021367
-0.045909
-0.034391
-0.044902
-0.006288
-0.038482
-0.015689
-0.044498
-0.039344
-0.039339
-0.003210
-0.007700
-0.033492
-0.037422
-0.034007
-0.001867
-0.006380
-0.045920
-0.027339
-0.035188
-0.029995
-0.047589
-0.015973
-0.013813
-0.048111
-0.001407
-0.031917
-0.013178
-0.048343
-0.022458
-0.046933
-0.037301
-0.022428
-0.039050
-0.035567
-0.049554
-0.041043
-0.007737
-0.016104
-0.044372
-0.021265
-0.004131
-0.041844
-0.019796
-0.017928
-0.002726
-0.037772
-0.011404
-0.047958
-0.022023
-0.001435
-0.003591
-0.044031
-0.022995
-0.022945
-0.037058
-0.009432
-0.051778
-0.034665
-0.036360
-0.029080
-0.030836
-0.027309
-0.036700
-0.013286
-0.027376
-0.008187
-0.024872
-0.004119
-0.042114
-0.046661
-0.039182
-0.045908
-0.027301
-0.043171
-0.016031
-0.022332
-0.018315
-0.026694
-0.029902
-0.051667
-0.024907
-0.006287
-0.030554
-0.017842
-0.047456
-0.003592
-0.025471
-0.010962
-0.026277
-0.002317
-0.001816
-0.014388
-0.007715
-0.002234
-0.018623
-0.013766
-0.049938
-0.014236
-0.016077
-0.022023
-0.015531
-0.015215
-0.007757
-0.018871
-0.022924
-0.022966
-0.013208
-0.011815
-0.020989
-0.011957
-0.038483
-0.009491
-0.040621
-0.033475
-0.007708
-0.031321
-0.038911
-0.039500
-0.001842
-0.001861
-0.022633
-0.037417
-0.021982
-0.012560
-0.003160
-0.025986
-0.024158
-0.021420
-0.027108
-0.016041
-0.007717
-0.036361
-0.013165
-0.018141
-0.014208
-0.050444
-0.040505
-0.022540
-0.021414
-0.014541
-0.031413
-0.038601
-0.008643
-0.007662
-0.042091
-0.038103
-0.018904
-0.037155
-0.016271
-0.012618
-0.001358
-0.021280
-0.025791
-0.041514
-0.009953
-0.043214
-0.039840
-0.048739
-0.042435
-0.044606
-0.050999
-0.022975
-0.024227
-0.018969
-0.033728
-0.045122
-0.017522
-0.038196
-0.025041
-0.018434
-0.037117
-0.038050
-0.014247
-0.006402
-0.015554
-0.022152
-0.043380
-0.002684
-0.014232
-0.037546
-0.044322
-0.038624
-0.032632
-0.028101
-0.006865
-0.027438
-0.042598
-0.047231
-0.009891
-0.001879
-0.037122
-0.018717
-0.029129
-0.004937
-0.013345
-0.009500
-0.014490
-0.005436
-0.025762
-0.048740
-0.042422
-0.009429
-0.004069
-0.031804
-0.031304
-0.012207
-0.048125
-0.047234
-0.046241
-0.013502
-0.003134
-0.007305
-0.048773
-0.010546
-0.003632
-0.003654
-0.037875
-0.017380
-0.048342
-0.052472
-0.016087
-0.001824
-0.012610
-0.037616
-0.001818
-0.009656
-0.013340
-0.007263
-0.013901
-0.038030
-0.041648
-0.015068
-0.048251
-0.015544
-0.035597
-0.016074
-0.004087
-0.044935
-0.015651
-0.036944
-0.009492
-0.038090
-0.035242
-0.025997
-0.037617
-0.006449
-0.010773
-0.013487
-0.030188
-0.025275
-0.025007
-0.028378
-0.026199
-0.011217
-0.028786
-0.007646
-0.006828
-0.006337
-0.050930
-0.045229
-0.045207
-0.037065
-0.036866
-0.048753
-0.011921
-0.050090
-0.045472
-0.007277
-0.049223
-0.037182
-0.045268
-0.040905
-0.051789
-0.048666
-0.036898
-0.046277
-0.046322
-0.023358
-0.022872
-0.018566
-0.044563
-0.045113
-0.038599
-0.046563
-0.046806
-0.053019
-0.045468
-0.005488
-0.042103
-0.032232
-0.050072
-0.018036
-0.024486
-0.001396
-0.005430
-0.006746
-0.013635
-0.030891
-0.014221
-0.004605
-0.016259
-0.005845
-0.036893
-0.049195
-0.049378
-0.036347
-0.038700
-0.047201
-0.038110
-0.005926
-0.022008
-0.046325
-0.002230
-0.013955
-0.037027
-0.036453
-0.046261
-0.044106
-0.043936
-0.038065
-0.007712
-0.027486
-0.045909
-0.015507
-0.035213
-0.003646
-0.048237
-0.012623
-0.049860
-0.020301
-0.039696
-0.009506
-0.014543
-0.010354
-0.001361
-0.025594
-0.026195
-0.033297
-0.051028
-0.018825
-0.047239
-0.048416
-0.046725
-0.010325
-0.046310
-0.026847
-0.036690
-0.023423
-0.005469
-0.015640
-0.047195
-0.028420
-0.038193
-0.045064
-0.023742
-0.010400
-0.051604
-0.050843
-0.010823
-0.045186
-0.002275
-0.036268
-0.044733
-0.027476
-0.037783
-0.005965
-0.019177
-0.048375
-0.010826
-0.049752
-0.048991
-0.007228
-0.038193
-0.020247
-0.002679
-0.012250
-0.002753
-0.041411
-0.026655
-0.007685
-0.024255
-0.013247
-0.046872
-0.044918
-0.018914
-0.017732
-0.017541
-0.005062
-0.009479
-0.026481
-0.026456
-0.014259
-0.021705
-0.021715
-0.007268
-0.046055
-0.027265
-0.004937
-0.028260
-0.039275
-0.017893
-0.017459
-0.013176
-0.006853
-0.003588
-0.018781
-0.044539
-0.005840
-0.010413
-0.024787
-0.018907
-0.011887
-0.026326
-0.012343
-0.034448
-0.037113
-0.010988
-0.026369
-0.011665
-0.008586
-0.034798
-0.024536
-0.027377
-0.031280
-0.031353
-0.026667
-0.002286
-0.001356
-0.027342
-0.031507
-0.016243
-0.011217
-0.028646
-0.026805
-0.026038
-0.044845
-0.025358
-0.018428
-0.026013
-0.018763
-0.015556
-0.006416
-0.042667
-0.050072
-0.029207
-0.017248
-0.043607
-0.027842
-0.035724
-0.001350
-0.010766
-0.002728
-0.004125
-0.047797
-0.015017
-0.048706
-0.018475
-0.015607
-0.037030
-0.003180
-0.023510
-0.011268
-0.036746
-0.022117
-0.008636
-0.039545
-0.038123
-0.018087
-0.048975
-0.013761
-0.025042
-0.038206
-0.028690
-0.043225
-0.046729
-0.019532
-0.045218
-0.022789
-0.039448
-0.045049
-0.003606
-0.023226
-0.008539
-0.036533
-0.026147
-0.016186
-0.007205
-0.025961
-0.014825
-0.040002
-0.045322
-0.042504
-0.018047
-0.046490
-0.034719
-0.015985
-0.049216
-0.041396
-0.045628
-0.049159
-0.008592
-0.041634
-0.034316
-0.007233
-0.014030
-0.011680
-0.027684
-0.042073
-0.036939
-0.019807
-0.037021
-0.046988
-0.029235
-0.041119
-0.026116
-0.042867
-0.036907
-0.025379
-0.045061
-0.027780
-0.020591
-0.001412
-0.045472
-0.017285
-0.020243
-0.034365
-0.009902
-0.001784
-0.031352
-0.031507
-0.025891
-0.023920
-0.005887
-0.002248
-0.035212
-0.042085
-0.050564
-0.032773
-0.040268
-0.045825
-0.017732
-0.051058
-0.021026
-0.007654
-0.023262
-0.011364
-0.048540
-0.012198
-0.011926
-0.003170
-0.044258
-0.040674
-0.036987
-0.002275
-0.016439
-0.052213
-0.043456
-0.016154
-0.043441
-0.045063
-0.005991
-0.047885
-0.038110
-0.012112
-0.022742
-0.042703
-0.049504
-0.049159
-0.002727
-0.034374
-0.027027
-0.034896
-0.045631
-0.004482
-0.044037
-0.016337
-0.035236
-0.016146
-0.005895
-0.048998
-0.017916
-0.025303
-0.047617
-0.008138
-0.049184
-0.002731
-0.012278
-0.025328
-0.041970
-0.040996
-0.020657
-0.013946
-0.034061
-0.022619
-0.012343
-0.020081
-0.015103
-0.047079
-0.022782
-0.016097
-0.013624
-0.004985
-0.052508
-0.005897
-0.013238
-0.014083
-0.041832
-0.022860
-0.011511
-0.013249
-0.036252
-0.050629
-0.025152
-0.004537
-0.045488
-0.045088
-0.044132
-0.025181
-0.041303
-0.008182
-0.037122
-0.036795
-0.028321
-0.025847
-0.028720
-0.045109
-0.047421
-0.030713
-0.045502
-0.036723
-0.002283
-0.042678
-0.030978
-0.008138
-0.006818
-0.003211
-0.026920
-0.045001
-0.041928
-0.042223
-0.020507
-0.011226
-0.004046
-0.005396
-0.033310
-0.032288
-0.042667
-0.042610
-0.006336
-0.006908
-0.010376
-0.001454
-0.015398
-0.009927
-0.012247
-0.036981
-0.027857
-0.006377
-0.002748
-0.051766
-0.050897
-0.044750
-0.031401
-0.044054
-0.045499
-0.010360
-0.048961
-0.013942
-0.006423
-0.047951
-0.006738
-0.013701
-0.045699
-0.025952
-0.016300
-0.004087
-0.017501
-0.029782
-0.020340
-0.002276
-0.002782
-0.024822
-0.030948
-0.037703
-0.029885
-0.046342
-0.035257
-0.041095
-0.044749
-0.045640
-0.004037
-0.001889
-0.043223
-0.016009
-0.002299
-0.052608
-0.048417
-0.047065
-0.034870
-0.018914
-0.028241
-0.038604
-0.039955
-0.050495
-0.009044
-0.043602
-0.043630
-0.002319
-0.001394
-0.008166
-0.016589
-0.003675
-0.047012
-0.016067
-0.023195
-0.026887
-0.045424
-0.024936
-0.023198
-0.016390
-0.042844
-0.018950
-0.038204
-0.051351
-0.001389
-0.020406
-0.032371
-0.002229
-0.042818
-0.001808
-0.039877
-0.051617
-0.014681
-0.038167
-0.044738
-0.045940
-0.016475
-0.036846
-0.036633
-0.043395
-0.036799
-0.037416
-0.032356
-0.040330
-0.038234
-0.035143
-0.044763
-0.006381
-0.042716
-0.025146
-0.041499
-0.048435
-0.039788
-0.041282
-0.051644
-0.040689
-0.045178
-0.045215
-0.029113
-0.033131
-0.039781
-0.008086
-0.013506
-0.017695
-0.045837
-0.045397
-0.008088
-0.036635
-0.021354
-0.005993
-0.011964
-0.028422
-0.050623
-0.050352
-0.041645
-0.037324
-0.015328
-0.002233
-0.043306
-0.026233
-0.031432
-0.005388
-0.048274
-0.039781
-0.025923
-0.043021
-0.017056
-0.023167
-0.022732
-0.038234
-0.028699
-0.047150
-0.011219
-0.002279
-0.045116
-0.022406
-0.001403
-0.049205
-0.034046
-0.039211
-0.025111
-0.004072
-0.001860
-0.038547
-0.022405
-0.049214
-0.042068
-0.013445
-0.041192
-0.038244
-0.048050
-0.041043
-0.014331
-0.045868
-0.041698
-0.045263
-0.028709
-0.011815
-0.043936
-0.015055
-0.008984
-0.039864
-0.047251
-0.003200
-0.041011
-0.041385
-0.022912
-0.044428
-0.043438
-0.030991
-0.027555
-0.002319
-0.018929
-0.011269
-0.050072
-0.050474
-0.031255
-0.038659
-0.029662
-0.023238
-0.040190
-0.003170
-0.044837
-0.046774
-0.047885
-0.028271
-0.046797
-0.031281
-0.004940
-0.042882
-0.047012
-0.043537
-0.039962
-0.041690
-0.021281
-0.017538
-0.006858
-0.013756
-0.050993
-0.040825
-0.039377
-0.012576
-0.004984
-0.002791
-0.042926
-0.006319
-0.042916
-0.017359
-0.003635
-0.016020
-0.011404
-0.015998
-0.012288
-0.013464
-0.022751
-0.016009
-0.051358
-0.032716
-0.015889
-0.013583
-0.018606
-0.038601
-0.036266
-0.041411
-0.013014
-0.025178
-0.004488
-0.010801
-0.038274
-0.037801
-0.032342
-0.008193
-0.012697
-0.011793
-0.011282
-0.011235
-0.006291
-0.025599
-0.014048
-0.004541
-0.023640
-0.050929
-0.031188
-0.014338
-0.002285
-0.003225
-0.001844
-0.009484
-0.014840
-0.033583
-0.007688
-0.031477
-0.003662
-0.026186
-0.020572
-0.004550
-0.009874
-0.004116
-0.026824
-0.003154
-0.034791
-0.024114
-0.044528
-0.013113
-0.025568
-0.037884
-0.007272
-0.031267
-0.003132
-0.043613
-0.019720
-0.035310
-0.044300
-0.046500
-0.040197
-0.045785
-0.003211
-0.024420
-0.003609
-0.036745
-0.000254
-0.051309
-0.006451
-0.025608
-0.038167
-0.044226
-0.029724
-0.003217
-0.038659
-0.046883
-0.015125
-0.003184
-0.002281
-0.001855
-0.015651
-0.026899
-0.039870
-0.020061
-0.031160
-0.049498
-0.047310
-0.045115
-0.007646
-0.024719
-0.022480
-0.046550
-0.006835
-0.047826
-0.003623
-0.043534
-0.026262
-0.015568
-0.038332
-0.006877
-0.030393
-0.008094
-0.049844
-0.003254
-0.007223
-0.049830
-0.035074
-0.044016
-0.032703
-0.046126
-0.036742
-0.044444
-0.033106
-0.038085
-0.043610
-0.031391
-0.041632
-0.029137
-0.015601
-0.008144
-0.048187
-0.010921
-0.037514
-0.037758
-0.014245
-0.042798
-0.009878
-0.026862
-0.003179
-0.031732
-0.041688
-0.024127
-0.037854
-0.004955
-0.048641
-0.018178
-0.015927
-0.044556
-0.039371
-0.004568
-0.004536
-0.029061
-0.049336
-0.001836
-0.018936
-0.015054
-0.041289
-0.024683
-0.046954
-0.047348
-0.049806
-0.011272
-0.042460
-0.016636
-0.047234
-0.012297
-0.051901
-0.048686
-0.027109
-0.036135
-0.006315
-0.007636
-0.024922
-0.044986
-0.001408
-0.003168
-0.012800
-0.008997
-0.040262
-0.013144
-0.038222
-0.034284
-0.053033
-0.051539
-0.037229
-0.030840
-0.027364
-0.044727
-0.051095
-0.005443
-0.045010
-0.018141
-0.040613
-0.045662
-0.047450
-0.029503
-0.042115
-0.034768
-0.029948
-0.036792
-0.031188
-0.043607
-0.036690
-0.030874
-0.049214
-0.037772
-0.002228
-0.041110
-0.037877
-0.041499
-0.013210
-0.001398
-0.008583
-0.015066
-0.049154
-0.003152
-0.025413
-0.026958
-0.014383
-0.009542
-0.028643
-0.035410
-0.018853
-0.001824
-0.003211
-0.026245
-0.033859
-0.005937
-0.001777
-0.014529
-0.049136
-0.042414
-0.046906
-0.051554
-0.047910
-0.025573
-0.043411
-0.039588
-0.031183
-0.026695
-0.004984
-0.049183
-0.007235
-0.040869
-0.029729
-0.015479
-0.032663
-0.034160
-0.005845
-0.036850
-0.037783
-0.030848
-0.027302
-0.035739
-0.045277
-0.041033
-0.038463
-0.025504
-0.005499
-0.046230
-0.013950
-0.046307
-0.042041
-0.042089
-0.040620
-0.011829
-0.001843
-0.043515
-0.046478
-0.045566
-0.002740
-0.001886
-0.040604
-0.030460
-0.048233
-0.046970
-0.045969
-0.033226
-0.045135
-0.003631
-0.021985
-0.002229
-0.040888
-0.052185
-0.015479
-0.025326
-0.006368
-0.040290
-0.014356
-0.047339
-0.050681
-0.030787
-0.031475
-0.002772
-0.008683
-0.011858
-0.038222
-0.019647
-0.038007
-0.032078
-0.049378
-0.008144
-0.000978
-0.026649
-0.048723
-0.003628
-0.004082
-0.002315
-0.018796
-0.049658
-0.000698
-0.008663
-0.028194
-0.001892
-0.005456
-0.045125
-0.033650
-0.027401
-0.019932
-0.015384
-0.020635
-0.001836
-0.008631
-0.044310
-0.048515
-0.026601
-0.047495
-0.039955
-0.038725
-0.013035
-0.016530
-0.014349
-0.010879
-0.031317
-0.004084
-0.040642
-0.019130
-0.018458
-0.011504
-0.012838
-0.012775
-0.015644
-0.019940
-0.030929
-0.004092
-0.013062
-0.041833
-0.035529
-0.015103
-0.043627
-0.015556
-0.017329
-0.002762
-0.022835
-0.051730
-0.011847
-0.023856
-0.047955
-0.017409
-0.013124
-0.012237
-0.022479
-0.045600
-0.036184
-0.013277
-0.010960
-0.040623
-0.050571
-0.039901
-0.022791
-0.018813
-0.016800
-0.015932
-0.014991
-0.016118
-0.004499
-0.013258
-0.012368
-0.031874
-0.010847
-0.040494
-0.025147
-0.002733
-0.044191
-0.010494
-0.006831
-0.024851
-0.037518
-0.001324
-0.043166
-0.009093
-0.006409
-0.037295
-0.050418
-0.001891
-0.016097
-0.029024
-0.025369
-0.031249
-0.032632
-0.007244
-0.006294
-0.006288
-0.027223
-0.035756
-0.021766
-0.030734
-0.006782
-0.018383
-0.002705
-0.039877
-0.034046
-0.030345
-0.012160
-0.029180
-0.002746
-0.009929
-0.048421
-0.008548
-0.001341
-0.017912
-0.008981
-0.001385
-0.031368
-0.033310
-0.036010
-0.007198
-0.040093
-0.036139
-0.001780
-0.031043
-0.023046
-0.020937
-0.008993
-0.002293
-0.005910
-0.047859
-0.032541
-0.024486
-0.005987
-0.040570
-0.032415
-0.040935
-0.003638
-0.038373
-0.034942
-0.016540
-0.046729
-0.038713
-0.005869
-0.034448
-0.047013
-0.039539
-0.022210
-0.029896
-0.004537
-0.018294
-0.045892
-0.048548
-0.034611
-0.003631
-0.050080
-0.003585
-0.037550
-0.012831
-0.018401
-0.034911
-0.050179
-0.046936
-0.046988
-0.005452
-0.013940
-0.035314
-0.009479
-0.006900
-0.047613
-0.039209
-0.050364
-0.045121
-0.015580
-0.022668
-0.006866
-0.049339
-0.042909
-0.013124
-0.013056
-0.015080
-0.046925
-0.019474
-0.026824
-0.046761
-0.034052
-0.051124
-0.043333
-0.015737
-0.049066
-0.028304
-0.029151
-0.039533
-0.041069
-0.038579
-0.050389
-0.044746
-0.040293
-0.012392
-0.041253
-0.035826
-0.036000
-0.036322
-0.048763
-0.026311
-0.045673
-0.048476
-0.042299
-0.044750
-0.043573
-0.042423
-0.050569
-0.008220
-0.030625
-0.019308
-0.041060
-0.044086
-0.024892
-0.003210
-0.015983
-0.043859
-0.005886
-0.001792
-0.005951
-0.019598
-0.039593
-0.002236
-0.001341
-0.005017
-0.040196
-0.043293
-0.008198
-0.010836
-0.051273
-0.046189
-0.019917
-0.013199
-0.047906
-0.049644
-0.031186
-0.041382
-0.036934
-0.012162
-0.045528
-0.009943
-0.050937
-0.015777
-0.029282
-0.002691
-0.028741
-0.010776
-0.018248
-0.015371
-0.034954
-0.026269
-0.047423
-0.024041
-0.032120
-0.034396
-0.003709
-0.047896
-0.028786
-0.007267
-0.032069
-0.022558
-0.013720
-0.019997
-0.009874
-0.001767
-0.045378
-0.045614
-0.023454
-0.006786
-0.003209
-0.008136
-0.022363
-0.031573
-0.026536
-0.017345
-0.032499
-0.041535
-0.044754
-0.046738
-0.039084
-0.002700
-0.030904
-0.040154
-0.029859
-0.037675
-0.003182
-0.038627
-0.026423
-0.034775
-0.045699
-0.038608
-0.031317
-0.038110
-0.033718
-0.027916
-0.032944
-0.038234
-0.029473
-0.021999
-0.037238
-0.040045
-0.002277
-0.027528
-0.029249
-0.041003
-0.048208
-0.026887
-0.033988
-0.043532
-0.038712
-0.028317
-0.032754
-0.028187
-0.004085
-0.011919
-0.009153
-0.018196
-0.028046
-0.017053
-0.041289
-0.015412
-0.022450
-0.046698
-0.006340
-0.051723
-0.020558
-0.013268
-0.014660
-0.038918
-0.010912
-0.038940
-0.049687
-0.045616
-0.005885
-0.029595
-0.031159
-0.035959
-0.029192
-0.030955
-0.049964
-0.045605
-0.028071
-0.004938
-0.047348
-0.016998
-0.006360
-0.010085
-0.024455
-0.041009
-0.047331
-0.042312
-0.044550
-0.008542
-0.047641
-0.040765
-0.047698
-0.050516
-0.046531
-0.038355
-0.043828
-0.006405
-0.024675
-0.040832
-0.020614
-0.013239
-0.040672
-0.027719
-0.034415
-0.041064
-0.030785
-0.043654
-0.012350
-0.015042
-0.002760
-0.009040
-0.050250
-0.041472
-0.030658
-0.011925
-0.017033
-0.039686
-0.041086
-0.036438
-0.005396
-0.027028
-0.038604
-0.046328
-0.002691
-0.045456
-0.040497
-0.007186
-0.046661
-0.003186
-0.044890
-0.047631
-0.045678
-0.041320
-0.003631
-0.018716
-0.010500
-0.050612
-0.022204
-0.051770
-0.013945
-0.017659
-0.015092
-0.049131
-0.030684
-0.014622
-0.044058
-0.043353
-0.045645
-0.036863
-0.047905
-0.046337
-0.030831
-0.030399
-0.008134
-0.040757
-0.002777
-0.013155
-0.022902
-0.019184
-0.033190
-0.031080
-0.032062
-0.033202
-0.049085
-0.041463
-0.044757
-0.036792
-0.048581
-0.037783
-0.026034
-0.012173
-0.045655
-0.029902
-0.048026
-0.001819
-0.051712
-0.050062
-0.032201
-0.043234
-0.011269
-0.003584
-0.039869
-0.048111
-0.002733
-0.021810
-0.001813
-0.029705
-0.050294
-0.016074
-0.017099
-0.026614
-0.033241
-0.006426
-0.035352
-0.014543
-0.009642
-0.015889
-0.019769
-0.030394
-0.038131
-0.027729
-0.015827
-0.006801
-0.016173
-0.018763
-0.004083
-0.015519
-0.017695
-0.007740
-0.025625
-0.024730
-0.043951
-0.027850
-0.009613
-0.022645
-0.028741
-0.048763
-0.021052
-0.002238
-0.029338
-0.032008
-0.040604
-0.018663
-0.050498
-0.017365
-0.014393
-0.031569
-0.006377
-0.007267
-0.050038
-0.017395
-0.051133
-0.022388
-0.015590
-0.011856
-0.006402
-0.004573
-0.034061
-0.001445
-0.023985
-0.016397
-0.037025
-0.014701
-0.011371
-0.013285
-0.005886
-0.018249
-0.037308
-0.011511
-0.022985
-0.017285
-0.024888
-0.015543
-0.013302
-0.009536
-0.022148
-0.004578
-0.037503
-0.048476
-0.033653
-0.009081
-0.009030
-0.042469
-0.037030
-0.045753
-0.012336
-0.026404
-0.009449
-0.018085
-0.007827
-0.022931
-0.005474
-0.023593
-0.008699
-0.010067
-0.018382
-0.001884
-0.001848
-0.036015
-0.040280
-0.032933
-0.031842
-0.031194
-0.031814
-0.034237
-0.030348
-0.010832
-0.006339
-0.017017
-0.038712
-0.018340
-0.018789
-0.035728
-0.021483
-0.005514
-0.006358
-0.004057
-0.003198
-0.045626
-0.039090
-0.006336
-0.010390
-0.008582
-0.002695
-0.050461
-0.024857
-0.028787
-0.008133
-0.031156
-0.007268
-0.006764
-0.010824
-0.020547
-0.029157
-0.030539
-0.006881
-0.002261
-0.002797
-0.001844
-0.002799
-0.001848
-0.002798
-0.001445
-0.028563
-0.034543
-0.014343
-0.029953
-0.023609
-0.002277
-0.011293
-0.017507
-0.018890
-0.036194
-0.025966
-0.021862
-0.008136
-0.023618
-0.006737
-0.030679
-0.043696
-0.028982
-0.016671
-0.029527
-0.004523
-0.005464
-0.042431
-0.003649
-0.039788
-0.007635
-0.044499
-0.046766
-0.048347
-0.031333
-0.001839
-0.036062
-0.010929
-0.037126
-0.025219
-0.002787
-0.015077
-0.024511
-0.043234
-0.017680
-0.035092
-0.039835
-0.008717
-0.003652
-0.022165
-0.004486
-0.044107
-0.051941
-0.027002
-0.009037
-0.013662
-0.005029
-0.007240
-0.040613
-0.043250
-0.016838
-0.038959
-0.051784
-0.013541
-0.008244
-0.048418
-0.026382
-0.049414
-0.022680
-0.007301
-0.016719
-0.047859
-0.050050
-0.049635
-0.048570
-0.027848
-0.041820
-0.041166
-0.050945
-0.039456
-0.014798
-0.016077
-0.021957
-0.027453
-0.008149
-0.003617
-0.045992
-0.045548
-0.040497
-0.005947
-0.030208
-0.013229
-0.012814
-0.008589
-0.039174
-0.032873
-0.021070
-0.041880
-0.001400
-0.009032
-0.051785
-0.005892
-0.030394
-0.047685
-0.047897
-0.046175
-0.046275
-0.035775
-0.044241
-0.041354
-0.045002
-0.041496
-0.006409
-0.046110
-0.005387
-0.030442
-0.029257
-0.017816
-0.037025
-0.050035
-0.051075
-0.018295
-0.040061
-0.045530
-0.006354
-0.009112
-0.047127
-0.028709
-0.032328
-0.037182
-0.016998
-0.045645
-0.007704
-0.047620
-0.003657
-0.040231
-0.035432
-0.027570
-0.001444
-0.007281
-0.030345
-0.020522
-0.007186
-0.003187
-0.044242
-0.021300
-0.045068
-0.042173
-0.045397
-0.004162
-0.029652
-0.003693
-0.010481
-0.012635
-0.046008
-0.050312
-0.047771
-0.039252
-0.011424
-0.011470
-0.040497
-0.022662
-0.025827
-0.011693
-0.013794
-0.012655
-0.041550
-0.049767
-0.044138
-0.015030
-0.038699
-0.048110
-0.039423
-0.036598
-0.051018
-0.026374
-0.004579
-0.005529
-0.007328
-0.027750
-0.006909
-0.025287
-0.007720
-0.002253
-0.043710
-0.004035
-0.002338
-0.051349
-0.029461
-0.022700
-0.015226
-0.009481
-0.018231
-0.046136
-0.002281
-0.032565
-0.010044
-0.046123
-0.045517
-0.047455
-0.041679
-0.048654
-0.012231
-0.007693
-0.014881
-0.035767
-0.027819
-0.004038
-0.048391
-0.020266
-0.041303
-0.023672
-0.006738
-0.041382
-0.041645
-0.047112
-0.007365
-0.026585
-0.007762
-0.029996
-0.043219
-0.039538
-0.040327
-0.020441
-0.030727
-0.016186
-0.037864
-0.028009
-0.002253
-0.003184
-0.003634
-0.001397
-0.015114
-0.026786
-0.050070
-0.043339
-0.037164
-0.042844
-0.038659
-0.033143
-0.041502
-0.006409
-0.026615
-0.037673
-0.012607
-0.043225
-0.027894
-0.035836
-0.007324
-0.007305
-0.033125
-0.036687
-0.029171
-0.028761
-0.027597
-0.029980
-0.034205
-0.028659
-0.039623
-0.030886
-0.035359
-0.031621
-0.045364
-0.030975
-0.038379
-0.032763
-0.027812
-0.030262
-0.038128
-0.038787
-0.031070
-0.031664
-0.037416
-0.005392
-0.038811
-0.033460
-0.038877
-0.033653
-0.040477
-0.047001
-0.024388
-0.018547
-0.009445
-0.011293
-0.020586
-0.024048
-0.024017
-0.001797
-0.033428
-0.001403
-0.006444
-0.006445
-0.000301
-0.004128
-0.030391
-0.034690
-0.019010
-0.039918
-0.000236
-0.018415
-0.029412
-0.006741
-0.042041
-0.043392
-0.021999
-0.041929
-0.016838
-0.040570
-0.049643
-0.005464
-0.029553
-0.035102
-0.038918
-0.007310
-0.031282
-0.014338
-0.008981
-0.009105
-0.024613
-0.048505
-0.003154
-0.011436
-0.003179
-0.046044
-0.027223
-0.022171
-0.002749
-0.046672
-0.047477
-0.023377
-0.035450
-0.049644
-0.047822
-0.053029
-0.023519
-0.046698
-0.048705
-0.048326
-0.041633
-0.001850
-0.052137
-0.004993
-0.047731
-0.035640
-0.047738
-0.019067
-0.040757
-0.048054
-0.040560
-0.046105
-0.011464
-0.035189
-0.018853
-0.003584
-0.011287
-0.049555
-0.032482
-0.048567
-0.049766
-0.033442
-0.030381
-0.036483
-0.041549
-0.045209
-0.018103
-0.049876
-0.014284
-0.022582
-0.021865
-0.035884
-0.036753
-0.049550
-0.050915
-0.006810
-0.033015
-0.053036
-0.029573
-0.043662
-0.026245
-0.019370
-0.031425
-0.041455
-0.036668
-0.034412
-0.004607
-0.021133
-0.012792
-0.041413
-0.044780
-0.047551
-0.045955
-0.043283
-0.042829
-0.042460
-0.044445
-0.024069
-0.041873
-0.009547
-0.032482
-0.030821
-0.025836
-0.044214
-0.013743
-0.045206
-0.043283
-0.042451
-0.041153
-0.045577
-0.011464
-0.049272
-0.003593
-0.049130
-0.023032
-0.027657
-0.001371
-0.038367
-0.001392
-0.047441
-0.038809
-0.000669
-0.041602
-0.004569
-0.041931
-0.004937
-0.010866
-0.019259
-0.009578
-0.023578
-0.002296
-0.037721
-0.022639
-0.008576
-0.037639
-0.000295
-0.036780
-0.044150
-0.040674
-0.003125
-0.020033
-0.036747
-0.042339
-0.026344
-0.002740
-0.030925
-0.050876
-0.041352
-0.009606
-0.007809
-0.011372
-0.036225
-0.038873
-0.026971
-0.029524
-0.041006
-0.003650
-0.036639
-0.014265
-0.040483
-0.037101
-0.010989
-0.011905
-0.007782
-0.019230
-0.022672
-0.012697
-0.048780
-0.047394
-0.045404
-0.039664
-0.036987
-0.027220
-0.018775
-0.004611
-0.004154
-0.004039
-0.042716
-0.026549
-0.051368
-0.015140
-0.014281
-0.008135
-0.046135
-0.017990
-0.011865
-0.001843
-0.008091
-0.031906
-0.049752
-0.006420
-0.006810
-0.015288
-0.048764
-0.020106
-0.019316
-0.001878
-0.016614
-0.047455
-0.011287
-0.006904
-0.009588
-0.010079
-0.001842
-0.042188
-0.045533
-0.005491
-0.037207
-0.014477
-0.042645
-0.043711
-0.047925
-0.043975
-0.046336
-0.010942
-0.019301
-0.015815
-0.014452
-0.027746
-0.014903
-0.046702
-0.040060
-0.024646
-0.015675
-0.018006
-0.023377
-0.014580
-0.023049
-0.040355
-0.033156
-0.038763
-0.004040
-0.013323
-0.015077
-0.028218
-0.014427
-0.006311
-0.036892
-0.032402
-0.050450
-0.022700
-0.021092
-0.036373
-0.016111
-0.023701
-0.048777
-0.035238
-0.045248
-0.020463
-0.019962
-0.014247
-0.015932
-0.016118
-0.048214
-0.022073
-0.001405
-0.033511
-0.050863
-0.045113
-0.044302
-0.040687
-0.035283
-0.014951
-0.013487
-0.005529
-0.010500
-0.014164
-0.048464
-0.016899
-0.015973
-0.016955
-0.003626
-0.008630
-0.047557
-0.021437
-0.014205
-0.007355
-0.004081
-0.024486
-0.013277
-0.022639
-0.008539
-0.004537
-0.040679
-0.008209
-0.013157
-0.007187
-0.024321
-0.006349
-0.015088
-0.020810
-0.011338
-0.042167
-0.022458
-0.015440
-0.003651
-0.006407
-0.024420
-0.016031
-0.025971
-0.010905
-0.019474
-0.036614
-0.010406
-0.043884
-0.022190
-0.004575
-0.048237
-0.050736
-0.002276
-0.038221
-0.008188
-0.003165
-0.038319
-0.022611
-0.025999
-0.045154
-0.011880
-0.011741
-0.009569
-0.023918
-0.014964
-0.017697
-0.009963
-0.009556
-0.008694
-0.029960
-0.015828
-0.033678
-0.007784
-0.040136
-0.002754
-0.023406
-0.025149
-0.044119
-0.008281
-0.021215
-0.010822
-0.025645
-0.009491
-0.010385
-0.020538
-0.004579
-0.005944
-0.049223
-0.004044
-0.031729
-0.006737
-0.007635
-0.030126
-0.004066
-0.003202
-0.015717
-0.023992
-0.009030
-0.032303
-0.024582
-0.032017
-0.004049
-0.049196
-0.041062
-0.008224
-0.009173
-0.030088
-0.011664
-0.025692
-0.006304
-0.043834
-0.006742
-0.026629
-0.029092
-0.040523
-0.001866
-0.001838
-0.002799
-0.015732
-0.003210
-0.023565
-0.020906
-0.037443
-0.027403
-0.008989
-0.026929
-0.020204
-0.043969
-0.001435
-0.001443
-0.001327
-0.010775
-0.006341
-0.034086
-0.003640
-0.016592
-0.031690
-0.037190
-0.021179
-0.006327
-0.038762
-0.021501
-0.014404
-0.014825
-0.009929
-0.022338
-0.022611
-0.018775
-0.005869
-0.005865
-0.001399
-0.021502
-0.024388
-0.026626
-0.037337
-0.037783
-0.033076
-0.038524
-0.050472
-0.028410
-0.049710
-0.009050
-0.032395
-0.030241
-0.002308
-0.040023
-0.044513
-0.018422
-0.018734
-0.027483
-0.050052
-0.039392
-0.018141
-0.046893
-0.043924
-0.014157
-0.015232
-0.016892
-0.008668
-0.033259
-0.037058
-0.024488
-0.008193
-0.037428
-0.032133
-0.014018
-0.008626
-0.036198
-0.038856
-0.030690
-0.005914
-0.030714
-0.014951
-0.043390
-0.049203
-0.004035
-0.010348
-0.029465
-0.006444
-0.008111
-0.013541
-0.004985
-0.013329
-0.041999
-0.045219
-0.040879
-0.020127
-0.051369
-0.031021
-0.034445
-0.018368
-0.002774
-0.010540
-0.045198
-0.018699
-0.019239
-0.019255
-0.051097
-0.011470
-0.026272
-0.025909
-0.008704
-0.009624
-0.047784
-0.028551
-0.035638
-0.003147
-0.046883
-0.048445
-0.004036
-0.050243
-0.009082
-0.022198
-0.048660
-0.047765
-0.035426
-0.047548
-0.014452
-0.020200
-0.020061
-0.015465
-0.000746
-0.005534
-0.047779
-0.003173
-0.024464
-0.045148
-0.009629
-0.010481
-0.049154
-0.047620
-0.015185
-0.051862
-0.031157
-0.046937
-0.001396
-0.006292
-0.018837
-0.004578
-0.004089
-0.029405
-0.005004
-0.027677
-0.043021
-0.012110
-0.040902
-0.017677
-0.042457
-0.028467
-0.020522
-0.041689
-0.009030
-0.026038
-0.006832
-0.032460
-0.022728
-0.033824
-0.041461
-0.043293
-0.043931
-0.046982
-0.028710
-0.017314
-0.031157
-0.022180
-0.018585
-0.017842
-0.002274
-0.020633
-0.012717
-0.012697
-0.019325
-0.022582
-0.037444
-0.027260
-0.048417
-0.051309
-0.040122
-0.010784
-0.011230
-0.019673
-0.004621
-0.027043
-0.035422
-0.017416
-0.025469
-0.031959
-0.041447
-0.044563
-0.007214
-0.009566
-0.010528
-0.028511
-0.013285
-0.030340
-0.028336
-0.045828
-0.045001
-0.049206
-0.037427
-0.008700
-0.015680
-0.027682
-0.010920
-0.041324
-0.042153
-0.014071
-0.040954
-0.039397
-0.046970
-0.044089
-0.045109
-0.041985
-0.037753
-0.044930
-0.044918
-0.045423
-0.038576
-0.034756
-0.048568
-0.041782
-0.041882
-0.044378
-0.044150
-0.045837
-0.013512
-0.048787
-0.039804
-0.043106
-0.041996
-0.038462
-0.011806
-0.003211
-0.051776
-0.014872
-0.007349
-0.045201
-0.033708
-0.044882
-0.026849
-0.016806
-0.047358
-0.045406
-0.015170
-0.018642
-0.037010
-0.013497
-0.030843
-0.026544
-0.051722
-0.046971
-0.047348
-0.024553
-0.049438
-0.047875
-0.005393
-0.019689
-0.028678
-0.035310
-0.011724
-0.009128
-0.009169
-0.021522
-0.020141
-0.007322
-0.041991
-0.043261
-0.032473
-0.043734
-0.034929
-0.043959
-0.044865
-0.039046
-0.045829
-0.030871
-0.009602
-0.010506
-0.004505
-0.020952
-0.013335
-0.047591
-0.009037
-0.048027
-0.025769
-0.009118
-0.001400
-0.040074
-0.051371
-0.012362
-0.011446
-0.008647
-0.031520
-0.001017
-0.041832
-0.023965
-0.010968
-0.004507
-0.010459
-0.049211
-0.038095
-0.038544
-0.015600
-0.004621
-0.004565
-0.041664
-0.023752
-0.008268
-0.047578
-0.006396
-0.016177
-0.023470
-0.021513
-0.047018
-0.049168
-0.046686
-0.004084
-0.035581
-0.050863
-0.047431
-0.012382
-0.031629
-0.018196
-0.002755
-0.017435
-0.001846
-0.002754
-0.039139
-0.010887
-0.032812
-0.040347
-0.010912
-0.046336
-0.021020
-0.016942
-0.038599
-0.031131
-0.045030
-0.044799
-0.005478
-0.049999
-0.021366
-0.014006
-0.038447
-0.017048
-0.037875
-0.045192
-0.008132
-0.044296
-0.034631
-0.039192
-0.011733
-0.017916
-0.034917
-0.018367
-0.028613
-0.004620
-0.005487
-0.032446
-0.009619
-0.010330
-0.021115
-0.020494
-0.006350
-0.010406
-0.038271
-0.038464
-0.017747
-0.042805
-0.037433
-0.017248
-0.005435
-0.037787
-0.015135
-0.040781
-0.015481
-0.011745
-0.005889
-0.043754
-0.015983
-0.006311
-0.048109
-0.047294
-0.005838
-0.038166
-0.012784
-0.034695
-0.006450
-0.014830
-0.029128
-0.011932
-0.015171
-0.035686
-0.001845
-0.041385
-0.001181
-0.035920
-0.011302
-0.047271
-0.049170
-0.039526
-0.034870
-0.037966
-0.045134
-0.026969
-0.042474
-0.043383
-0.046914
-0.042427
-0.048387
-0.009032
-0.044075
-0.020699
-0.015271
-0.037744
-0.026463
-0.036435
-0.034924
-0.042382
-0.038809
-0.014281
-0.029157
-0.005948
-0.048684
-0.034880
-0.046846
-0.026458
-0.015154
-0.020665
-0.022206
-0.022172
-0.038601
-0.039120
-0.042930
-0.031021
-0.044690
-0.040354
-0.009048
-0.041688
-0.043630
-0.011788
-0.046097
-0.039207
-0.040080
-0.005023
-0.032539
-0.004090
-0.029931
-0.048688
-0.031875
-0.026961
-0.027404
-0.028456
-0.040686
-0.031559
-0.035026
-0.035410
-0.027389
-0.040462
-0.037710
-0.027997
-0.045628
-0.030821
-0.027806
-0.037689
-0.034679
-0.037280
-0.042424
-0.047421
-0.031788
-0.029781
-0.039158
-0.035326
-0.037728
-0.032057
-0.031116
-0.030768
-0.049168
-0.029180
-0.017374
-0.031728
-0.030585
-0.042854
-0.020824
-0.042240
-0.049610
-0.036732
-0.012766
-0.017037
-0.012748
-0.046811
-0.017783
-0.003670
-0.044310
-0.027003
-0.027952
-0.042507
-0.013741
-0.028236
-0.021544
-0.022879
-0.016536
-0.039344
-0.049378
-0.039162
-0.030120
-0.017781
-0.035449
-0.019872
-0.039908
-0.003180
-0.043006
-0.001375
-0.044516
-0.013571
-0.039147
-0.029113
-0.013736
-0.009634
-0.027803
-0.006290
-0.038845
-0.020539
-0.009142
-0.002713
-0.015611
-0.043373
-0.020226
-0.044217
-0.007318
-0.039008
-0.016601
-0.025250
-0.050439
-0.035092
-0.049828
-0.027364
-0.013950
-0.016271
-0.016586
-0.001356
-0.040231
-0.038970
-0.031333
-0.012401
-0.013291
-0.014910
-0.016672
-0.047313
-0.021997
-0.024854
-0.006449
-0.052098
-0.044559
-0.012368
-0.048596
-0.046057
-0.004087
-0.014398
-0.007693
-0.045089
-0.001419
-0.044683
-0.024079
-0.016057
-0.019369
-0.027338
-0.002728
-0.008172
-0.018417
-0.033030
-0.015629
-0.049938
-0.046547
-0.015673
-0.049477
-0.046757
-0.008704
-0.005495
-0.012120
-0.009429
-0.008583
-0.012170
-0.001795
-0.001890
-0.010830
-0.019165
-0.038603
-0.002244
-0.020925
-0.032395
-0.018833
-0.019292
-0.030432
-0.050395
-0.007277
-0.008085
-0.007223
-0.046499
-0.034431
-0.001380
-0.051315
-0.026504
-0.042936
-0.012389
-0.011486
-0.011838
-0.034007
-0.018160
-0.017414
-0.020186
-0.038955
-0.021350
-0.014924
-0.015580
-0.021717
-0.027880
-0.023253
-0.040115
-0.049999
-0.002229
-0.022558
-0.022985
-0.032543
-0.034028
-0.034393
-0.005036
-0.036825
-0.023664
-0.009153
-0.044322
-0.022275
-0.020063
-0.001429
-0.044799
-0.047910
-0.006360
-0.043607
-0.040015
-0.030690
-0.013208
-0.004553
-0.004486
-0.040037
-0.031151
-0.027098
-0.036598
-0.036372
-0.037758
-0.009087
-0.014743
-0.017800
-0.000193
-0.029432
-0.042480
-0.044194
-0.031194
-0.023251
-0.012553
-0.024564
-0.002290
-0.012554
-0.012636
-0.035763
-0.052092
-0.006870
-0.009517
-0.012350
-0.038659
-0.012758
-0.036359
-0.021481
-0.044757
-0.033131
-0.041917
-0.004560
-0.041937
-0.049109
-0.015302
-0.009035
-0.040625
-0.040645
-0.043734
-0.021665
-0.021697
-0.042462
-0.044962
-0.037884
-0.046560
-0.040080
-0.043796
-0.002324
-0.044151
-0.042451
-0.041554
-0.047804
-0.017877
-0.025326
-0.044749
-0.042009
-0.026923
-0.007685
-0.029547
-0.047712
-0.049262
-0.017214
-0.043379
-0.043333
-0.007186
-0.049205
-0.035014
-0.050667
-0.001317
-0.038842
-0.016046
-0.047194
-0.024426
-0.001376
-0.011264
-0.050943
-0.048294
-0.006902
-0.044614
-0.048508
-0.008746
-0.048326
-0.015898
-0.009588
-0.042336
-0.029527
-0.039974
-0.019532
-0.009985
-0.027260
-0.033692
-0.033226
-0.043223
-0.026272
-0.034585
-0.015869
-0.028091
-0.002726
-0.039129
-0.035757
-0.027894
-0.037470
-0.022157
-0.031767
-0.003631
-0.004937
-0.018249
-0.021689
-0.023428
-0.008161
-0.044962
-0.045596
-0.011274
-0.037101
-0.010534
-0.042861
-0.040350
-0.020924
-0.043198
-0.044408
-0.020090
-0.015636
-0.035254
-0.046562
-0.043780
-0.016617
-0.003584
-0.049984
-0.033297
-0.005933
-0.051358
-0.004057
-0.025789
-0.027762
-0.044241
-0.033015
-0.040421
-0.012109
-0.037279
-0.026845
-0.034934
-0.034486
-0.026849
-0.051196
-0.001824
-0.029882
-0.012822
-0.034535
-0.008676
-0.007749
-0.044086
-0.030499
-0.014278
-0.016106
-0.004036
-0.001823
-0.001839
-0.002797
-0.001843
-0.048807
-0.024832
-0.001365
-0.022617
-0.010789
-0.044789
-0.048785
-0.017952
-0.036236
-0.022885
-0.016534
-0.013068
-0.021963
-0.035817
-0.010071
-0.018388
-0.049251
-0.009141
-0.002781
-0.048850
-0.040784
-0.019661
-0.045186
-0.011461
-0.005435
-0.009130
-0.005920
-0.042656
-0.021592
-0.002728
-0.004491
-0.037878
-0.022405
-0.001435
-0.020306
-0.040292
-0.018837
-0.040284
-0.019984
-0.037687
-0.005459
-0.045730
-0.016647
-0.019538
-0.009665
-0.010542
-0.023507
-0.011455
-0.048787
-0.021017
-0.041496
-0.026333
-0.023108
-0.023140
-0.037675
-0.025438
-0.004159
-0.007825
-0.005439
-0.005965
-0.024863
-0.020115
-0.002755
-0.016659
-0.014773
-0.024583
-0.006859
-0.050470
-0.003203
-0.002683
-0.004995
-0.033895
-0.038815
-0.008253
-0.001867
-0.029478
-0.006799
-0.037475
-0.048150
-0.024888
-0.027472
-0.017749
-0.019047
-0.019010
-0.007305
-0.015927
-0.019745
-0.017082
-0.016641
-0.017852
-0.008208
-0.019613
-0.018266
-0.001324
-0.008713
-0.040319
-0.014388
-0.007827
-0.011329
-0.036792
-0.029682
-0.031133
-0.045662
-0.038117
-0.034857
-0.004617
-0.032123
-0.031688
-0.035554
-0.024455
-0.035991
-0.031674
-0.032337
-0.027968
-0.015841
-0.041396
-0.037337
-0.039382
-0.050204
-0.038257
-0.011811
-0.009624
-0.008691
-0.010949
-0.020572
-0.045186
-0.014927
-0.038256
-0.009112
-0.038578
-0.001850
-0.014506
-0.015661
-0.024199
-0.015633
-0.018586
-0.003633
-0.011501
-0.042461
-0.006442
-0.052621
-0.037709
-0.034452
-0.010780
-0.037182
-0.019333
-0.035911
-0.029547
-0.006307
-0.031230
-0.003196
-0.049759
-0.001793
-0.002755
-0.002756
-0.028462
-0.015212
-0.014687
-0.015956
-0.035424
-0.018427
-0.013750
-0.037769
-0.045940
-0.014142
-0.014130
-0.018475
-0.011932
-0.017007
-0.047859
-0.010061
-0.009480
-0.010324
-0.018698
-0.009101
-0.013548
-0.020849
-0.004990
-0.015117
-0.021525
-0.014404
-0.013571
-0.014243
-0.020382
-0.012389
-0.039736
-0.042417
-0.051134
-0.006448
-0.006859
-0.007360
-0.043577
-0.010960
-0.016092
-0.048086
-0.013969
-0.001778
-0.003135
-0.016607
-0.045385
-0.044899
-0.013618
-0.012697
-0.016977
-0.041706
-0.045403
-0.006358
-0.033901
-0.019186
-0.012897
-0.013771
-0.019877
-0.009541
-0.014632
-0.013239
-0.019397
-0.021817
-0.015282
-0.021953
-0.015998
-0.017472
-0.001376
-0.014743
-0.038220
-0.013711
-0.001382
-0.018880
-0.011006
-0.008678
-0.015620
-0.008215
-0.011372
-0.021106
-0.034508
-0.017013
-0.038280
-0.028741
-0.029765
-0.035591
-0.041832
-0.013495
-0.019334
-0.004494
-0.019315
-0.030556
-0.005014
-0.001432
-0.013750
-0.033228
-0.019673
-0.021446
-0.006737
-0.042573
-0.032433
-0.020241
-0.020208
-0.034504
-0.011320
-0.018445
-0.016143
-0.016141
-0.014580
-0.017712
-0.012676
-0.024290
-0.014079
-0.013097
-0.028914
-0.016545
-0.040572
-0.021199
-0.004038
-0.025181
-0.040098
-0.013352
-0.022273
-0.021610
-0.021574
-0.020598
-0.037906
-0.021460
-0.023138
-0.013349
-0.012555
-0.015167
-0.019796
-0.020773
-0.020325
-0.020241
-0.020194
-0.010500
-0.011388
-0.020343
-0.011873
-0.020796
-0.022127
-0.011925
-0.032763
-0.007253
-0.021235
-0.020802
-0.020178
-0.010937
-0.011510
-0.002280
-0.023428
-0.022844
-0.016375
-0.019579
-0.019220
-0.018808
-0.019253
-0.051633
-0.018781
-0.019723
-0.011797
-0.021272
-0.020962
-0.014221
-0.024892
-0.021212
-0.022479
-0.004078
-0.022540
-0.023014
-0.019750
-0.025900
-0.021154
-0.021707
-0.012207
-0.019127
-0.019496
-0.020418
-0.010433
-0.009941
-0.010874
-0.012356
-0.011932
-0.009920
-0.009506
-0.009622
-0.008704
-0.045074
-0.023771
-0.024649
-0.027740
-0.012178
-0.025850
-0.024704
-0.024254
-0.023897
-0.024878
-0.023937
-0.023540
-0.044923
-0.025334
-0.022176
-0.023159
-0.027640
-0.028500
-0.037767
-0.026655
-0.026262
-0.018489
-0.017146
-0.021227
-0.021398
-0.025718
-0.014952
-0.014440
-0.039588
-0.023668
-0.023983
-0.023630
-0.045502
-0.009136
-0.008183
-0.021717
-0.006336
-0.045263
-0.025762
-0.008655
-0.037023
-0.023697
-0.025681
-0.011007
-0.009105
-0.010989
-0.022227
-0.010343
-0.038719
-0.042405
-0.024227
-0.033914
-0.019671
-0.018604
-0.038463
-0.023262
-0.023689
-0.038811
-0.012360
-0.011693
-0.037180
-0.014071
-0.005885
-0.043841
-0.007326
-0.006867
-0.022500
-0.025329
-0.036393
-0.020860
-0.021300
-0.010067
-0.029593
-0.010115
-0.009159
-0.009165
-0.043460
-0.024025
-0.025350
-0.032204
-0.002684
-0.048319
-0.037125
-0.024044
-0.009182
-0.026698
-0.035257
-0.031629
-0.008136
-0.001888
-0.002755
-0.001847
-0.047620
-0.019867
-0.003252
-0.025828
-0.024549
-0.034376
-0.027516
-0.003182
-0.007712
-0.038976
-0.003212
-0.047730
-0.016568
-0.006867
-0.025786
-0.050070
-0.035523
-0.033678
-0.029861
-0.025894
-0.035898
-0.037000
-0.033303
-0.032288
-0.022959
-0.044244
-0.043283
-0.044202
-0.043259
-0.009018
-0.023824
-0.024254
-0.009664
-0.009058
-0.008546
-0.028563
-0.008989
-0.009938
-0.037216
-0.025892
-0.024476
-0.012629
-0.013074
-0.017087
-0.019736
-0.004490
-0.020969
-0.005422
-0.005078
-0.005075
-0.005066
-0.004567
-0.004562
-0.005508
-0.005492
-0.005974
-0.004540
-0.025430
-0.018880
-0.004514
-0.004063
-0.004511
-0.005010
-0.041937
-0.022789
-0.022699
-0.005981
-0.005013
-0.021382
-0.003611
-0.003636
-0.028091
-0.031137
-0.023592
-0.038038
-0.044493
-0.026385
-0.024088
-0.017428
-0.017864
-0.026372
-0.050018
-0.031335
-0.028660
-0.034463
-0.018897
-0.018459
-0.034215
-0.035114
-0.036009
-0.036454
-0.009431
-0.026550
-0.009931
-0.014482
-0.038002
-0.007272
-0.024464
-0.025017
-0.013496
-0.013537
-0.019725
-0.019807
-0.019370
-0.031159
-0.007823
-0.033857
-0.008688
-0.008249
-0.007790
-0.038624
-0.024884
-0.036564
-0.003642
-0.034193
-0.014836
-0.020635
-0.024562
-0.024557
-0.027064
-0.023087
-0.025302
-0.012998
-0.007190
-0.007641
-0.008535
-0.034690
-0.025470
-0.040190
-0.033190
-0.032368
-0.034528
-0.014470
-0.019785
-0.001792
-0.002258
-0.001801
-0.013693
-0.022406
-0.035422
-0.012191
-0.018796
-0.001782
-0.003620
-0.002728
-0.001835
-0.002292
-0.001837
-0.001841
-0.002302
-0.002302
-0.002798
-0.002796
-0.025442
-0.025491
-0.001403
-0.001402
-0.001348
-0.019158
-0.029062
-0.018921
-0.010378
-0.007237
-0.006861
-0.024966
-0.028500
-0.028446
-0.032570
-0.037922
-0.007218
-0.006368
-0.025926
-0.023273
-0.034417
-0.024764
-0.024357
-0.001398
-0.001387
-0.001427
-0.001427
-0.001799
-0.013055
-0.034058
-0.023078
-0.008584
-0.033275
-0.043951
-0.027865
-0.044625
-0.038937
-0.038488
-0.028477
-0.049643
-0.016151
-0.011241
-0.006852
-0.007352
-0.024537
-0.029515
-0.007183
-0.011205
-0.021849
-0.021614
-0.023886
-0.030256
-0.030288
-0.026576
-0.038477
-0.036648
-0.036628
-0.036393
-0.032133
-0.024985
-0.028141
-0.011217
-0.026218
-0.041409
-0.024959
-0.005935
-0.038090
-0.023962
-0.012603
-0.003157
-0.001409
-0.030509
-0.027340
-0.001450
-0.003253
-0.016617
-0.006397
-0.035102
-0.035581
-0.032632
-0.010085
-0.010090
-0.010551
-0.029242
-0.036441
-0.025311
-0.036936
-0.009449
-0.024521
-0.005920
-0.013134
-0.040792
-0.018604
-0.039938
-0.030070
-0.038734
-0.017065
-0.036724
-0.035781
-0.005536
-0.005462
-0.004964
-0.033883
-0.038605
-0.033856
-0.033728
-0.016603
-0.003205
-0.024994
-0.023639
-0.032610
-0.020730
-0.036365
-0.011313
-0.036810
-0.013051
-0.039109
-0.047737
-0.048292
-0.033451
-0.032968
-0.020529
-0.013901
-0.039543
-0.033468
-0.036370
-0.011469
-0.032842
-0.023140
-0.034948
-0.032541
-0.051633
-0.016095
-0.039617
-0.022696
-0.041530
-0.022966
-0.033983
-0.008354
-0.000243
-0.000262
-0.051098
-0.042363
-0.049897
-0.049725
-0.050881
-0.038997
-0.050941
-0.035278
-0.038131
-0.013009
-0.003672
-0.043159
-0.021675
-0.023421
-0.035517
-0.017252
-0.028181
-0.025658
-0.024758
-0.024282
-0.041490
-0.027886
-0.033639
-0.049210
-0.047361
-0.023754
-0.033019
-0.008257
-0.039299
-0.043373
-0.041730
-0.007794
-0.045488
-0.050543
-0.015209
-0.048319
-0.008672
-0.050314
-0.041599
-0.044620
-0.006790
-0.021743
-0.004621
-0.040790
-0.028115
-0.035958
-0.016552
-0.016597
-0.037317
-0.026310
-0.014780
-0.011715
-0.020160
-0.032940
-0.051341
-0.004104
-0.020053
-0.018308
-0.024169
-0.033981
-0.023302
-0.041440
-0.016153
-0.045670
-0.038462
-0.042899
-0.012188
-0.030602
-0.026287
-0.029683
-0.015117
-0.039197
-0.042014
-0.002724
-0.010942
-0.038002
-0.044614
-0.004550
-0.002687
-0.008694
-0.028857
-0.042960
-0.001366
-0.026862
-0.016100
-0.046933
-0.041494
-0.050876
-0.013446
-0.047088
-0.046686
-0.007695
-0.050494
-0.029422
-0.006409
-0.022428
-0.029593
-0.038157
-0.028532
-0.051457
-0.044905
-0.036571
-0.032703
-0.030150
-0.046508
-0.013313
-0.010474
-0.011723
-0.019552
-0.049586
-0.033369
-0.031080
-0.037398
-0.048504
-0.003178
-0.010493
-0.011490
-0.020102
-0.008533
-0.013720
-0.051644
-0.027932
-0.022237
-0.044482
-0.021245
-0.001776
-0.012758
-0.020648
-0.012227
-0.031907
-0.015468
-0.026548
-0.001886
-0.001448
-0.041931
-0.024453
-0.024254
-0.045181
-0.019770
-0.015869
-0.015098
-0.046597
-0.048753
-0.038468
-0.028591
-0.046955
-0.010770
-0.002312
-0.029991
-0.003217
-0.026669
-0.027600
-0.050424
-0.001448
-0.028541
-0.013302
-0.039683
-0.033995
-0.050587
-0.050947
-0.029239
-0.048002
-0.050491
-0.037428
-0.032217
-0.035283
-0.024259
-0.007737
-0.023195
-0.038629
-0.050174
-0.038207
-0.041913
-0.001427
-0.048840
-0.023333
-0.020336
-0.034702
-0.051457
-0.041113
-0.009934
-0.011898
-0.040082
-0.019111
-0.004552
-0.012276
-0.006857
-0.048570
-0.015723
-0.050843
-0.050057
-0.035089
-0.031201
-0.031176
-0.033857
-0.008121
-0.016499
-0.011671
-0.020986
-0.017048
-0.022742
-0.024064
-0.046175
-0.047313
-0.002742
-0.004152
-0.006353
-0.043597
-0.002240
-0.022388
-0.012590
-0.002236
-0.021192
-0.037333
-0.023550
-0.021436
-0.021245
-0.003252
-0.030010
-0.040718
-0.041060
-0.040082
-0.042882
-0.038032
-0.034977
-0.039649
-0.048335
-0.033203
-0.032592
-0.009076
-0.044528
-0.044499
-0.033590
-0.020638
-0.032002
-0.044921
-0.034605
-0.021101
-0.013321
-0.013306
-0.002275
-0.014746
-0.045063
-0.038686
-0.012241
-0.021810
-0.048668
-0.014343
-0.016967
-0.000221
-0.040893
-0.024518
-0.006289
-0.051374
-0.039410
-0.005837
-0.025812
-0.030624
-0.003659
-0.018248
-0.039253
-0.025396
-0.036504
-0.016134
-0.010514
-0.012161
-0.047847
-0.038198
-0.002342
-0.033848
-0.014826
-0.049598
-0.037295
-0.036570
-0.051223
-0.041010
-0.048766
-0.001364
-0.022902
-0.025291
-0.036286
-0.023104
-0.017269
-0.033529
-0.040595
-0.031031
-0.048629
-0.003157
-0.041331
-0.002310
-0.032832
-0.039195
-0.046902
-0.002275
-0.015167
-0.038657
-0.022199
-0.020616
-0.024016
-0.025428
-0.044401
-0.016542
-0.004583
-0.041961
-0.013352
-0.022101
-0.019146
-0.050930
-0.044063
-0.028363
-0.019253
-0.042339
-0.004535
-0.016569
-0.040207
-0.017714
-0.040182
-0.044921
-0.044837
-0.042726
-0.049897
-0.021684
-0.045277
-0.045034
-0.051349
-0.040069
-0.041617
-0.045328
-0.044620
-0.045843
-0.021761
-0.009496
-0.046269
-0.048095
-0.042442
-0.004536
-0.007826
-0.042573
-0.008743
-0.031568
-0.047700
-0.013319
-0.013320
-0.007310
-0.027043
-0.019602
-0.041513
-0.023136
-0.005445
-0.029911
-0.040268
-0.041085
-0.015519
-0.030411
-0.024448
-0.018527
-0.040719
-0.040424
-0.046241
-0.046113
-0.045206
-0.045670
-0.046057
-0.004614
-0.025873
-0.039330
-0.042449
-0.040923
-0.049926
-0.003189
-0.041607
-0.043513
-0.013496
-0.030203
-0.041481
-0.014939
-0.049454
-0.041631
-0.022414
-0.002756
-0.025452
-0.045448
-0.034581
-0.026242
-0.046110
-0.030150
-0.006773
-0.001423
-0.044037
-0.025461
-0.034752
-0.014578
-0.051291
-0.025015
-0.012179
-0.043627
-0.049219
-0.035340
-0.036863
-0.026312
-0.020666
-0.014612
-0.017542
-0.013278
-0.035803
-0.014374
-0.007747
-0.002343
-0.002345
-0.009879
-0.038724
-0.044780
-0.051035
-0.017612
-0.007243
-0.000250
-0.014642
-0.017076
-0.006374
-0.028446
-0.032968
-0.017892
-0.018123
-0.038856
-0.015397
-0.009547
-0.041329
-0.051296
-0.023281
-0.006844
-0.006801
-0.046597
-0.009598
-0.038379
-0.032089
-0.029961
-0.030503
-0.030673
-0.039218
-0.043756
-0.009075
-0.009189
-0.043737
-0.028747
-0.041549
-0.027558
-0.037155
-0.037794
-0.027682
-0.030768
-0.048255
-0.033384
-0.031401
-0.033796
-0.034282
-0.033763
-0.034977
-0.033372
-0.028430
-0.026770
-0.041319
-0.044720
-0.027706
-0.016685
-0.032857
-0.050856
-0.032620
-0.044088
-0.038190
-0.036859
-0.005502
-0.001822
-0.002238
-0.037709
-0.040515
-0.038321
-0.033997
-0.036830
-0.037906
-0.030630
-0.009480
-0.027867
-0.051792
-0.044709
-0.030411
-0.032871
-0.000245
-0.037967
-0.017538
-0.020812
-0.022561
-0.009069
-0.042992
-0.024718
-0.025611
-0.026458
-0.009037
-0.009887
-0.010338
-0.044770
-0.012576
-0.013931
-0.014862
-0.020106
-0.019706
-0.005905
-0.004992
-0.005419
-0.022749
-0.025791
-0.018836
-0.027476
-0.002744
-0.015772
-0.019826
-0.022716
-0.030789
-0.011824
-0.020076
-0.022791
-0.032189
-0.043825
-0.009164
-0.051759
-0.009033
-0.014030
-0.038129
-0.041447
-0.039667
-0.011905
-0.036606
-0.021140
-0.005390
-0.003588
-0.032147
-0.040519
-0.009037
-0.025529
-0.004036
-0.043006
-0.010120
-0.008696
-0.006887
-0.020140
-0.012660
-0.003631
-0.021747
-0.048974
-0.046022
-0.023111
-0.025235
-0.020018
-0.010871
-0.008240
-0.008235
-0.011035
-0.007650
-0.012131
-0.045664
-0.004540
-0.047016
-0.027284
-0.023169
-0.034448
-0.031791
-0.033339
-0.029781
-0.045654
-0.045317
-0.009487
-0.037923
-0.030299
-0.001779
-0.037433
-0.007638
-0.044582
-0.028019
-0.045631
-0.051439
-0.001342
-0.034083
-0.050820
-0.035272
-0.003253
-0.028820
-0.049096
-0.022528
-0.018429
-0.018410
-0.017527
-0.031100
-0.008732
-0.006870
-0.047901
-0.005905
-0.048773
-0.005035
-0.014201
-0.026672
-0.041455
-0.050085
-0.014667
-0.019251
-0.001886
-0.002343
-0.002344
-0.039162
-0.003252
-0.018353
-0.020162
-0.042219
-0.001376
-0.015214
-0.044138
-0.001777
-0.018896
-0.041459
-0.018931
-0.002751
-0.043997
-0.024857
-0.017046
-0.037783
-0.036801
-0.007744
-0.016129
-0.011430
-0.011417
-0.010982
-0.049953
-0.008198
-0.004487
-0.010822
-0.017645
-0.040574
-0.043502
-0.001329
-0.009978
-0.015677
-0.051869
-0.000707
-0.018878
-0.013741
-0.009623
-0.028820
-0.018331
-0.017812
-0.048853
-0.047557
-0.012161
-0.019820
-0.001352
-0.014270
-0.015946
-0.011464
-0.047020
-0.012838
-0.029799
-0.044910
-0.035642
-0.006347
-0.013914
-0.042758
-0.018328
-0.038956
-0.032175
-0.049961
-0.009123
-0.004156
-0.002740
-0.007188
-0.014659
-0.014246
-0.034551
-0.001845
-0.050587
-0.025042
-0.047068
-0.051766
-0.034354
-0.015175
-0.014286
-0.015173
-0.014278
-0.044593
-0.016420
-0.023689
-0.001832
-0.014243
-0.013640
-0.030164
-0.052627
-0.014055
-0.018452
-0.015454
-0.014529
-0.012686
-0.040584
-0.049028
-0.049935
-0.009878
-0.020258
-0.012999
-0.020763
-0.022066
-0.036498
-0.049236
-0.018214
-0.049708
-0.050494
-0.047261
-0.024809
-0.011049
-0.020966
-0.015080
-0.009576
-0.039070
-0.046008
-0.016549
-0.043859
-0.016034
-0.019932
-0.009205
-0.024280
-0.022575
-0.046117
-0.023591
-0.022653
-0.048650
-0.017409
-0.014125
-0.019840
-0.020873
-0.020306
-0.009130
-0.002337
-0.044295
-0.015066
-0.044121
-0.005505
-0.028621
-0.023725
-0.012645
-0.023032
-0.026660
-0.019496
-0.012775
-0.044563
-0.032342
-0.021291
-0.026383
-0.007291
-0.025763
-0.035594
-0.016524
-0.016475
-0.009656
-0.009206
-0.026077
-0.023971
-0.016568
-0.048780
-0.005036
-0.003588
-0.049865
-0.049312
-0.050323
-0.012606
-0.024390
-0.015358
-0.042608
-0.038050
-0.044742
-0.014616
-0.015519
-0.048320
-0.048292
-0.044455
-0.017387
-0.017359
-0.017314
-0.016420
-0.016352
-0.013186
-0.012269
-0.019091
-0.033678
-0.043232
-0.042247
-0.041204
-0.041159
-0.006846
-0.040133
-0.026969
-0.046111
-0.032367
-0.005064
-0.015729
-0.004579
-0.005036
-0.005030
-0.005526
-0.027699
-0.045598
-0.031212
-0.032201
-0.024464
-0.040584
-0.041381
-0.016157
-0.031693
-0.037988
-0.040454
-0.015272
-0.024943
-0.014773
-0.033156
-0.033637
-0.033565
-0.017013
-0.016979
-0.011760
-0.042525
-0.039492
-0.039549
-0.002310
-0.013496
-0.001398
-0.014775
-0.048236
-0.044308
-0.011797
-0.029678
-0.051394
-0.028234
-0.020081
-0.021478
-0.019633
-0.019618
-0.023382
-0.041984
-0.030235
-0.006300
-0.034456
-0.024982
-0.025459
-0.038484
-0.018663
-0.040592
-0.050370
-0.025538
-0.020630
-0.005887
-0.026233
-0.019618
-0.004618
-0.018265
-0.017797
-0.039445
-0.009159
-0.035810
-0.034178
-0.050527
-0.011671
-0.025864
-0.047827
-0.033357
-0.022591
-0.017490
-0.017074
-0.020429
-0.010077
-0.010080
-0.008744
-0.009195
-0.027352
-0.030318
-0.013518
-0.005935
-0.023428
-0.031646
-0.046681
-0.026993
-0.027863
-0.027226
-0.025260
-0.036154
-0.029595
-0.048256
-0.046441
-0.048772
-0.050038
-0.020907
-0.011918
-0.034719
-0.040066
-0.051669
-0.029405
-0.045348
-0.015506
-0.031857
-0.013442
-0.009032
-0.018053
-0.040053
-0.007367
-0.021070
-0.032921
-0.032530
-0.030288
-0.029880
-0.030794
-0.029980
-0.030930
-0.030039
-0.030113
-0.031057
-0.031123
-0.038278
-0.039199
-0.016569
-0.044290
-0.043286
-0.024752
-0.046328
-0.029907
-0.029322
-0.005479
-0.030090
-0.004987
-0.031012
-0.017952
-0.005837
-0.038131
-0.020186
-0.039037
-0.034913
-0.021932
-0.032485
-0.004111
-0.041868
-0.024884
-0.003637
-0.042803
-0.032571
-0.033372
-0.018359
-0.024990
-0.024550
-0.030039
-0.013580
-0.049206
-0.013570
-0.027423
-0.007684
-0.036544
-0.031086
-0.019299
-0.031444
-0.001888
-0.001859
-0.034790
-0.024280
-0.010400
-0.033518
-0.050365
-0.007286
-0.006435
-0.037168
-0.023730
-0.022208
-0.010793
-0.010395
-0.037314
-0.006408
-0.036335
-0.026234
-0.032092
-0.018855
-0.001156
-0.031743
-0.000250
-0.017076
-0.017059
-0.016554
-0.022525
-0.009198
-0.010995
-0.038968
-0.049561
-0.034134
-0.008699
-0.041996
-0.050197
-0.050072
-0.011490
-0.020782
-0.032281
-0.015519
-0.036358
-0.017527
-0.017046
-0.009206
-0.011436
-0.048686
-0.049170
-0.023547
-0.006288
-0.007188
-0.009482
-0.009880
-0.009877
-0.018428
-0.034948
-0.030602
-0.007672
-0.034276
-0.043704
-0.008991
-0.028872
-0.048780
-0.027437
-0.024925
-0.017515
-0.017039
-0.010064
-0.006866
-0.013310
-0.010507
-0.012334
-0.050004
-0.010014
-0.014231
-0.012787
-0.015680
-0.019333
-0.016257
-0.050523
-0.032568
-0.042479
-0.035321
-0.035071
-0.012285
-0.015215
-0.015170
-0.047695
-0.042041
-0.014674
-0.045825
-0.014245
-0.007193
-0.012266
-0.047168
-0.047068
-0.016152
-0.037997
-0.020650
-0.006287
-0.042933
-0.028929
-0.028081
-0.006754
-0.026836
-0.017031
-0.017499
-0.016518
-0.035209
-0.037124
-0.034365
-0.048320
-0.031559
-0.005028
-0.005534
-0.019643
-0.049458
-0.003640
-0.032092
-0.032557
-0.014147
-0.032402
-0.007767
-0.019409
-0.010027
-0.016594
-0.020308
-0.014679
-0.014639
-0.042623
-0.007194
-0.006792
-0.006887
-0.003617
-0.001881
-0.002797
-0.002799
-0.027750
-0.016464
-0.045645
-0.048654
-0.050835
-0.006890
-0.035065
-0.032595
-0.001396
-0.006451
-0.036395
-0.040930
-0.017917
-0.042334
-0.016425
-0.036842
-0.036352
-0.036337
-0.009205
-0.008703
-0.027262
-0.021976
-0.033590
-0.048043
-0.005030
-0.035965
-0.048016
-0.035870
-0.024049
-0.023578
-0.032754
-0.048623
-0.043774
-0.014494
-0.032892
-0.042787
-0.038696
-0.039588
-0.043650
-0.033207
-0.041607
-0.047113
-0.039187
-0.050415
-0.011926
-0.047034
-0.012297
-0.010576
-0.021707
-0.042829
-0.035973
-0.031660
-0.025442
-0.021712
-0.000989
-0.026300
-0.010968
-0.026923
-0.026348
-0.042223
-0.040391
-0.021596
-0.018437
-0.016050
-0.015107
-0.036859
-0.036376
-0.038746
-0.039678
-0.016980
-0.017448
-0.016928
-0.017365
-0.013635
-0.017766
-0.017302
-0.018214
-0.009948
-0.035781
-0.036162
-0.035512
-0.043622
-0.028219
-0.024221
-0.022035
-0.042691
-0.027247
-0.005031
-0.027097
-0.036649
-0.037398
-0.045620
-0.026195
-0.026186
-0.024731
-0.024255
-0.023697
-0.021954
-0.043132
-0.044288
-0.015844
-0.018842
-0.039003
-0.050102
-0.012388
-0.038038
-0.037959
-0.044177
-0.043732
-0.010471
-0.020048
-0.037699
-0.016405
-0.019067
-0.011838
-0.037975
-0.046227
-0.018468
-0.022589
-0.037428
-0.043704
-0.041011
-0.048688
-0.035271
-0.016218
-0.026385
-0.027414
-0.020698
-0.017010
-0.028029
-0.032206
-0.035445
-0.035439
-0.037333
-0.038278
-0.035918
-0.037556
-0.040544
-0.038725
-0.028678
-0.029724
-0.028894
-0.004621
-0.005492
-0.005489
-0.004616
-0.004613
-0.004159
-0.040066
-0.023970
-0.041055
-0.033503
-0.037060
-0.015717
-0.033965
-0.007365
-0.007367
-0.041630
-0.020943
-0.030010
-0.002770
-0.002774
-0.038680
-0.020539
-0.028622
-0.023925
-0.034445
-0.026645
-0.028562
-0.051420
-0.043273
-0.027850
-0.012117
-0.039115
-0.045171
-0.033783
-0.012837
-0.010546
-0.028953
-0.034313
-0.050989
-0.051447
-0.038545
-0.041548
-0.003203
-0.047692
-0.000197
-0.038784
-0.037966
-0.037386
-0.037632
-0.036225
-0.036373
-0.034535
-0.034666
-0.033248
-0.032495
-0.031946
-0.032102
-0.030674
-0.030772
-0.030327
-0.030399
-0.030494
-0.030978
-0.030548
-0.030651
-0.031158
-0.028820
-0.026887
-0.026872
-0.027366
-0.027341
-0.027804
-0.020222
-0.015583
-0.036370
-0.036844
-0.037317
-0.019107
-0.011345
-0.019552
-0.019997
-0.019975
-0.019953
-0.020395
-0.035265
-0.034283
-0.033747
-0.037922
-0.038349
-0.033259
-0.032815
-0.032773
-0.039699
-0.031804
-0.030460
-0.020266
-0.020751
-0.038257
-0.045030
-0.028267
-0.026961
-0.026845
-0.033971
-0.033914
-0.033440
-0.027684
-0.024687
-0.029746
-0.028730
-0.029187
-0.027640
-0.029192
-0.039455
-0.029653
-0.035105
-0.031317
-0.030206
-0.029341
-0.015248
-0.026764
-0.045995
-0.043931
-0.005948
-0.044691
-0.027740
-0.028009
-0.036670
-0.036213
-0.036276
-0.026556
-0.030794
-0.020154
-0.036759
-0.040432
-0.035393
-0.032040
-0.031743
-0.027555
-0.029599
-0.028523
-0.029382
-0.030360
-0.034412
-0.034812
-0.018527
-0.017628
-0.034896
-0.040134
-0.032537
-0.031814
-0.030346
-0.035408
-0.035873
-0.027615
-0.046198
-0.046444
-0.017162
-0.016719
-0.027341
-0.003137
-0.049059
-0.046335
-0.025692
-0.030439
-0.031787
-0.032716
-0.029108
-0.033842
-0.033357
-0.027075
-0.027521
-0.027812
-0.032955
-0.031874
-0.032915
-0.026234
-0.033190
-0.033163
-0.037988
-0.038418
-0.040463
-0.025666
-0.034663
-0.032040
-0.007677
-0.007727
-0.036359
-0.040083
-0.042312
-0.033030
-0.040560
-0.036507
-0.034954
-0.035899
-0.028115
-0.028591
-0.043650
-0.034470
-0.036228
-0.035741
-0.036483
-0.036979
-0.034345
-0.030679
-0.050511
-0.027793
-0.035340
-0.035432
-0.034911
-0.035811
-0.037553
-0.024878
-0.038220
-0.019391
-0.016290
-0.039118
-0.036051
-0.043924
-0.031182
-0.035870
-0.036533
-0.033650
-0.044106
-0.028210
-0.029705
-0.019826
-0.031938
-0.008606
-0.043012
-0.028310
-0.027596
-0.030464
-0.029961
-0.024171
-0.036799
-0.033040
-0.032561
-0.031357
-0.034725
-0.036614
-0.032620
-0.032589
-0.041440
-0.037875
-0.010487
-0.039068
-0.038877
-0.038955
-0.040069
-0.036437
-0.031566
-0.026984
-0.039201
-0.029011
-0.031073
-0.031105
-0.011873
-0.039041
-0.044265
-0.044851
-0.038367
-0.037828
-0.036193
-0.035445
-0.038680
-0.009082
-0.034007
-0.034341
-0.027548
-0.028081
-0.046089
-0.046555
-0.028321
-0.028294
-0.036998
-0.031194
-0.028738
-0.028050
-0.037908
-0.051347
-0.029427
-0.031153
-0.047223
-0.045328
-0.028675
-0.037779
-0.030916
-0.014167
-0.015996
-0.033503
-0.040895
-0.041006
-0.028562
-0.031703
-0.027512
-0.037213
-0.034465
-0.032464
-0.032924
-0.026166
-0.026614
-0.036162
-0.051257
-0.029453
-0.036398
-0.036274
-0.018452
-0.042003
-0.036806
-0.032505
-0.029180
-0.041192
-0.051075
-0.028723
-0.035591
-0.035212
-0.028294
-0.039617
-0.034477
-0.036864
-0.034475
-0.032089
-0.031571
-0.036786
-0.037122
-0.040996
-0.043034
-0.030883
-0.047957
-0.048777
-0.048255
-0.031048
-0.040046
-0.007368
-0.007785
-0.010055
-0.030008
-0.029682
-0.036498
-0.032324
-0.027309
-0.033524
-0.042916
-0.035271
-0.037811
-0.032104
-0.032304
-0.031803
-0.029242
-0.029733
-0.031489
-0.031661
-0.036898
-0.030613
-0.030585
-0.041006
-0.033410
-0.033336
-0.000286
-0.000279
-0.043010
-0.044757
-0.019820
-0.024111
-0.019847
-0.019855
-0.042620
-0.020222
-0.017612
-0.019377
-0.001825
-0.019807
-0.018855
-0.000704
-0.042204
-0.038696
-0.037882
-0.037471
-0.037137
-0.032433
-0.030575
-0.030643
-0.031146
-0.030655
-0.030665
-0.029732
-0.028788
-0.026892
-0.027853
-0.031632
-0.032129
-0.032108
-0.033081
-0.017501
-0.020836
-0.021276
-0.021715
-0.022589
-0.010426
-0.010874
-0.023024
-0.022496
-0.044559
-0.022930
-0.008596
-0.026504
-0.039213
-0.007192
-0.036347
-0.007237
-0.006290
-0.039642
-0.011680
-0.016589
-0.039588
-0.014383
-0.028200
-0.021672
-0.032576
-0.005026
-0.005020
-0.036224
-0.013940
-0.039530
-0.005471
-0.004562
-0.005017
-0.005014
-0.021845
-0.004100
-0.023593
-0.027207
-0.040185
-0.021543
-0.020611
-0.019808
-0.020719
-0.019830
-0.024080
-0.025303
-0.019765
-0.019839
-0.020739
-0.020748
-0.039634
-0.021491
-0.031280
-0.026424
-0.020755
-0.026696
-0.010815
-0.008732
-0.008668
-0.008208
-0.026448
-0.017067
-0.025509
-0.025479
-0.020699
-0.025226
-0.002740
-0.012606
-0.012160
-0.019672
-0.022338
-0.021227
-0.040369
-0.036571
-0.003152
-0.013506
-0.024551
-0.001393
-0.001380
-0.020343
-0.020296
-0.025480
-0.021233
-0.022381
-0.040519
-0.039129
-0.024534
-0.023342
-0.028515
-0.025118
-0.011716
-0.019637
-0.005448
-0.050856
-0.030350
-0.011663
-0.011217
-0.037491
-0.013043
-0.014838
-0.006400
-0.041369
-0.022491
-0.022945
-0.032371
-0.027059
-0.021653
-0.032399
-0.046982
-0.042736
-0.045591
-0.046189
-0.045997
-0.042382
-0.003635
-0.041963
-0.041452
-0.013784
-0.049151
-0.048681
-0.023382
-0.043225
-0.001872
-0.012120
-0.014465
-0.027896
-0.009032
-0.038817
-0.042695
-0.051692
-0.034439
-0.050714
-0.049577
-0.048092
-0.045364
-0.043203
-0.029663
-0.025999
-0.026109
-0.023792
-0.028840
-0.027301
-0.046738
-0.045955
-0.029885
-0.015304
-0.029397
-0.025655
-0.025207
-0.024308
-0.023857
-0.024783
-0.023904
-0.023925
-0.024830
-0.023946
-0.024851
-0.023983
-0.023065
-0.022619
-0.023525
-0.022662
-0.023570
-0.022218
-0.023123
-0.023124
-0.022545
-0.037801
-0.024111
-0.049265
-0.032776
-0.021261
-0.027439
-0.020806
-0.032676
-0.023595
-0.029102
-0.030440
-0.005840
-0.025291
-0.034917
-0.031842
-0.021843
-0.027370
-0.010390
-0.038669
-0.016009
-0.026071
-0.040949
-0.027484
-0.027911
-0.022233
-0.035676
-0.050133
-0.042334
-0.021697
-0.027832
-0.048785
-0.018141
-0.028894
-0.021705
-0.021139
-0.011311
-0.036830
-0.043382
-0.010815
-0.041690
-0.040761
-0.040231
-0.012153
-0.024872
-0.004621
-0.004083
-0.049680
-0.013310
-0.024051
-0.050897
-0.026722
-0.035752
-0.011921
-0.041480
-0.050058
-0.028304
-0.028592
-0.031163
-0.023853
-0.044317
-0.050085
-0.026217
-0.050821
-0.001426
-0.011661
-0.039037
-0.051480
-0.006332
-0.038544
-0.041069
-0.024704
-0.042336
-0.049635
-0.007320
-0.019783
-0.045215
-0.025936
-0.024055
-0.040377
-0.029092
-0.013922
-0.031664
-0.026548
-0.026102
-0.023123
-0.004523
-0.012826
-0.048708
-0.025907
-0.019631
-0.035529
-0.013296
-0.012837
-0.029431
-0.049024
-0.032224
-0.024537
-0.036866
-0.009460
-0.008240
-0.042858
-0.024530
-0.017858
-0.048840
-0.035319
-0.050515
-0.051279
-0.028182
-0.020483
-0.038376
-0.003227
-0.001890
-0.025481
-0.024518
-0.050243
-0.001388
-0.033651
-0.018214
-0.025006
-0.028480
-0.049119
-0.037000
-0.037854
-0.023547
-0.022672
-0.018451
-0.028110
-0.001865
-0.051271
-0.028976
-0.006347
-0.011283
-0.028226
-0.032440
-0.025536
-0.004093
-0.044488
-0.045756
-0.024422
-0.025724
-0.026265
-0.022677
-0.033547
-0.045734
-0.018844
-0.013774
-0.010382
-0.006344
-0.005841
-0.027140
-0.004514
-0.019248
-0.038854
-0.010467
-0.009088
-0.018020
-0.008630
-0.019787
-0.002248
-0.049265
-0.046477
-0.008612
-0.049707
-0.004600
-0.033275
-0.025649
-0.039008
-0.005848
-0.004955
-0.048897
-0.022172
-0.034762
-0.042209
-0.029757
-0.019031
-0.030255
-0.012241
-0.021940
-0.045799
-0.025529
-0.035320
-0.026137
-0.037790
-0.047071
-0.045533
-0.035867
-0.040152
-0.036907
-0.048110
-0.012430
-0.047898
-0.010020
-0.049268
-0.021933
-0.046599
-0.046558
-0.047771
-0.015153
-0.016784
-0.004488
-0.038481
-0.016143
-0.048307
-0.030527
-0.035908
-0.028761
-0.048574
-0.017007
-0.048761
-0.012854
-0.049448
-0.032662
-0.006773
-0.044771
-0.047737
-0.050506
-0.042485
-0.006409
-0.008220
-0.007749
-0.007688
-0.051341
-0.047971
-0.001845
-0.018159
-0.047112
-0.050875
-0.031087
-0.002228
-0.044016
-0.026830
-0.001367
-0.003253
-0.001392
-0.032608
-0.048051
-0.029601
-0.027694
-0.000240
-0.052624
-0.042971
-0.041461
-0.026922
-0.026909
-0.026889
-0.034005
-0.033556
-0.035426
-0.034346
-0.032881
-0.021276
-0.013533
-0.025048
-0.046916
-0.034446
-0.028786
-0.020538
-0.037276
-0.029595
-0.012856
-0.048281
-0.048016
-0.047523
-0.004938
-0.022575
-0.035655
-0.035739
-0.014214
-0.016100
-0.048908
-0.032405
-0.038104
-0.033779
-0.001374
-0.001434
-0.037546
-0.051242
-0.031448
-0.033977
-0.010588
-0.016567
-0.025122
-0.022724
-0.006451
-0.018907
-0.036078
-0.044783
-0.044008
-0.041189
-0.034974
-0.004442
-0.000264
-0.000203
-0.018969
-0.026310
-0.046499
-0.048360
-0.013784
-0.046500
-0.009429
-0.008618
-0.008198
-0.007752
-0.048015
-0.010459
-0.050724
-0.015625
-0.015671
-0.020614
-0.026930
-0.046007
-0.007709
-0.011346
-0.048610
-0.042996
-0.001371
-0.015601
-0.017470
-0.051502
-0.014259
-0.014681
-0.018266
-0.009534
-0.022670
-0.053000
-0.046682
-0.009992
-0.009971
-0.046121
-0.018867
-0.021465
-0.049876
-0.049594
-0.046955
-0.028383
-0.046916
-0.047274
-0.002277
-0.021316
-0.007780
-0.002689
-0.002263
-0.001890
-0.007320
-0.006902
-0.007776
-0.024443
-0.036885
-0.048441
-0.014349
-0.029294
-0.029382
-0.046688
-0.013819
-0.048233
-0.018214
-0.038244
-0.039784
-0.014516
-0.014503
-0.019850
-0.010881
-0.039046
-0.046688
-0.027414
-0.047020
-0.032136
-0.028241
-0.043348
-0.039549
-0.032600
-0.034879
-0.048275
-0.030503
-0.049151
-0.027085
-0.047422
-0.018087
-0.049115
-0.026734
-0.049709
-0.049170
-0.049117
-0.048863
-0.048540
-0.034911
-0.047806
-0.050018
-0.049594
-0.015355
-0.043780
-0.046084
-0.047069
-0.030475
-0.030019
-0.036308
-0.040570
-0.041261
-0.030235
-0.010014
-0.008683
-0.047351
-0.035741
-0.034871
-0.035777
-0.008187
-0.032899
-0.036384
-0.010995
-0.051271
-0.043199
-0.033997
-0.034963
-0.041974
-0.033949
-0.034300
-0.029766
-0.033568
-0.032058
-0.037782
-0.033018
-0.034472
-0.037302
-0.051234
-0.030241
-0.051112
-0.051018
-0.050897
-0.038657
-0.032082
-0.034952
-0.020034
-0.017170
-0.014518
-0.022357
-0.020966
-0.026411
-0.051793
-0.010973
-0.045657
-0.042433
-0.000241
-0.014554
-0.040605
-0.032159
-0.043894
-0.044281
-0.008576
-0.046134
-0.019286
-0.037471
-0.008663
-0.005457
-0.010904
-0.012688
-0.045959
-0.034681
-0.031478
-0.044948
-0.035811
-0.042423
-0.043796
-0.044261
-0.025147
-0.028643
-0.029027
-0.028597
-0.029441
-0.046217
-0.046171
-0.046123
-0.046070
-0.046452
-0.045337
-0.029852
-0.009040
-0.044847
-0.030294
-0.007688
-0.032433
-0.010828
-0.011675
-0.012131
-0.012623
-0.013922
-0.014374
-0.015279
-0.018353
-0.018850
-0.019239
-0.019673
-0.004539
-0.004602
-0.005897
-0.006401
-0.005893
-0.005889
-0.005434
-0.005026
-0.005877
-0.036082
-0.004556
-0.004103
-0.004057
-0.040293
-0.022315
-0.023145
-0.003603
-0.042419
-0.023175
-0.005457
-0.048761
-0.005907
-0.007636
-0.007684
-0.008084
-0.008133
-0.008533
-0.020810
-0.009484
-0.009883
-0.024518
-0.002698
-0.028699
-0.005904
-0.011321
-0.010772
-0.040675
-0.009572
-0.023157
-0.003647
-0.015290
-0.030395
-0.047477
-0.007190
-0.022035
-0.019248
-0.021732
-0.017140
-0.006839
-0.038482
-0.010326
-0.019874
-0.012109
-0.010847
-0.019769
-0.006746
-0.001384
-0.007740
-0.019805
-0.035666
-0.036153
-0.035479
-0.047479
-0.007218
-0.041067
-0.032273
-0.007326
-0.022006
-0.003663
-0.033143
-0.045530
-0.039095
-0.035676
-0.035254
-0.032032
-0.005519
-0.033345
-0.026224
-0.049183
-0.033003
-0.020767
-0.021220
-0.022662
-0.013887
-0.001833
-0.001829
-0.044020
-0.039174
-0.026423
-0.033987
-0.021653
-0.033198
-0.021156
-0.021202
-0.002381
-0.000204
-0.038693
-0.031524
-0.031617
-0.031175
-0.030732
-0.029805
-0.029915
-0.030866
-0.030987
-0.031036
-0.030153
-0.031077
-0.030171
-0.031094
-0.037808
-0.039197
-0.036322
-0.036305
-0.036570
-0.034226
-0.031732
-0.044282
-0.043233
-0.044121
-0.042758
-0.041801
-0.041321
-0.031791
-0.033988
-0.041554
-0.034216
-0.039459
-0.028878
-0.046375
-0.005521
-0.030987
-0.027515
-0.027763
-0.028378
-0.004609
-0.038613
-0.038103
-0.037619
-0.037164
-0.036708
-0.035793
-0.032002
-0.031579
-0.032464
-0.032505
-0.037658
-0.030446
-0.037997
-0.042424
-0.043029
-0.026773
-0.026300
-0.049610
-0.048838
-0.046526
-0.021699
-0.028691
-0.035870
-0.033424
-0.034203
-0.033277
-0.034616
-0.035105
-0.036002
-0.034985
-0.043400
-0.033357
-0.042742
-0.031603
-0.036348
-0.030229
-0.033847
-0.027427
-0.024832
-0.036077
-0.025720
-0.027865
-0.041455
-0.032915
-0.036400
-0.032887
-0.032824
-0.038454
-0.033121
-0.002798
-0.038712
-0.037200
-0.034970
-0.038201
-0.033933
-0.033022
-0.036840
-0.036834
-0.029283
-0.030866
-0.033950
-0.033977
-0.037292
-0.033949
-0.024492
-0.011039
-0.042360
-0.009431
-0.043056
-0.042960
-0.047738
-0.032402
-0.031782
-0.029203
-0.029217
-0.029697
-0.031115
-0.036893
-0.029014
-0.046717
-0.024553
-0.001841
-0.000267
-0.000253
-0.000202
-0.012288
-0.015412
-0.011362
-0.016604
-0.036816
-0.007192
-0.047457
-0.022653
-0.047955
-0.039314
-0.023116
-0.022643
-0.048540
-0.013782
-0.012888
-0.015163
-0.010968
-0.048610
-0.011964
-0.051298
-0.019225
-0.002748
-0.044177
-0.007316
-0.026267
-0.040930
-0.022312
-0.051296
-0.046696
-0.042712
-0.003586
-0.042457
-0.023609
-0.024541
-0.041264
-0.023014
-0.044128
-0.036484
-0.028670
-0.026244
-0.025291
-0.024296
-0.023322
-0.020834
-0.019840
-0.018821
-0.017801
-0.015287
-0.014252
-0.013249
-0.011714
-0.008102
-0.007596
-0.006542
-0.005505
-0.000795
-0.000227
-0.000203
-0.000198
-0.000182
-0.000176
-0.000200
-0.000236
-0.000272
-0.000248
-0.000270
-0.000276
-0.000267
-0.000274
-0.000262
-0.000265
-0.000261
-0.000256
-0.000237
-0.000238
-0.000205
-0.000181
-0.000201
-0.000205
-0.000204
-0.044460
-0.036348
-0.035857
-0.036153
-0.036082
-0.022901
-0.044493
-0.044411
-0.046070
-0.042212
-0.045889
-0.049576
-0.014383
-0.049221
-0.025935
-0.050892
-0.034542
-0.014859
-0.025666
-0.002276
-0.002710
-0.024809
-0.020913
-0.002344
-0.002343
-0.021342
-0.050243
-0.043021
-0.023897
-0.037689
-0.036795
-0.051166
-0.006448
-0.051035
-0.050729
-0.011219
-0.007201
-0.025417
-0.024940
-0.025712
-0.014632
-0.036864
-0.035863
-0.041203
-0.023860
-0.005066
-0.011893
-0.012356
-0.041490
-0.026162
-0.012842
-0.049556
-0.050052
-0.048335
-0.033243
-0.008533
-0.041981
-0.043840
-0.008178
-0.017037
-0.002328
-0.002283
-0.008166
-0.032464
-0.041490
-0.043110
-0.017911
-0.025251
-0.010534
-0.039487
-0.043704
-0.004948
-0.041931
-0.028218
-0.001826
-0.018821
-0.015574
-0.032499
-0.023644
-0.050637
-0.050166
-0.000750
-0.046199
-0.027348
-0.026880
-0.027339
-0.027328
-0.026862
-0.027315
-0.027819
-0.026821
-0.034004
-0.034477
-0.035319
-0.034717
-0.033737
-0.032273
-0.030556
-0.042507
-0.028283
-0.032224
-0.033175
-0.029210
-0.029673
-0.035002
-0.029227
-0.035390
-0.037597
-0.048118
-0.017525
-0.011850
-0.032503
-0.047916
-0.048409
-0.030016
-0.050089
-0.048508
-0.045207
-0.034695
-0.027440
-0.033468
-0.026267
-0.032550
-0.010020
-0.024809
-0.017126
-0.013940
-0.037553
-0.041135
-0.042926
-0.033848
-0.049878
-0.043437
-0.001776
-0.001846
-0.003200
-0.003665
-0.043503
-0.031517
-0.026287
-0.032386
-0.015171
-0.044540
-0.033828
-0.026351
-0.035876
-0.021887
-0.045569
-0.024337
-0.005837
-0.029707
-0.049938
-0.010940
-0.047350
-0.045248
-0.043184
-0.041566
-0.041066
-0.043602
-0.011254
-0.044589
-0.023829
-0.046370
-0.027222
-0.021643
-0.035683
-0.005039
-0.005901
-0.005033
-0.047223
-0.021153
-0.020602
-0.048706
-0.040355
-0.020666
-0.013278
-0.012388
-0.010514
-0.031818
-0.038491
-0.013736
-0.049297
-0.046725
-0.031237
-0.010055
-0.006785
-0.019786
-0.046558
-0.016146
-0.035334
-0.007640
-0.006739
-0.050943
-0.034468
-0.038723
-0.040888
-0.032663
-0.044202
-0.041889
-0.040935
-0.046847
-0.002733
-0.016352
-0.034575
-0.019820
-0.020325
-0.051223
-0.020800
-0.040905
-0.014854
-0.042785
-0.034874
-0.048494
-0.047373
-0.043828
-0.039593
-0.041054
-0.042009
-0.019087
-0.042936
-0.042601
-0.044408
-0.044148
-0.044765
-0.024809
-0.044313
-0.044529
-0.044054
-0.044404
-0.044308
-0.022654
-0.045229
-0.046374
-0.047618
-0.045514
-0.043677
-0.045125
-0.043159
-0.042877
-0.042173
-0.043798
-0.050352
-0.043817
-0.041204
-0.016598
-0.008085
-0.044261
-0.021675
-0.042415
-0.036535
-0.037769
-0.041326
-0.044709
-0.039174
-0.037544
-0.045355
-0.045039
-0.001324
-0.013560
-0.044646
-0.016816
-0.001824
-0.044935
-0.026190
-0.042909
-0.043761
-0.020730
-0.022138
-0.051517
-0.046419
-0.016306
-0.018084
-0.017455
-0.017924
-0.032232
-0.031618
-0.031559
-0.031439
-0.029137
-0.042969
-0.046516
-0.046498
-0.046477
-0.004613
-0.005486
-0.040427
-0.047953
-0.012434
-0.027484
-0.049961
-0.029207
-0.049984
-0.049037
-0.002751
-0.032063
-0.009589
-0.009576
-0.035918
-0.047348
-0.015745
-0.002296
-0.026672
-0.033868
-0.051329
-0.042496
-0.029441
-0.008085
-0.042714
-0.030899
-0.042921
-0.009634
-0.044720
-0.025376
-0.024044
-0.049309
-0.002306
-0.029114
-0.015054
-0.030757
-0.044298
-0.020824
-0.041917
-0.024976
-0.016919
-0.041810
-0.017334
-0.016434
-0.015918
-0.016022
-0.040280
-0.021867
-0.045181
-0.022144
-0.051617
-0.036298
-0.029282
-0.029831
-0.013550
-0.033595
-0.036552
-0.049170
-0.006909
-0.033932
-0.043231
-0.000707
-0.043339
-0.041075
-0.035889
-0.041991
-0.035698
-0.039618
-0.040869
-0.040369
-0.041190
-0.040700
-0.043836
-0.043828
-0.043819
-0.043791
-0.043678
-0.041354
-0.042695
-0.042580
-0.041285
-0.043479
-0.041246
-0.045403
-0.043866
-0.041205
-0.044251
-0.041161
-0.046269
-0.041114
-0.046227
-0.046084
-0.045658
-0.046029
-0.045971
-0.045423
-0.044918
-0.040135
-0.044790
-0.036633
-0.024431
-0.021592
-0.028019
-0.044754
-0.045673
-0.045219
-0.046122
-0.046432
-0.043645
-0.047464
-0.042280
-0.048342
-0.048340
-0.027555
-0.027036
-0.027120
-0.048780
-0.048319
-0.038725
-0.048294
-0.046913
-0.025864
-0.045940
-0.039964
-0.040292
-0.037217
-0.040642
-0.039787
-0.042712
-0.030308
-0.030256
-0.026811
-0.026847
-0.049539
-0.049515
-0.024913
-0.041324
-0.042620
-0.039743
-0.027326
-0.026850
-0.049426
-0.048972
-0.049613
-0.048998
-0.048142
-0.046450
-0.039644
-0.018766
-0.040595
-0.040558
-0.050498
-0.042852
-0.027354
-0.007282
-0.031249
-0.034240
-0.027779
-0.016097
-0.024491
-0.014385
-0.034120
-0.049251
-0.043114
-0.027266
-0.027271
-0.027149
-0.010436
-0.042691
-0.041698
-0.042114
-0.027249
-0.027226
-0.027202
-0.046935
-0.027832
-0.037138
-0.044276
-0.016980
-0.040999
-0.035900
-0.043622
-0.037494
-0.037061
-0.042946
-0.050929
-0.033376
-0.024999
-0.034265
-0.039791
-0.039891
-0.044422
-0.020776
-0.040949
-0.040979
-0.039118
-0.039282
-0.038697
-0.025468
-0.020971
-0.037728
-0.044358
-0.037261
-0.028051
-0.028532
-0.046117
-0.028668
-0.001323
-0.042736
-0.039273
-0.041261
-0.044210
-0.044151
-0.002229
-0.041994
-0.012717
-0.040847
-0.040837
-0.023218
-0.028644
-0.050947
-0.051158
-0.028267
-0.028657
-0.043597
-0.045207
-0.024075
-0.005968
-0.039567
-0.049805
-0.037665
-0.007244
-0.007362
-0.043094
-0.044447
-0.040316
-0.019220
-0.049613
-0.042435
-0.021185
-0.021170
-0.017507
-0.017031
-0.016096
-0.015629
-0.017542
-0.012727
-0.009992
-0.040535
-0.029242
-0.028656
-0.022471
-0.022450
-0.046935
-0.004616
-0.012896
-0.023754
-0.024141
-0.014697
-0.006288
-0.004161
-0.027013
-0.027656
-0.017435
-0.011380
-0.010452
-0.035589
-0.003192
-0.010020
-0.041504
-0.010436
-0.024783
-0.016768
-0.019706
-0.028659
-0.023904
-0.023881
-0.007778
-0.016057
-0.011396
-0.048083
-0.026887
-0.013296
-0.042813
-0.041991
-0.020006
-0.014215
-0.015451
-0.007316
-0.014705
-0.025873
-0.015559
-0.037553
-0.038048
-0.035944
-0.035026
-0.034598
-0.034168
-0.028316
-0.024909
-0.020268
-0.015162
-0.013721
-0.032605
-0.032583
-0.033531
-0.018437
-0.011354
-0.020382
-0.020359
-0.026926
-0.010104
-0.042091
-0.029283
-0.007349
-0.027762
-0.028101
-0.011261
-0.011707
-0.045678
-0.027539
-0.044767
-0.016120
-0.046189
-0.030327
-0.026611
-0.030811
-0.048345
-0.018105
-0.017202
-0.049907
-0.039901
-0.025755
-0.016759
-0.003640
-0.042907
-0.043415
-0.006287
-0.034655
-0.015855
-0.015786
-0.014939
-0.014494
-0.003132
-0.021390
-0.031296
-0.041794
-0.031634
-0.044725
-0.016158
-0.029146
-0.047078
-0.026080
-0.025356
-0.025739
-0.036140
-0.008161
-0.038451
-0.026107
-0.002228
-0.001823
-0.038524
-0.038873
-0.020052
-0.038219
-0.051759
-0.011457
-0.011866
-0.037632
-0.026916
-0.004039
-0.048776
-0.038685
-0.051207
-0.042298
-0.033470
-0.044251
-0.015725
-0.022855
-0.008637
-0.040612
-0.032189
-0.034725
-0.006349
-0.015531
-0.008212
-0.051972
-0.039088
-0.033156
-0.040174
-0.023955
-0.015398
-0.017541
-0.020373
-0.009978
-0.009192
-0.009185
-0.009182
-0.010095
-0.027986
-0.027181
-0.027926
-0.046725
-0.027056
-0.038018
-0.048837
-0.048505
-0.032915
-0.033368
-0.041747
-0.042852
-0.018904
-0.015681
-0.020452
-0.043597
-0.010073
-0.035752
-0.036236
-0.036149
-0.043109
-0.050937
-0.040067
-0.039291
-0.019847
-0.051112
-0.041388
-0.036927
-0.015564
-0.049988
-0.001916
-0.043673
-0.038838
-0.040508
-0.003211
-0.019361
-0.044202
-0.011511
-0.001821
-0.023329
-0.003636
-0.003637
-0.010082
-0.006908
-0.025496
-0.003415
-0.017324
-0.000675
-0.037138
-0.036369
-0.034543
-0.034658
-0.033689
-0.033793
-0.032446
-0.028790
-0.027871
-0.032576
-0.032136
-0.034004
-0.016103
-0.021679
-0.021251
-0.022553
-0.022126
-0.022989
-0.010830
-0.009523
-0.009012
-0.025146
-0.008157
-0.009007
-0.024719
-0.025573
-0.007700
-0.026463
-0.027309
-0.028878
-0.046307
-0.007786
-0.046547
-0.010334
-0.007239
-0.006788
-0.006337
-0.012583
-0.014420
-0.015314
-0.015732
-0.004539
-0.021034
-0.030363
-0.005474
-0.004605
-0.031242
-0.048310
-0.046274
-0.004108
-0.004965
-0.004937
-0.037384
-0.031728
-0.004968
-0.005010
-0.048142
-0.023569
-0.005411
-0.006827
-0.003589
-0.040015
-0.003645
-0.017170
-0.050279
-0.031853
-0.018399
-0.036403
-0.024042
-0.046126
-0.010324
-0.043311
-0.009455
-0.020201
-0.026456
-0.025982
-0.008253
-0.007794
-0.002782
-0.016163
-0.016984
-0.025952
-0.020657
-0.049297
-0.033639
-0.043203
-0.039209
-0.050652
-0.036150
-0.019198
-0.021933
-0.013506
-0.039693
-0.016713
-0.006884
-0.019169
-0.001831
-0.002331
-0.026903
-0.039197
-0.044150
-0.044411
-0.037709
-0.011247
-0.041409
-0.024567
-0.044829
-0.019233
-0.038844
-0.033763
-0.027440
-0.039663
-0.028622
-0.001371
-0.039470
-0.011268
-0.007209
-0.032102
-0.009948
-0.030203
-0.035026
-0.032108
-0.050050
-0.015671
-0.004112
-0.052736
-0.011707
-0.013669
-0.035881
-0.017531
-0.018434
-0.040391
-0.044016
-0.007805
-0.045116
-0.027287
-0.020159
-0.019671
-0.022184
-0.019657
-0.018315
-0.004961
-0.017847
-0.017862
-0.006778
-0.022322
-0.003132
-0.003683
-0.003685
-0.003688
-0.050476
-0.050497
-0.020048
-0.003690
-0.018443
-0.017428
-0.040550
-0.026696
-0.044347
-0.044016
-0.047668
-0.019807
-0.051178
-0.047954
-0.005861
-0.050128
-0.002275
-0.047898
-0.039840
-0.046538
-0.027950
-0.041692
-0.042101
-0.009661
-0.008725
-0.043597
-0.008285
-0.008265
-0.007753
-0.006881
-0.045432
-0.046125
-0.046550
-0.046541
-0.046529
-0.027141
-0.036150
-0.017504
-0.017904
-0.017941
-0.005036
-0.005034
-0.005031
-0.004573
-0.005026
-0.028568
-0.042309
-0.041730
-0.029860
-0.029911
-0.026786
-0.026821
-0.049136
-0.003584
-0.013310
-0.004083
-0.027300
-0.022204
-0.017891
-0.010048
-0.042321
-0.047803
-0.032267
-0.036448
-0.036322
-0.002681
-0.031676
-0.012325
-0.043345
-0.035817
-0.027246
-0.008241
-0.050444
-0.034605
-0.017140
-0.005889
-0.048776
-0.027578
-0.037063
-0.002786
-0.050942
-0.047952
-0.040294
-0.028284
-0.027770
-0.002321
-0.001869
-0.001883
-0.002747
-0.009037
-0.028029
-0.046557
-0.020905
-0.001823
-0.028592
-0.049711
-0.001416
-0.042442
-0.041146
-0.006810
-0.021778
-0.004094
-0.013788
-0.032115
-0.036799
-0.026421
-0.029721
-0.037611
-0.051630
-0.052810
-0.045309
-0.038088
-0.022311
-0.009661
-0.018327
-0.047556
-0.021643
-0.021627
-0.017968
-0.018402
-0.017499
-0.017915
-0.014991
-0.017521
-0.018417
-0.018422
-0.035857
-0.031321
-0.031212
-0.032040
-0.031043
-0.008737
-0.009610
-0.009598
-0.023362
-0.006874
-0.010054
-0.006416
-0.010511
-0.013043
-0.045385
-0.046189
-0.005388
-0.005521
-0.020090
-0.017059
-0.004035
-0.048306
-0.048693
-0.039385
-0.046373
-0.050022
-0.049183
-0.031294
-0.004141
-0.041812
-0.007809
-0.035665
-0.049669
-0.018373
-0.017869
-0.046017
-0.010775
-0.002218
-0.018385
-0.019722
-0.039039
-0.038788
-0.001848
-0.015107
-0.009123
-0.016991
-0.020955
-0.019737
-0.017882
-0.017893
-0.029431
-0.050567
-0.030234
-0.031962
-0.051794
-0.018378
-0.026155
-0.037384
-0.006384
-0.020194
-0.026899
-0.018374
-0.018363
-0.049324
-0.052176
-0.052628
-0.000175
-0.000226
-0.000250
-0.047668
-0.020727
-0.036815
-0.009203
-0.024583
-0.010968
-0.006862
-0.007315
-0.035022
-0.010540
-0.011411
-0.011866
-0.041135
-0.048198
-0.012757
-0.048935
-0.039314
-0.042137
-0.042360
-0.027012
-0.021291
-0.036140
-0.011733
-0.002790
-0.043619
-0.049858
-0.013560
-0.049895
-0.015125
-0.019706
-0.025468
-0.009946
-0.000253
-0.046603
-0.024492
-0.023065
-0.020255
-0.019808
-0.019349
-0.018889
-0.036834
-0.039213
-0.017697
-0.035899
-0.010390
-0.012395
-0.035838
-0.035739
-0.035709
-0.036532
-0.036448
-0.036354
-0.042910
-0.008745
-0.009625
-0.035376
-0.025041
-0.008286
-0.044767
-0.045468
-0.044748
-0.047658
-0.043392
-0.048583
-0.018824
-0.047473
-0.047557
-0.041285
-0.019197
-0.043678
-0.031703
-0.032304
-0.004083
-0.034127
-0.038713
-0.049680
-0.043791
-0.026243
-0.019707
-0.032785
-0.038273
-0.004146
-0.015786
-0.025286
-0.037831
-0.050026
-0.009520
-0.019672
-0.002336
-0.044220
-0.015092
-0.048109
-0.034835
-0.033047
-0.049031
-0.044690
-0.026190
-0.034095
-0.042368
-0.044806
-0.032530
-0.031995
-0.031131
-0.023889
-0.049409
-0.026930
-0.026929
-0.027841
-0.027838
-0.027816
-0.027793
-0.026877
-0.025922
-0.026343
-0.025445
-0.024968
-0.024016
-0.023540
-0.035424
-0.038259
-0.038730
-0.015465
-0.017464
-0.016571
-0.016968
-0.016955
-0.016942
-0.017395
-0.016914
-0.016899
-0.016884
-0.017350
-0.016869
-0.015941
-0.018585
-0.036193
-0.035272
-0.033315
-0.039693
-0.030509
-0.030074
-0.029638
-0.009192
-0.009189
-0.008741
-0.043380
-0.030569
-0.008098
-0.028723
-0.029650
-0.006743
-0.014541
-0.007277
-0.030092
-0.032803
-0.030097
-0.033666
-0.034058
-0.033618
-0.021627
-0.019224
-0.005033
-0.012328
-0.004600
-0.005048
-0.005909
-0.037641
-0.026626
-0.029626
-0.012747
-0.048923
-0.038832
-0.028738
-0.003583
-0.031907
-0.048760
-0.043089
-0.020782
-0.009601
-0.036932
-0.008728
-0.009137
-0.028597
-0.033487
-0.034265
-0.026081
-0.026186
-0.020883
-0.038290
-0.002763
-0.002325
-0.002328
-0.041945
-0.015133
-0.025611
-0.021501
-0.033506
-0.008121
-0.026455
-0.020452
-0.001823
-0.014752
-0.028928
-0.014284
-0.015600
-0.016869
-0.019599
-0.018385
-0.009050
-0.007346
-0.051325
-0.050702
-0.024355
-0.021383
-0.023495
-0.001367
-0.045836
-0.026958
-0.031471
-0.031662
-0.023105
-0.046121
-0.040129
-0.018009
-0.017503
-0.039624
-0.040044
-0.041294
-0.013977
-0.044757
-0.046114
-0.044419
-0.015737
-0.018803
-0.046854
-0.047206
-0.047138
-0.047065
-0.045734
-0.045103
-0.003584
-0.003584
-0.033676
-0.004488
-0.041682
-0.024907
-0.018399
-0.016101
-0.047373
-0.031131
-0.014642
-0.044270
-0.031567
-0.010784
-0.051712
-0.033537
-0.046072
-0.041697
-0.048430
-0.050734
-0.021354
-0.048208
-0.041880
-0.053033
-0.004446
-0.043704
-0.040686
-0.040293
-0.041081
-0.042476
-0.016554
-0.019984
-0.019469
-0.036286
-0.036119
-0.036043
-0.010118
-0.009205
-0.009205
-0.009206
-0.007272
-0.046405
-0.043577
-0.044366
-0.043202
-0.004989
-0.047873
-0.004583
-0.005035
-0.046524
-0.005430
-0.005426
-0.004088
-0.021398
-0.048628
-0.048274
-0.042678
-0.050039
-0.006737
-0.009877
-0.013210
-0.014136
-0.004535
-0.021422
-0.017915
-0.010452
-0.009582
-0.016106
-0.037292
-0.031183
-0.002682
-0.014601
-0.046498
-0.050048
-0.010385
-0.043836
-0.011048
-0.034953
-0.050665
-0.014834
-0.008178
-0.005897
-0.048958
-0.014670
-0.015564
-0.015543
-0.016367
-0.013294
-0.041183
-0.039905
-0.039096
-0.003149
-0.018384
-0.052924
-0.000244
-0.038198
-0.030883
-0.030948
-0.030529
-0.030092
-0.030629
-0.027867
-0.024448
-0.023971
-0.035419
-0.038728
-0.015898
-0.016345
-0.016790
-0.017235
-0.017680
-0.018475
-0.016512
-0.016488
-0.021265
-0.035811
-0.036567
-0.036998
-0.037988
-0.034168
-0.037854
-0.030874
-0.036896
-0.009653
-0.009157
-0.009148
-0.009141
-0.008680
-0.008220
-0.032764
-0.007761
-0.007301
-0.007298
-0.006835
-0.029765
-0.028688
-0.008138
-0.013052
-0.037113
-0.028321
-0.046985
-0.046457
-0.005477
-0.027181
-0.015296
-0.005492
-0.030595
-0.030529
-0.028282
-0.005022
-0.038234
-0.031077
-0.048328
-0.039033
-0.004565
-0.004492
-0.038072
-0.036698
-0.036240
-0.036264
-0.035320
-0.031097
-0.005024
-0.049006
-0.019706
-0.032041
-0.034851
-0.035341
-0.039470
-0.019693
-0.035360
-0.048277
-0.039198
-0.032060
-0.032077
-0.039657
-0.048790
-0.041331
-0.040275
-0.027222
-0.028546
-0.034376
-0.035377
-0.031625
-0.025351
-0.029546
-0.003585
-0.049539
-0.049977
-0.049006
-0.049268
-0.048445
-0.047953
-0.032464
-0.049625
-0.029078
-0.033038
-0.035391
-0.033431
-0.033828
-0.033328
-0.033263
-0.034178
-0.034626
-0.035074
-0.035520
-0.035428
-0.050022
-0.015713
-0.002729
-0.029960
-0.035868
-0.025399
-0.025873
-0.024961
-0.048199
-0.032871
-0.031005
-0.032117
-0.014026
-0.033051
-0.033517
-0.018942
-0.035881
-0.031110
-0.031158
-0.031168
-0.019579
-0.019559
-0.019538
-0.031646
-0.030706
-0.025250
-0.036488
-0.034901
-0.034335
-0.018836
-0.017961
-0.013526
-0.046654
-0.017112
-0.016627
-0.002688
-0.035889
-0.040542
-0.041006
-0.033933
-0.033061
-0.034968
-0.043364
-0.050919
-0.030350
-0.029726
-0.029764
-0.014015
-0.033163
-0.020106
-0.019220
-0.020538
-0.039250
-0.036826
-0.044826
-0.037963
-0.044029
-0.028762
-0.031094
-0.002746
-0.002753
-0.020099
-0.015176
-0.038298
-0.037908
-0.037878
-0.021567
-0.035419
-0.033950
-0.029255
-0.033539
-0.050149
-0.051058
-0.049289
-0.029930
-0.033003
-0.033517
-0.036939
-0.033451
-0.037308
-0.035523
-0.051704
-0.028501
-0.051178
-0.012257
-0.047138
-0.030684
-0.030715
-0.050703
-0.050993
-0.050789
-0.040101
-0.038978
-0.038490
-0.046111
-0.035265
-0.032123
-0.020593
-0.033109
-0.042184
-0.048118
-0.048275
-0.006451
-0.001034
-0.010095
-0.032386
-0.032414
-0.032662
-0.028776
-0.029255
-0.051397
-0.052967
-0.035463
-0.015814
-0.019344
-0.044782
-0.041697
-0.014555
-0.041524
-0.015451
-0.017659
-0.017034
-0.017031
-0.016567
-0.017413
-0.017329
-0.017298
-0.017281
-0.015956
-0.016854
-0.014568
-0.014107
-0.014118
-0.017730
-0.018123
-0.018547
-0.018566
-0.031374
-0.008745
-0.009152
-0.008694
-0.008688
-0.017231
-0.009593
-0.032678
-0.033086
-0.034295
-0.007294
-0.007790
-0.010099
-0.010049
-0.014130
-0.010556
-0.006435
-0.034083
-0.020139
-0.019599
-0.020555
-0.003631
-0.029678
-0.042401
-0.041664
-0.031748
-0.032140
-0.008245
-0.011715
-0.004534
-0.048758
-0.021932
-0.027600
-0.009132
-0.017522
-0.016200
-0.032784
-0.038762
-0.002297
-0.050282
-0.050363
-0.002230
-0.010879
-0.008709
-0.001384
-0.027774
-0.032944
-0.021253
-0.019184
-0.018734
-0.009093
-0.019328
-0.020727
-0.016285
-0.013229
-0.018451
-0.018011
-0.018070
-0.017146
-0.042569
-0.044210
-0.022047
-0.013680
-0.016591
-0.010044
-0.049819
-0.050274
-0.044000
-0.048683
-0.040142
-0.017999
-0.017495
-0.018003
-0.018006
-0.019071
-0.019008
-0.040689
-0.042019
-0.022561
-0.022995
-0.008746
-0.009154
-0.045434
-0.045868
-0.007290
-0.043488
-0.006341
-0.005974
-0.014854
-0.020559
-0.020539
-0.019689
-0.004580
-0.017017
-0.042419
-0.047013
-0.040953
-0.049869
-0.010323
-0.039936
-0.040954
-0.047875
-0.020180
-0.014927
-0.014383
-0.044022
-0.016452
-0.014712
-0.026497
-0.022363
-0.014393
-0.025393
-0.048897
-0.027378
-0.000287
-0.020320
-0.043673
-0.040675
-0.040284
-0.039891
-0.039494
-0.041996
-0.017995
-0.017970
-0.017037
-0.016571
-0.017027
-0.017016
-0.011750
-0.019449
-0.011023
-0.010108
-0.038274
-0.010074
-0.009202
-0.008746
-0.009625
-0.009157
-0.008284
-0.028194
-0.007286
-0.027719
-0.028611
-0.006828
-0.030262
-0.012652
-0.029833
-0.011013
-0.010962
-0.044354
-0.031073
-0.046867
-0.043610
-0.044845
-0.043169
-0.043133
-0.047264
-0.042726
-0.042247
-0.044276
-0.043860
-0.011475
-0.011018
-0.043364
-0.011887
-0.011938
-0.012401
-0.019237
-0.047289
-0.004586
-0.010955
-0.011457
-0.010494
-0.011403
-0.011396
-0.004486
-0.012865
-0.020586
-0.041767
-0.012871
-0.012876
-0.012881
-0.012885
-0.019027
-0.018029
-0.022254
-0.042240
-0.003176
-0.026581
-0.026630
-0.020507
-0.048109
-0.014037
-0.013591
-0.033484
-0.019368
-0.016096
-0.039420
-0.008144
-0.041908
-0.046451
-0.023198
-0.018005
-0.016545
-0.015758
-0.015315
-0.042925
-0.026348
-0.019236
-0.022728
-0.014884
-0.014048
-0.013591
-0.033339
-0.026520
-0.004534
-0.013144
-0.041820
-0.008194
-0.019765
-0.024001
-0.020043
-0.039147
-0.027101
-0.014018
-0.045337
-0.037910
-0.014227
-0.012688
-0.015667
-0.027939
-0.028383
-0.016611
-0.039964
-0.019847
-0.046260
-0.034295
-0.010992
-0.010988
-0.045097
-0.004986
-0.009106
-0.010067
-0.036844
-0.010983
-0.008161
-0.016229
-0.048208
-0.051966
-0.016105
-0.029915
-0.015268
-0.032236
-0.000202
-0.008358
-0.031646
-0.030831
-0.030899
-0.030960
-0.022070
-0.022053
-0.019820
-0.017924
-0.016986
-0.014118
-0.014107
-0.035895
-0.041535
-0.017983
-0.017989
-0.017010
-0.018066
-0.010830
-0.019889
-0.037061
-0.037493
-0.037923
-0.033190
-0.031788
-0.041108
-0.021215
-0.043360
-0.044222
-0.043308
-0.009195
-0.009200
-0.008698
-0.040839
-0.045002
-0.045874
-0.033895
-0.044007
-0.039492
-0.007690
-0.045275
-0.014412
-0.039039
-0.022500
-0.030553
-0.039184
-0.015755
-0.016161
-0.016196
-0.028656
-0.031036
-0.030616
-0.038719
-0.004565
-0.037134
-0.036251
-0.035334
-0.031519
-0.011912
-0.011388
-0.005486
-0.005482
-0.028872
-0.004111
-0.034874
-0.039905
-0.041991
-0.021448
-0.025684
-0.035841
-0.032522
-0.031612
-0.039648
-0.012385
-0.034391
-0.037065
-0.034929
-0.032070
-0.024437
-0.045338
-0.032924
-0.035857
-0.029158
-0.033908
-0.038914
-0.038050
-0.049907
-0.023638
-0.031391
-0.049119
-0.033447
-0.033399
-0.034270
-0.033342
-0.033310
-0.034167
-0.035065
-0.035512
-0.035031
-0.035863
-0.016153
-0.015661
-0.037959
-0.040568
-0.025864
-0.025828
-0.025428
-0.004985
-0.034954
-0.015710
-0.031636
-0.032523
-0.015221
-0.033226
-0.036303
-0.033498
-0.009506
-0.024518
-0.016146
-0.042598
-0.031146
-0.031603
-0.030690
-0.031613
-0.030699
-0.036358
-0.009607
-0.010860
-0.006362
-0.006319
-0.036568
-0.034832
-0.035314
-0.034413
-0.014872
-0.028379
-0.002283
-0.012999
-0.027396
-0.038660
-0.035439
-0.018829
-0.017448
-0.030711
-0.010895
-0.010027
-0.031378
-0.014440
-0.014006
-0.029027
-0.036365
-0.040450
-0.029759
-0.030208
-0.033005
-0.014416
-0.043411
-0.022222
-0.010775
-0.029980
-0.036815
-0.028298
-0.019755
-0.049805
-0.003210
-0.002333
-0.002790
-0.001388
-0.038008
-0.029288
-0.029292
-0.032503
-0.003246
-0.045255
-0.014692
-0.020418
-0.037341
-0.016848
-0.015969
-0.019313
-0.048838
-0.032557
-0.033498
-0.015625
-0.034494
-0.040093
-0.033965
-0.033987
-0.044198
-0.017459
-0.023804
-0.030686
-0.003688
-0.010999
-0.044305
-0.032092
-0.035922
-0.034396
-0.021070
-0.006857
-0.006398
-0.016728
-0.015639
-0.025462
-0.026005
-0.017904
-0.045088
-0.045528
-0.032229
-0.031818
-0.050985
-0.052605
-0.014779
-0.013646
-0.017968
-0.017503
-0.017521
-0.017003
-0.016995
-0.042937
-0.035824
-0.020328
-0.020789
-0.022089
-0.009159
-0.006823
-0.027326
-0.025886
-0.036453
-0.026802
-0.046889
-0.048347
-0.005068
-0.048771
-0.046369
-0.004569
-0.039084
-0.039968
-0.047160
-0.012320
-0.012814
-0.011890
-0.011380
-0.047523
-0.003586
-0.003678
-0.012888
-0.013349
-0.012891
-0.012894
-0.010467
-0.043233
-0.012343
-0.013271
-0.048625
-0.013781
-0.012285
-0.040400
-0.049624
-0.010007
-0.049662
-0.012737
-0.002721
-0.040027
-0.009554
-0.016106
-0.019613
-0.019593
-0.019091
-0.020040
-0.019573
-0.016106
-0.016243
-0.005437
-0.013499
-0.024323
-0.014704
-0.019107
-0.018625
-0.013994
-0.032848
-0.050092
-0.017470
-0.039050
-0.035899
-0.034870
-0.002293
-0.050470
-0.015176
-0.018892
-0.015162
-0.014712
-0.047557
-0.015178
-0.021111
-0.021544
-0.022338
-0.020860
-0.035038
-0.049106
-0.014711
-0.014710
-0.014708
-0.014701
-0.014697
-0.015196
-0.015592
-0.021766
-0.018178
-0.017730
-0.017281
-0.016832
-0.017298
-0.016382
-0.017764
-0.022206
-0.044513
-0.019087
-0.051059
-0.011506
-0.011001
-0.043312
-0.004986
-0.029811
-0.016105
-0.015468
-0.042907
-0.048338
-0.004534
-0.006861
-0.052872
-0.023020
-0.020681
-0.019763
-0.019304
-0.018384
-0.014153
-0.039686
-0.039663
-0.012859
-0.011893
-0.011944
-0.036264
-0.036240
-0.036184
-0.036002
-0.035911
-0.041369
-0.009063
-0.010124
-0.008704
-0.009455
-0.044378
-0.007328
-0.045211
-0.045908
-0.043834
-0.019652
-0.019656
-0.046579
-0.048229
-0.045791
-0.047712
-0.042743
-0.014185
-0.048707
-0.016113
-0.038763
-0.019370
-0.019633
-0.014688
-0.002289
-0.015800
-0.037828
-0.016141
-0.049565
-0.050973
-0.008225
-0.037341
-0.015209
-0.014265
-0.012328
-0.050926
-0.007325
-0.040718
-0.018231
-0.027449
-0.035341
-0.052579
-0.052696
-0.052605
-0.051835
-0.009660
-0.021327
-0.029115
-0.033786
-0.034681
-0.039515
-0.047547
-0.024431
-0.023495
-0.014164
-0.013657
-0.012237
-0.012269
-0.017641
-0.017958
-0.017963
-0.017966
-0.017498
-0.016986
-0.017490
-0.016967
-0.016509
-0.016488
-0.016464
-0.011028
-0.035153
-0.021164
-0.042825
-0.043333
-0.022534
-0.022959
-0.009663
-0.009161
-0.009162
-0.009161
-0.006819
-0.013525
-0.013931
-0.006815
-0.021051
-0.020579
-0.046498
-0.046478
-0.020591
-0.020108
-0.027615
-0.005070
-0.005072
-0.018734
-0.013061
-0.026695
-0.012259
-0.018299
-0.018281
-0.021448
-0.012390
-0.013360
-0.017827
-0.049612
-0.012796
-0.003222
-0.012108
-0.023579
-0.013258
-0.013268
-0.014185
-0.047685
-0.020126
-0.023078
-0.019861
-0.019409
-0.019837
-0.010000
-0.009993
-0.009985
-0.009124
-0.048199
-0.049609
-0.002265
-0.005436
-0.007237
-0.014176
-0.019350
-0.022027
-0.042522
-0.015342
-0.013091
-0.032119
-0.038488
-0.038793
-0.038579
-0.026077
-0.014649
-0.044923
-0.015636
-0.008249
-0.021810
-0.021350
-0.021325
-0.039455
-0.013550
-0.042222
-0.022645
-0.023519
-0.023921
-0.015145
-0.048314
-0.021976
-0.016501
-0.014752
-0.015088
-0.023019
-0.016397
-0.016411
-0.016425
-0.015494
-0.022286
-0.022280
-0.038364
-0.016488
-0.019342
-0.013702
-0.013247
-0.018867
-0.018351
-0.015611
-0.018410
-0.011049
-0.011508
-0.011004
-0.050956
-0.021837
-0.013458
-0.012645
-0.022435
-0.022381
-0.022387
-0.021909
-0.021460
-0.048328
-0.007366
-0.006864
-0.006863
-0.018402
-0.017959
-0.044240
-0.027370
-0.027369
-0.026895
-0.027362
-0.027300
-0.026358
-0.025880
-0.014649
-0.014175
-0.034948
-0.017953
-0.016439
-0.012737
-0.035757
-0.035701
-0.038351
-0.033248
-0.032760
-0.040879
-0.031676
-0.030442
-0.009606
-0.043111
-0.042188
-0.030963
-0.009164
-0.022967
-0.030489
-0.028226
-0.006799
-0.029149
-0.013081
-0.045234
-0.022006
-0.045874
-0.044525
-0.005901
-0.033979
-0.027636
-0.019203
-0.047906
-0.005022
-0.004555
-0.005452
-0.048281
-0.037294
-0.039331
-0.004562
-0.040836
-0.012394
-0.012898
-0.043171
-0.021433
-0.024616
-0.048908
-0.039864
-0.018800
-0.018311
-0.019775
-0.018814
-0.043324
-0.013001
-0.009145
-0.009527
-0.009063
-0.004533
-0.008684
-0.008227
-0.008680
-0.008676
-0.009178
-0.008672
-0.020304
-0.005887
-0.008982
-0.011413
-0.014589
-0.028619
-0.051147
-0.001844
-0.021088
-0.019620
-0.001873
-0.002742
-0.002343
-0.001397
-0.027352
-0.005411
-0.005408
-0.016476
-0.008091
-0.011396
-0.011847
-0.033376
-0.004098
-0.012307
-0.012747
-0.011388
-0.050821
-0.011007
-0.046877
-0.022908
-0.022931
-0.012231
-0.005387
-0.006865
-0.035412
-0.025469
-0.034826
-0.017022
-0.031634
-0.051059
-0.000267
-0.042387
-0.000705
-0.045456
-0.045600
-0.045115
-0.044770
-0.044419
-0.043088
-0.042087
-0.041335
-0.022101
-0.021153
-0.020713
-0.018394
-0.017464
-0.017940
-0.017490
-0.017022
-0.016087
-0.022084
-0.015154
-0.014679
-0.014195
-0.014660
-0.014185
-0.014091
-0.034479
-0.014095
-0.013146
-0.012686
-0.041075
-0.011354
-0.017947
-0.017485
-0.018458
-0.016944
-0.016932
-0.017435
-0.016919
-0.016906
-0.016892
-0.016878
-0.017380
-0.016863
-0.016848
-0.016832
-0.017334
-0.015903
-0.017265
-0.015440
-0.014516
-0.014055
-0.013657
-0.013594
-0.015004
-0.013135
-0.017783
-0.018232
-0.018159
-0.012217
-0.018680
-0.010405
-0.010440
-0.036365
-0.035841
-0.036319
-0.008705
-0.008704
-0.022939
-0.023830
-0.023302
-0.041945
-0.012198
-0.012644
-0.012636
-0.032337
-0.032899
-0.022066
-0.021562
-0.022520
-0.022027
-0.046400
-0.046801
-0.047231
-0.005445
-0.044381
-0.034160
-0.034551
-0.022145
-0.041055
-0.034939
-0.022086
-0.021612
-0.022070
-0.035301
-0.005435
-0.035410
-0.035794
-0.032270
-0.005073
-0.005074
-0.005076
-0.005533
-0.041041
-0.036552
-0.021139
-0.026108
-0.026102
-0.035496
-0.004131
-0.017053
-0.025629
-0.025625
-0.041498
-0.041969
-0.031688
-0.020681
-0.021123
-0.020740
-0.012898
-0.025149
-0.020619
-0.013361
-0.013360
-0.013359
-0.013358
-0.013822
-0.013355
-0.027956
-0.041953
-0.041929
-0.042417
-0.032215
-0.049632
-0.021877
-0.020222
-0.020280
-0.025724
-0.024675
-0.024673
-0.003135
-0.021627
-0.021106
-0.024199
-0.024199
-0.021088
-0.021070
-0.020616
-0.021051
-0.021030
-0.021534
-0.023726
-0.024170
-0.023668
-0.024080
-0.023639
-0.024110
-0.038234
-0.039449
-0.040497
-0.021010
-0.023609
-0.024017
-0.018345
-0.032703
-0.032741
-0.013813
-0.050257
-0.014274
-0.041935
-0.003631
-0.012110
-0.020771
-0.024048
-0.020291
-0.020752
-0.039936
-0.040986
-0.002767
-0.013051
-0.020976
-0.014270
-0.014735
-0.015201
-0.004117
-0.022528
-0.020301
-0.020310
-0.020318
-0.021985
-0.021909
-0.026070
-0.017481
-0.008612
-0.008155
-0.007704
-0.041913
-0.010507
-0.011421
-0.010493
-0.012885
-0.012385
-0.020336
-0.015667
-0.015633
-0.010429
-0.010937
-0.022016
-0.021976
-0.018795
-0.019284
-0.017400
-0.015196
-0.009985
-0.011961
-0.001810
-0.020474
-0.015663
-0.038114
-0.016360
-0.021220
-0.019265
-0.018808
-0.012325
-0.002296
-0.038699
-0.031181
-0.031181
-0.044506
-0.020304
-0.020774
-0.019835
-0.019866
-0.020998
-0.023485
-0.015042
-0.023876
-0.021267
-0.022435
-0.016944
-0.017413
-0.021280
-0.019739
-0.023829
-0.010478
-0.011355
-0.050197
-0.020550
-0.020027
-0.020102
-0.020776
-0.028288
-0.015859
-0.006849
-0.019770
-0.016822
-0.017214
-0.019652
-0.019130
-0.019202
-0.018681
-0.016020
-0.009043
-0.012881
-0.013345
-0.019861
-0.020331
-0.019356
-0.019855
-0.019847
-0.021685
-0.021641
-0.017916
-0.016956
-0.011008
-0.012368
-0.019750
-0.019279
-0.019265
-0.024308
-0.024784
-0.023833
-0.023354
-0.009541
-0.027246
-0.015030
-0.019251
-0.019236
-0.019220
-0.012316
-0.023193
-0.012360
-0.011008
-0.020310
-0.011458
-0.021391
-0.016539
-0.022884
-0.031617
-0.020773
-0.020682
-0.013335
-0.013794
-0.014719
-0.023333
-0.022778
-0.023441
-0.021419
-0.006451
-0.006866
-0.010471
-0.025799
-0.025364
-0.022471
-0.022995
-0.015583
-0.019279
-0.013629
-0.025399
-0.025434
-0.025503
-0.025027
-0.017950
-0.018409
-0.017939
-0.021123
-0.016585
-0.017764
-0.021224
-0.025686
-0.048930
-0.052383
-0.053000
-0.053044
-0.053046
-0.053039
-0.053024
-0.052947
-0.052900
-0.052842
-0.052774
-0.052501
-0.052318
-0.052098
-0.051517
-0.051269
-0.050985
-0.050657
-0.048930
-0.000789
-0.001838
-0.005509
-0.006541
-0.008103
-0.010685
-0.012243
-0.013764
-0.022310
-0.023325
-0.024782
-0.025745
-0.026742
-0.027696
-0.030086
-0.031016
-0.031949
-0.032868
-0.035606
-0.036915
-0.038233
-0.040757
-0.041608
-0.042410
-0.043232
-0.045955
-0.046717
-0.044054
-0.040570
-0.039791
-0.024459
-0.023525
-0.021627
-0.020235
-0.019775
-0.019315
-0.018419
-0.015592
-0.015125
-0.014659
-0.014688
-0.014223
-0.013728
-0.014214
-0.014205
-0.036384
-0.039217
-0.039668
-0.039683
-0.040149
-0.040612
-0.041067
-0.041543
-0.011759
-0.011302
-0.019573
-0.010846
-0.020018
-0.019940
-0.042921
-0.042924
-0.019917
-0.019895
-0.019432
-0.020485
-0.010390
-0.009956
-0.010426
-0.012814
-0.012820
-0.011899
-0.011441
-0.011904
-0.011018
-0.010983
-0.010561
-0.035870
-0.036276
-0.036251
-0.036194
-0.035666
-0.036127
-0.036090
-0.036009
-0.043841
-0.042716
-0.009466
-0.009013
-0.010860
-0.010122
-0.010083
-0.009162
-0.009164
-0.009666
-0.009165
-0.009666
-0.009164
-0.028699
-0.035360
-0.010584
-0.023800
-0.044797
-0.024228
-0.023314
-0.024655
-0.044902
-0.011306
-0.025080
-0.028200
-0.027763
-0.011752
-0.025500
-0.045302
-0.026132
-0.025684
-0.025234
-0.024784
-0.024333
-0.023804
-0.024357
-0.023853
-0.024380
-0.024833
-0.024401
-0.024422
-0.024000
-0.023479
-0.023450
-0.023399
-0.023020
-0.023080
-0.022560
-0.027964
-0.023094
-0.022589
-0.023106
-0.046454
-0.046429
-0.045472
-0.045434
-0.044488
-0.044447
-0.044358
-0.043613
-0.043171
-0.023117
-0.022612
-0.005437
-0.027516
-0.027997
-0.044738
-0.043203
-0.033368
-0.023127
-0.023136
-0.022630
-0.005436
-0.004989
-0.023143
-0.022637
-0.027067
-0.025285
-0.027207
-0.023149
-0.023616
-0.022682
-0.022686
-0.022688
-0.022690
-0.027167
-0.026587
-0.005077
-0.005078
-0.005535
-0.045165
-0.045591
-0.046014
-0.046435
-0.047270
-0.047498
-0.048158
-0.046113
-0.026667
-0.042794
-0.005886
-0.021751
-0.042211
-0.041246
-0.040801
-0.040316
-0.039829
-0.039788
-0.040561
-0.018969
-0.018047
-0.017588
-0.049926
-0.045537
-0.039342
-0.039742
-0.039694
-0.017219
-0.048882
-0.038968
-0.021238
-0.040133
-0.017571
-0.050488
-0.021725
-0.003631
-0.020802
-0.038895
-0.045016
-0.044711
-0.016330
-0.015800
-0.016244
-0.015342
-0.014884
-0.015328
-0.044790
-0.041756
-0.043328
-0.039211
-0.012605
-0.038712
-0.027125
-0.026645
-0.027153
-0.026698
-0.025789
-0.009076
-0.037319
-0.007693
-0.020755
-0.009601
-0.009595
-0.010054
-0.008678
-0.008220
-0.018070
-0.022190
-0.022630
-0.031281
-0.050703
-0.006291
-0.025308
-0.025311
-0.024830
-0.024833
-0.015829
-0.023329
-0.007688
-0.008215
-0.007715
-0.008209
-0.008204
-0.021212
-0.022654
-0.023095
-0.030691
-0.024352
-0.038934
-0.038447
-0.008155
-0.044923
-0.043232
-0.039701
-0.002261
-0.036635
-0.037317
-0.037422
-0.024199
-0.037997
-0.013091
-0.038271
-0.040895
-0.008649
-0.025764
-0.010528
-0.038970
-0.039459
-0.039033
-0.039522
-0.039061
-0.039086
-0.039574
-0.037779
-0.010955
-0.049736
-0.038650
-0.038180
-0.038669
-0.038685
-0.041060
-0.023117
-0.022643
-0.023591
-0.023550
-0.022138
-0.037338
-0.011912
-0.037729
-0.025182
-0.043365
-0.044150
-0.009124
-0.021316
-0.026243
-0.038710
-0.051573
-0.037287
-0.023781
-0.037710
-0.013613
-0.040955
-0.037922
-0.021733
-0.021684
-0.009492
-0.012876
-0.037675
-0.023460
-0.026165
-0.022778
-0.023223
-0.006796
-0.011008
-0.039473
-0.001372
-0.036628
-0.036532
-0.023288
-0.023742
-0.023106
-0.040421
-0.044148
-0.021665
-0.021685
-0.037509
-0.024702
-0.039039
-0.021749
-0.020748
-0.025739
-0.014531
-0.007699
-0.007742
-0.007248
-0.006844
-0.006867
-0.006408
-0.042528
-0.010579
-0.022953
-0.018681
-0.009472
-0.027401
-0.037280
-0.035356
-0.010126
-0.013507
-0.050274
-0.039898
-0.039000
-0.024463
-0.024000
-0.035915
-0.037806
-0.038748
-0.038728
-0.040617
-0.041548
-0.011294
-0.010382
-0.010525
-0.035868
-0.039201
-0.041796
-0.031137
-0.031499
-0.009646
-0.044313
-0.044301
-0.008743
-0.009164
-0.008703
-0.029180
-0.008243
-0.008600
-0.029222
-0.044527
-0.043976
-0.044493
-0.008171
-0.034693
-0.012590
-0.036732
-0.029825
-0.044948
-0.024441
-0.024459
-0.028412
-0.046562
-0.047011
-0.047002
-0.046101
-0.046544
-0.046983
-0.046531
-0.046954
-0.046058
-0.044454
-0.042692
-0.026686
-0.015689
-0.036535
-0.023601
-0.024066
-0.016626
-0.048781
-0.048551
-0.048477
-0.023154
-0.022690
-0.004985
-0.022180
-0.005925
-0.004574
-0.005078
-0.005078
-0.005493
-0.027126
-0.004486
-0.049488
-0.021709
-0.021739
-0.028028
-0.023668
-0.032529
-0.021733
-0.003632
-0.012160
-0.042184
-0.024140
-0.047240
-0.014227
-0.009185
-0.026242
-0.026722
-0.040174
-0.007824
-0.011776
-0.009164
-0.009159
-0.008658
-0.009607
-0.036717
-0.034762
-0.030740
-0.042121
-0.041807
-0.025743
-0.006787
-0.008533
-0.009928
-0.025786
-0.009887
-0.035655
-0.036043
-0.033121
-0.007722
-0.008176
-0.008138
-0.010380
-0.010338
-0.044282
-0.002757
-0.031621
-0.002756
-0.002296
-0.018927
-0.018932
-0.008631
-0.006782
-0.017990
-0.007821
-0.043894
-0.007717
-0.006293
-0.017829
-0.011720
-0.025350
-0.023245
-0.008536
-0.008176
-0.026307
-0.034250
-0.024064
-0.024510
-0.028141
-0.040029
-0.008240
-0.045592
-0.041524
-0.041352
-0.035168
-0.039835
-0.044296
-0.024549
-0.024477
-0.020177
-0.029562
-0.006785
-0.007325
-0.008694
-0.010039
-0.024016
-0.035431
-0.024492
-0.031956
-0.016811
-0.010177
-0.009129
-0.000255
-0.000244
-0.000211
-0.000185
-0.011991
-0.000726
-0.048230
-0.038198
-0.037553
-0.036795
-0.035949
-0.034960
-0.035096
-0.034107
-0.034235
-0.033803
-0.033369
-0.032057
-0.031556
-0.031660
-0.031116
-0.031217
-0.030231
-0.030363
-0.030848
-0.030432
-0.029930
-0.030464
-0.030916
-0.029991
-0.030522
-0.030573
-0.031031
-0.030595
-0.031055
-0.030616
-0.030113
-0.030634
-0.031097
-0.030148
-0.030666
-0.031131
-0.030679
-0.030176
-0.030690
-0.030699
-0.030196
-0.030706
-0.031182
-0.029726
-0.029292
-0.028784
-0.028313
-0.028347
-0.027841
-0.027369
-0.027402
-0.026897
-0.027400
-0.027397
-0.027871
-0.027392
-0.027385
-0.027861
-0.027376
-0.027843
-0.027354
-0.026850
-0.026863
-0.026372
-0.026385
-0.025907
-0.031460
-0.014147
-0.031658
-0.032099
-0.032133
-0.031661
-0.032608
-0.033053
-0.033083
-0.033557
-0.034030
-0.034953
-0.034974
-0.034970
-0.038259
-0.039217
-0.033618
-0.010397
-0.021652
-0.022179
-0.026895
-0.022089
-0.022617
-0.022525
-0.035817
-0.035763
-0.036198
-0.035215
-0.036631
-0.037063
-0.037494
-0.034235
-0.033793
-0.038774
-0.038278
-0.039197
-0.040037
-0.040454
-0.031749
-0.031693
-0.041282
-0.031636
-0.041598
-0.030925
-0.042003
-0.031578
-0.030491
-0.042405
-0.038128
-0.035732
-0.010375
-0.009927
-0.009472
-0.030055
-0.036892
-0.031520
-0.009610
-0.042805
-0.043806
-0.043754
-0.043731
-0.043706
-0.043203
-0.042247
-0.023392
-0.009466
-0.009148
-0.009613
-0.009616
-0.029618
-0.031460
-0.024355
-0.009618
-0.041767
-0.044529
-0.009620
-0.030986
-0.043089
-0.024786
-0.022930
-0.008564
-0.031875
-0.024683
-0.025216
-0.030545
-0.008559
-0.025110
-0.032288
-0.034001
-0.028258
-0.040801
-0.025536
-0.026071
-0.032698
-0.008550
-0.007654
-0.007696
-0.033106
-0.026536
-0.027384
-0.028781
-0.027265
-0.008098
-0.033511
-0.029303
-0.044117
-0.026576
-0.006749
-0.006793
-0.008542
-0.039905
-0.041599
-0.034314
-0.028250
-0.028977
-0.046183
-0.046135
-0.045707
-0.045548
-0.045843
-0.045773
-0.029937
-0.034711
-0.039974
-0.006790
-0.040625
-0.008091
-0.041502
-0.009436
-0.034177
-0.045283
-0.038719
-0.029690
-0.030757
-0.007239
-0.035022
-0.035973
-0.007640
-0.008088
-0.030113
-0.025471
-0.025926
-0.036050
-0.036361
-0.028858
-0.030611
-0.031222
-0.031690
-0.032096
-0.007189
-0.026346
-0.032136
-0.029583
-0.029360
-0.029263
-0.028781
-0.028300
-0.028260
-0.027472
-0.026935
-0.026490
-0.026045
-0.024936
-0.044768
-0.045222
-0.046569
-0.046563
-0.046555
-0.026765
-0.006739
-0.030575
-0.030573
-0.036544
-0.044295
-0.039644
-0.031752
-0.010776
-0.037126
-0.030071
-0.038710
-0.048349
-0.011728
-0.011282
-0.012178
-0.012570
-0.012184
-0.013014
-0.013525
-0.013914
-0.013977
-0.013985
-0.014872
-0.016207
-0.016139
-0.016647
-0.015335
-0.016578
-0.017526
-0.017964
-0.037502
-0.028219
-0.027181
-0.005839
-0.005890
-0.004942
-0.004940
-0.043798
-0.037875
-0.031055
-0.030548
-0.031057
-0.039152
-0.039590
-0.027596
-0.018414
-0.018865
-0.019301
-0.019224
-0.020169
-0.048335
-0.039068
-0.028177
-0.043299
-0.022688
-0.023159
-0.013512
-0.032589
-0.025413
-0.004492
-0.004982
-0.004975
-0.017445
-0.037767
-0.038841
-0.038838
-0.039090
-0.038065
-0.037579
-0.037125
-0.037192
-0.036735
-0.039094
-0.035297
-0.035356
-0.030288
-0.030309
-0.018850
-0.039533
-0.022686
-0.020619
-0.004517
-0.005078
-0.004579
-0.005078
-0.004579
-0.005077
-0.005535
-0.005076
-0.004577
-0.005074
-0.005073
-0.005531
-0.005070
-0.004571
-0.005068
-0.005064
-0.005062
-0.005059
-0.005057
-0.004597
-0.005505
-0.005006
-0.005502
-0.005499
-0.005495
-0.005952
-0.005488
-0.004989
-0.005485
-0.005941
-0.005481
-0.004982
-0.005478
-0.005474
-0.031257
-0.025891
-0.005471
-0.039449
-0.039936
-0.037276
-0.021398
-0.021912
-0.004114
-0.004060
-0.004508
-0.032022
-0.028134
-0.028635
-0.034837
-0.035376
-0.039473
-0.004042
-0.004494
-0.004101
-0.017435
-0.039322
-0.022682
-0.023154
-0.022210
-0.020638
-0.029280
-0.029685
-0.022361
-0.032481
-0.031998
-0.032523
-0.031559
-0.032541
-0.032056
-0.030045
-0.039671
-0.031767
-0.005922
-0.004517
-0.004559
-0.004556
-0.026307
-0.026369
-0.040986
-0.004054
-0.003600
-0.023124
-0.023641
-0.030088
-0.003591
-0.042472
-0.041882
-0.042029
-0.030043
-0.027287
-0.029501
-0.029882
-0.029809
-0.030234
-0.030787
-0.034353
-0.038978
-0.038603
-0.022383
-0.023621
-0.030488
-0.030040
-0.042371
-0.037509
-0.040098
-0.031590
-0.032229
-0.032253
-0.026830
-0.006372
-0.048258
-0.049151
-0.049131
-0.024511
-0.024959
-0.016990
-0.032940
-0.027181
-0.029129
-0.033930
-0.033868
-0.038483
-0.003140
-0.005408
-0.026707
-0.049561
-0.049598
-0.049391
-0.049353
-0.048896
-0.048807
-0.048711
-0.048628
-0.026214
-0.030886
-0.031810
-0.032179
-0.032569
-0.023105
-0.023174
-0.006822
-0.042339
-0.024061
-0.024089
-0.023616
-0.032290
-0.005858
-0.033018
-0.042958
-0.034431
-0.035421
-0.033408
-0.026889
-0.032288
-0.006336
-0.006786
-0.007236
-0.033468
-0.033814
-0.033783
-0.033751
-0.033297
-0.033716
-0.034665
-0.034575
-0.035022
-0.035562
-0.035467
-0.035420
-0.035918
-0.016609
-0.016545
-0.003611
-0.003160
-0.016101
-0.023599
-0.042298
-0.042622
-0.003162
-0.002748
-0.003142
-0.002734
-0.007238
-0.008134
-0.008084
-0.008533
-0.009479
-0.009926
-0.010374
-0.010374
-0.011268
-0.011714
-0.032507
-0.033406
-0.031267
-0.031618
-0.009433
-0.033399
-0.029980
-0.035371
-0.043919
-0.041017
-0.033441
-0.033788
-0.025364
-0.025462
-0.024927
-0.023608
-0.002746
-0.024022
-0.012160
-0.015657
-0.032414
-0.030522
-0.032175
-0.032599
-0.014776
-0.014835
-0.014331
-0.013887
-0.013983
-0.032887
-0.006364
-0.024613
-0.027513
-0.032764
-0.033243
-0.036250
-0.030181
-0.040455
-0.011269
-0.027291
-0.027225
-0.010376
-0.026457
-0.026421
-0.025985
-0.026417
-0.025947
-0.027634
-0.040182
-0.024968
-0.025907
-0.031131
-0.031123
-0.031134
-0.030655
-0.031636
-0.031144
-0.036336
-0.035908
-0.007783
-0.011768
-0.011261
-0.030673
-0.030680
-0.030203
-0.050472
-0.019643
-0.042506
-0.008725
-0.008721
-0.008717
-0.008713
-0.008709
-0.009583
-0.009613
-0.010033
-0.007805
-0.007764
-0.007753
-0.023599
-0.036139
-0.036315
-0.036400
-0.035658
-0.035176
-0.035242
-0.037472
-0.034823
-0.002686
-0.003145
-0.027750
-0.027203
-0.027178
-0.027682
-0.027153
-0.027176
-0.026922
-0.034206
-0.033792
-0.034617
-0.013971
-0.027366
-0.025477
-0.025514
-0.020263
-0.017554
-0.024534
-0.024083
-0.029192
-0.024521
-0.034990
-0.002251
-0.002294
-0.027777
-0.002244
-0.002294
-0.042607
-0.007241
-0.032449
-0.013052
-0.007236
-0.007686
-0.008582
-0.008984
-0.009480
-0.008986
-0.031838
-0.009437
-0.008986
-0.010381
-0.042019
-0.041692
-0.005854
-0.027470
-0.023138
-0.044847
-0.039574
-0.035412
-0.035602
-0.041513
-0.027125
-0.027149
-0.033883
-0.043489
-0.036174
-0.012214
-0.033529
-0.034893
-0.035390
-0.033915
-0.032842
-0.028088
-0.028137
-0.046498
-0.037493
-0.028164
-0.050910
-0.025036
-0.033860
-0.028269
-0.010374
-0.010327
-0.035915
-0.038898
-0.038402
-0.033860
-0.010808
-0.007323
-0.029752
-0.029732
-0.032947
-0.002693
-0.027843
-0.020720
-0.020284
-0.021156
-0.034423
-0.012109
-0.033605
-0.022647
-0.022290
-0.010381
-0.026159
-0.026136
-0.001798
-0.001857
-0.024884
-0.030494
-0.046032
-0.020139
-0.019631
-0.019620
-0.020115
-0.019168
-0.020978
-0.031573
-0.039194
-0.038705
-0.039066
-0.039405
-0.036842
-0.031341
-0.002736
-0.022430
-0.022455
-0.028231
-0.028207
-0.035648
-0.031409
-0.037021
-0.037918
-0.038451
-0.038898
-0.033564
-0.028738
-0.030629
-0.013955
-0.033892
-0.032633
-0.033077
-0.037881
-0.038784
-0.040568
-0.007298
-0.039624
-0.022668
-0.023108
-0.017097
-0.006843
-0.003165
-0.033564
-0.002718
-0.002721
-0.003220
-0.002723
-0.002731
-0.002278
-0.002281
-0.001826
-0.002282
-0.002286
-0.002287
-0.002785
-0.002288
-0.002294
-0.002791
-0.002296
-0.002297
-0.002299
-0.001845
-0.002299
-0.002300
-0.002301
-0.002299
-0.002302
-0.001847
-0.002799
-0.002302
-0.002301
-0.002301
-0.002300
-0.002298
-0.013516
-0.003680
-0.015789
-0.017082
-0.025509
-0.025504
-0.025030
-0.024624
-0.003251
-0.027339
-0.036887
-0.007691
-0.009432
-0.026545
-0.018728
-0.011714
-0.028269
-0.028255
-0.028677
-0.032433
-0.031133
-0.006806
-0.024097
-0.025808
-0.037910
-0.038007
-0.005402
-0.027427
-0.037658
-0.005004
-0.034943
-0.040515
-0.026880
-0.039139
-0.038170
-0.038219
-0.006864
-0.007362
-0.007360
-0.033487
-0.032987
-0.027392
-0.036390
-0.023143
-0.026290
-0.010801
-0.037248
-0.041885
-0.041983
-0.001787
-0.042130
-0.029736
-0.029260
-0.030239
-0.034470
-0.005895
-0.005851
-0.033362
-0.033493
-0.045596
-0.037427
-0.028690
-0.028250
-0.028711
-0.030727
-0.004504
-0.005907
-0.049299
-0.028788
-0.024570
-0.034345
-0.003198
-0.022912
-0.003253
-0.021308
-0.001802
-0.001336
-0.006807
-0.029077
-0.037236
-0.030691
-0.001400
-0.001363
-0.001355
-0.032402
-0.004949
-0.005399
-0.001832
-0.001781
-0.010329
-0.028330
-0.025060
-0.027384
-0.044789
-0.031559
-0.007786
-0.038273
-0.030432
-0.012162
-0.011665
-0.012179
-0.033229
-0.033342
-0.038697
-0.027043
-0.033792
-0.034974
-0.033968
-0.033038
-0.032522
-0.033051
-0.033529
-0.033814
-0.033796
-0.036981
-0.003189
-0.023570
-0.024066
-0.027396
-0.029263
-0.031077
-0.033539
-0.034008
-0.034008
-0.044088
-0.039385
-0.008982
-0.018397
-0.027659
-0.028644
-0.034017
-0.037609
-0.026786
-0.036352
-0.037319
-0.036852
-0.007686
-0.035709
-0.035881
-0.029332
-0.029356
-0.035965
-0.040684
-0.015655
-0.006846
-0.006849
-0.030714
-0.030686
-0.038018
-0.028591
-0.024114
-0.027598
-0.050598
-0.006764
-0.028706
-0.028243
-0.028730
-0.045295
-0.021850
-0.030308
-0.030298
-0.037584
-0.029820
-0.017839
-0.011715
-0.031384
-0.044022
-0.007263
-0.023644
-0.007251
-0.006749
-0.029307
-0.006297
-0.004496
-0.012169
-0.035701
-0.034503
-0.038166
-0.032543
-0.031602
-0.024510
-0.024530
-0.025461
-0.034431
-0.024953
-0.034206
-0.001328
-0.010348
-0.026037
-0.029446
-0.015207
-0.001418
-0.023546
-0.001347
-0.027397
-0.001414
-0.001412
-0.001409
-0.001418
-0.033666
-0.022412
-0.006335
-0.006786
-0.026446
-0.006400
-0.023953
-0.023485
-0.036372
-0.017538
-0.033056
-0.033524
-0.038974
-0.031636
-0.031646
-0.030027
-0.029638
-0.033557
-0.040905
-0.032430
-0.032356
-0.032810
-0.035449
-0.025445
-0.025894
-0.032457
-0.036299
-0.029412
-0.004520
-0.032676
-0.032175
-0.032268
-0.035900
-0.032561
-0.028751
-0.028272
-0.029230
-0.028762
-0.028779
-0.022637
-0.037675
-0.004537
-0.033005
-0.031514
-0.010368
-0.050657
-0.050166
-0.044460
-0.042946
-0.014670
-0.041515
-0.012259
-0.012807
-0.040378
-0.041900
-0.021189
-0.043732
-0.043677
-0.042280
-0.022062
-0.041767
-0.009646
-0.041285
-0.040837
-0.040389
-0.040185
-0.045799
-0.041946
-0.021382
-0.040932
-0.049843
-0.039695
-0.016274
-0.041166
-0.002723
-0.026218
-0.007699
-0.020897
-0.009142
-0.008225
-0.021341
-0.019369
-0.020331
-0.008624
-0.024329
-0.038407
-0.051166
-0.038722
-0.041461
-0.038974
-0.038484
-0.039094
-0.009943
-0.050926
-0.050072
-0.047793
-0.037918
-0.019338
-0.041110
-0.047125
-0.050250
-0.045039
-0.026411
-0.000283
-0.047866
-0.014079
-0.028241
-0.027090
-0.042907
-0.022132
-0.027548
-0.021658
-0.035324
-0.026640
-0.035705
-0.021185
-0.045572
-0.048050
-0.020727
-0.020698
-0.021167
-0.039831
-0.020268
-0.020707
-0.039344
-0.039300
-0.041801
-0.039253
-0.040135
-0.021579
-0.021562
-0.020665
-0.020648
-0.021523
-0.020630
-0.021481
-0.039203
-0.040835
-0.046982
-0.026722
-0.020226
-0.041885
-0.016230
-0.020340
-0.039516
-0.038638
-0.039567
-0.037782
-0.016103
-0.047069
-0.038201
-0.019871
-0.021244
-0.019397
-0.020344
-0.026333
-0.019391
-0.020284
-0.020276
-0.021245
-0.020208
-0.018842
-0.044632
-0.018331
-0.037240
-0.020739
-0.023922
-0.038208
-0.036700
-0.022053
-0.021180
-0.051928
-0.036342
-0.028450
-0.024079
-0.023108
-0.020584
-0.019606
-0.018566
-0.015031
-0.008852
-0.007328
-0.000251
-0.000307
-0.000315
-0.000314
-0.000312
-0.000307
-0.000308
-0.000299
-0.000283
-0.000278
-0.000250
-0.048329
-0.043312
-0.036719
-0.034117
-0.034226
-0.014639
-0.014114
-0.014103
-0.012227
-0.042924
-0.022152
-0.034836
-0.039274
-0.041612
-0.030027
-0.024321
-0.008605
-0.028801
-0.026497
-0.026920
-0.029705
-0.029322
-0.029746
-0.027342
-0.029360
-0.045892
-0.035479
-0.035959
-0.028433
-0.028376
-0.032070
-0.037225
-0.043877
-0.037491
-0.041044
-0.014816
-0.015268
-0.015709
-0.017040
-0.017466
-0.017904
-0.037383
-0.005841
-0.041032
-0.042866
-0.013458
-0.004607
-0.039445
-0.021416
-0.041017
-0.005456
-0.031296
-0.017881
-0.035838
-0.031782
-0.021003
-0.013361
-0.025769
-0.031803
-0.032339
-0.019290
-0.027487
-0.027896
-0.033203
-0.040991
-0.041178
-0.041075
-0.028088
-0.013445
-0.048503
-0.028163
-0.044257
-0.033690
-0.050519
-0.039784
-0.003193
-0.019694
-0.032576
-0.021784
-0.001784
-0.001880
-0.001832
-0.002344
-0.011714
-0.006802
-0.010354
-0.041860
-0.028422
-0.040781
-0.021692
-0.027470
-0.043770
-0.044577
-0.043650
-0.028187
-0.026811
-0.036119
-0.015264
-0.035698
-0.045744
-0.032043
-0.021714
-0.038959
-0.028668
-0.005918
-0.001377
-0.030171
-0.011700
-0.044763
-0.037472
-0.037060
-0.036979
-0.038050
-0.036721
-0.036302
-0.036229
-0.034606
-0.034177
-0.033747
-0.032009
-0.031110
-0.031134
-0.030221
-0.031151
-0.029759
-0.028817
-0.028346
-0.028342
-0.027874
-0.031628
-0.032104
-0.032580
-0.033083
-0.034499
-0.037787
-0.011769
-0.027367
-0.026887
-0.026929
-0.027729
-0.029786
-0.026971
-0.013035
-0.014365
-0.039694
-0.044551
-0.023881
-0.024807
-0.023965
-0.023525
-0.023511
-0.022606
-0.022632
-0.023538
-0.023550
-0.022654
-0.023560
-0.022670
-0.023577
-0.022677
-0.023116
-0.022214
-0.023120
-0.022220
-0.032147
-0.030756
-0.039936
-0.043124
-0.013824
-0.040121
-0.048734
-0.025720
-0.021272
-0.021267
-0.022157
-0.003220
-0.027848
-0.045039
-0.047361
-0.027682
-0.028570
-0.020796
-0.020789
-0.026887
-0.030446
-0.022180
-0.023086
-0.022170
-0.044948
-0.016138
-0.032633
-0.040530
-0.029861
-0.023075
-0.023560
-0.022170
-0.039270
-0.029389
-0.011346
-0.039113
-0.038235
-0.009536
-0.044138
-0.026766
-0.021235
-0.051095
-0.044075
-0.040617
-0.032971
-0.026118
-0.045920
-0.048753
-0.036747
-0.025944
-0.015941
-0.007856
-0.000280
-0.014125
-0.016735
-0.010397
-0.043397
-0.044201
-0.044890
-0.010059
-0.013089
-0.045785
-0.024035
-0.023124
-0.022218
-0.034747
-0.047227
-0.005493
-0.026045
-0.013320
-0.021743
-0.013319
-0.013316
-0.049865
-0.038959
-0.022165
-0.013771
-0.014232
-0.014740
-0.003180
-0.023594
-0.010920
-0.018459
-0.012845
-0.012428
-0.012842
-0.016096
-0.021137
-0.018338
-0.025808
-0.011967
-0.047065
-0.012116
-0.048678
-0.016067
-0.039530
-0.040902
-0.004072
-0.042469
-0.024530
-0.024519
-0.024282
-0.014725
-0.010050
-0.027340
-0.036254
-0.024189
-0.006292
-0.036062
-0.036442
-0.027894
-0.024891
-0.025369
-0.047901
-0.024953
-0.031496
-0.023120
-0.022214
-0.045971
-0.005493
-0.004619
-0.025847
-0.026325
-0.039182
-0.048218
-0.030713
-0.023588
-0.023149
-0.026805
-0.032964
-0.026399
-0.026412
-0.031846
-0.024057
-0.048384
-0.027328
-0.004035
-0.027763
-0.013888
-0.013443
-0.025947
-0.030643
-0.036322
-0.019725
-0.027706
-0.026770
-0.026746
-0.027634
-0.027606
-0.050079
-0.027806
-0.024525
-0.024098
-0.036986
-0.042971
-0.033779
-0.025004
-0.051351
-0.039392
-0.007366
-0.001823
-0.030414
-0.041381
-0.050511
-0.050526
-0.002765
-0.002767
-0.002326
-0.002330
-0.002756
-0.002341
-0.025473
-0.025477
-0.050714
-0.009891
-0.025216
-0.021069
-0.023577
-0.027120
-0.028511
-0.040961
-0.011458
-0.028646
-0.028668
-0.028762
-0.024035
-0.036801
-0.029023
-0.015709
-0.028283
-0.016592
-0.024501
-0.025452
-0.024541
-0.025498
-0.029280
-0.046294
-0.011674
-0.003205
-0.025979
-0.027819
-0.028982
-0.000203
-0.014167
-0.014157
-0.029200
-0.009460
-0.028720
-0.008554
-0.045074
-0.026617
-0.035616
-0.027098
-0.026156
-0.042496
-0.019127
-0.042311
-0.006338
-0.007767
-0.009063
-0.010949
-0.025329
-0.037673
-0.037235
-0.017486
-0.012792
-0.011048
-0.011046
-0.043821
-0.021885
-0.021491
-0.006909
-0.007785
-0.009118
-0.007842
-0.036786
-0.031854
-0.032267
-0.026306
-0.046808
-0.047239
-0.048082
-0.042472
-0.049196
-0.021170
-0.018865
-0.049448
-0.029239
-0.029644
-0.030843
-0.006323
-0.003187
-0.020633
-0.040009
-0.040347
-0.023194
-0.042871
-0.014506
-0.009118
-0.010027
-0.043715
-0.047537
-0.002760
-0.043987
-0.008587
-0.025854
-0.021202
-0.001370
-0.048988
-0.043919
-0.038788
-0.008198
-0.011049
-0.001343
-0.048127
-0.008653
-0.050162
-0.029200
-0.005742
-0.047274
-0.044550
-0.042068
-0.036826
-0.039667
-0.040599
-0.036670
-0.036606
-0.035475
-0.044930
-0.044050
-0.043969
-0.028337
-0.004541
-0.045605
-0.046872
-0.047879
-0.028480
-0.005011
-0.005009
-0.005962
-0.005449
-0.004978
-0.005837
-0.004105
-0.006327
-0.003634
-0.012852
-0.047916
-0.003234
-0.048887
-0.009034
-0.009595
-0.037302
-0.009566
-0.002228
-0.050512
-0.012846
-0.029432
-0.049942
-0.007343
-0.012126
-0.041437
-0.032032
-0.034617
-0.034431
-0.047504
-0.043008
-0.050845
-0.038959
-0.015159
-0.037721
-0.048712
-0.022254
-0.011470
-0.015620
-0.031556
-0.045980
-0.036365
-0.036840
-0.039199
-0.036303
-0.030008
-0.022126
-0.044865
-0.005890
-0.026108
-0.023555
-0.023075
-0.046316
-0.022183
-0.039575
-0.021827
-0.012432
-0.003230
-0.002728
-0.050517
-0.014915
-0.033950
-0.001823
-0.036927
-0.015677
-0.051754
-0.045009
-0.025886
-0.051028
-0.023053
-0.045825
-0.049651
-0.024069
-0.051480
-0.051376
-0.052142
-0.023043
-0.010027
-0.026521
-0.047746
-0.047765
-0.049219
-0.030239
-0.020548
-0.017590
-0.027843
-0.026926
-0.027832
-0.026916
-0.027825
-0.026900
-0.027779
-0.034479
-0.037314
-0.035326
-0.034781
-0.034292
-0.033803
-0.032828
-0.032342
-0.039125
-0.031857
-0.030942
-0.032332
-0.028243
-0.033418
-0.028706
-0.024254
-0.029169
-0.035088
-0.028711
-0.029631
-0.035582
-0.012161
-0.029668
-0.017455
-0.047089
-0.048117
-0.037640
-0.040991
-0.042167
-0.033020
-0.008981
-0.032430
-0.028284
-0.032583
-0.030221
-0.036806
-0.047793
-0.037882
-0.033927
-0.038402
-0.015675
-0.015212
-0.024014
-0.037235
-0.013613
-0.026961
-0.046097
-0.006787
-0.042785
-0.024913
-0.015454
-0.033295
-0.033081
-0.030132
-0.020789
-0.008854
-0.044063
-0.039500
-0.038997
-0.013711
-0.036852
-0.010905
-0.024616
-0.032405
-0.044317
-0.016559
-0.045123
-0.046392
-0.013105
-0.028051
-0.049580
-0.025880
-0.004096
-0.044277
-0.013940
-0.011428
-0.034529
-0.043825
-0.014037
-0.002755
-0.040400
-0.002756
-0.025471
-0.011501
-0.031013
-0.024140
-0.034463
-0.021392
-0.001786
-0.017853
-0.043478
-0.015215
-0.013624
-0.048256
-0.015913
-0.016535
-0.051577
-0.039406
-0.027746
-0.037784
-0.024758
-0.015043
-0.012805
-0.023193
-0.010463
-0.009429
-0.024453
-0.025755
-0.029573
-0.013669
-0.015620
-0.036390
-0.043766
-0.025429
-0.047667
-0.034472
-0.048307
-0.049184
-0.004087
-0.020969
-0.041820
-0.049515
-0.049458
-0.048933
-0.047456
-0.002680
-0.012108
-0.041490
-0.035443
-0.020907
-0.033983
-0.050937
-0.050149
-0.050190
-0.049336
-0.020063
-0.050048
-0.008141
-0.001777
-0.051298
-0.046487
-0.043029
-0.022637
-0.048082
-0.047724
-0.047891
-0.007060
-0.042577
-0.041446
-0.031159
-0.030716
-0.030271
-0.030309
-0.030346
-0.030381
-0.030475
-0.031077
-0.030613
-0.030132
-0.031115
-0.030163
-0.027356
-0.034977
-0.037337
-0.043373
-0.043825
-0.043812
-0.043777
-0.044177
-0.009638
-0.033492
-0.046299
-0.007336
-0.041111
-0.011760
-0.025464
-0.038741
-0.036841
-0.032004
-0.029303
-0.045836
-0.037753
-0.038356
-0.040583
-0.038579
-0.037611
-0.046539
-0.034859
-0.039661
-0.037777
-0.004958
-0.049479
-0.049532
-0.049466
-0.008203
-0.040109
-0.035965
-0.033475
-0.045862
-0.038544
-0.043449
-0.036406
-0.004101
-0.046602
-0.050690
-0.002229
-0.007757
-0.040122
-0.041388
-0.031222
-0.039597
-0.038650
-0.044750
-0.007188
-0.008581
-0.033606
-0.050083
-0.032481
-0.029860
-0.035995
-0.033156
-0.051185
-0.035706
-0.036780
-0.027838
-0.014477
-0.021469
-0.036074
-0.028310
-0.030153
-0.031960
-0.045577
-0.051397
-0.041193
-0.018570
-0.041062
-0.040592
-0.045652
-0.040801
-0.020210
-0.039322
-0.019308
-0.047166
-0.047324
-0.049805
-0.003134
-0.050947
-0.006346
-0.028341
-0.019813
-0.051249
-0.011050
-0.012727
-0.046644
-0.004598
-0.033297
-0.010108
-0.002094
-0.037309
-0.040602
-0.019828
-0.020350
-0.043395
-0.037299
-0.044300
-0.022035
-0.023860
-0.026880
-0.028147
-0.045696
-0.046014
-0.045355
-0.029473
-0.006432
-0.009440
-0.045478
-0.043647
-0.011226
-0.011002
-0.012125
-0.013020
-0.013471
-0.017892
-0.018803
-0.019255
-0.019720
-0.020555
-0.004961
-0.036925
-0.022720
-0.022768
-0.003647
-0.003633
-0.042462
-0.003195
-0.003149
-0.041033
-0.049767
-0.048740
-0.047026
-0.050291
-0.005861
-0.046982
-0.028747
-0.019371
-0.041582
-0.020429
-0.020953
-0.045061
-0.023528
-0.016186
-0.013442
-0.006789
-0.002268
-0.008132
-0.021092
-0.019682
-0.022363
-0.044706
-0.012614
-0.034086
-0.030741
-0.006756
-0.019051
-0.041525
-0.034327
-0.028699
-0.034238
-0.050811
-0.027225
-0.035223
-0.051097
-0.011032
-0.011028
-0.021550
-0.000985
-0.050057
-0.044393
-0.014589
-0.012737
-0.012278
-0.011820
-0.040463
-0.045439
-0.032610
-0.040183
-0.027437
-0.020611
-0.045212
-0.045664
-0.046075
-0.027803
-0.043714
-0.018789
-0.039543
-0.039096
-0.048725
-0.034894
-0.037294
-0.049479
-0.029733
-0.030065
-0.027247
-0.029000
-0.038544
-0.030938
-0.040111
-0.047824
-0.031727
-0.042194
-0.032457
-0.048996
-0.049096
-0.021277
-0.021233
-0.042914
-0.050062
-0.040572
-0.022198
-0.042893
-0.041032
-0.050512
-0.030960
-0.032100
-0.032159
-0.032745
-0.028294
-0.035431
-0.030666
-0.044706
-0.035998
-0.039567
-0.022612
-0.002743
-0.049198
-0.044851
-0.038407
-0.038895
-0.030651
-0.043261
-0.039597
-0.030646
-0.037599
-0.027863
-0.038319
-0.039588
-0.041961
-0.042089
-0.030211
-0.035458
-0.032523
-0.051325
-0.039696
-0.037612
-0.033484
-0.039342
-0.034023
-0.042431
-0.020359
-0.041543
-0.040672
-0.018431
-0.043584
-0.039829
-0.007323
-0.030391
-0.026481
-0.020762
-0.028570
-0.029744
-0.013690
-0.014964
-0.015859
-0.016607
-0.018990
-0.008734
-0.006877
-0.040871
-0.010516
-0.047204
-0.039801
-0.013774
-0.014236
-0.023124
-0.013809
-0.015159
-0.010975
-0.024486
-0.012424
-0.046676
-0.015630
-0.014696
-0.045168
-0.045186
-0.025208
-0.049998
-0.013756
-0.051518
-0.007325
-0.023628
-0.008623
-0.016609
-0.017498
-0.030904
-0.023157
-0.040761
-0.048705
-0.045824
-0.041981
-0.048237
-0.050921
-0.050506
-0.039152
-0.028059
-0.035322
-0.046058
-0.002749
-0.002344
-0.038170
-0.018886
-0.005851
-0.006906
-0.006907
-0.001394
-0.012320
-0.041951
-0.050450
-0.048771
-0.048277
-0.024857
-0.042036
-0.024993
-0.004054
-0.046125
-0.034507
-0.014622
-0.017076
-0.016611
-0.017495
-0.016601
-0.017490
-0.017485
-0.016591
-0.018949
-0.009999
-0.009978
-0.010822
-0.009058
-0.008739
-0.043504
-0.009002
-0.036830
-0.011481
-0.017514
-0.018400
-0.033546
-0.012820
-0.047456
-0.048462
-0.008582
-0.009031
-0.010770
-0.038898
-0.041003
-0.027606
-0.041438
-0.009554
-0.010007
-0.009095
-0.019385
-0.045283
-0.048837
-0.008172
-0.008672
-0.019356
-0.009056
-0.034990
-0.019361
-0.050789
-0.042997
-0.016448
-0.015630
-0.026217
-0.012375
-0.018445
-0.046817
-0.048853
-0.020507
-0.013805
-0.014785
-0.006335
-0.018437
-0.046794
-0.037808
-0.038279
-0.038777
-0.046167
-0.029843
-0.037864
-0.034831
-0.046090
-0.027528
-0.046032
-0.048650
-0.038001
-0.047026
-0.049532
-0.049507
-0.020235
-0.049024
-0.046559
-0.032595
-0.050937
-0.019805
-0.020284
-0.020291
-0.027178
-0.025812
-0.003137
-0.034479
-0.008182
-0.038896
-0.041633
-0.051196
-0.025396
-0.015163
-0.044621
-0.019292
-0.046316
-0.047498
-0.018493
-0.022830
-0.047331
-0.031886
-0.031632
-0.042822
-0.041713
-0.017471
-0.019469
-0.038844
-0.021626
-0.008152
-0.023731
-0.028177
-0.027699
-0.006401
-0.048055
-0.022101
-0.022117
-0.018340
-0.046029
-0.046452
-0.046792
-0.048179
-0.010975
-0.004609
-0.005916
-0.005437
-0.005929
-0.004511
-0.020694
-0.020255
-0.021154
-0.021137
-0.021120
-0.021101
-0.021082
-0.021062
-0.021041
-0.021513
-0.019763
-0.020247
-0.006336
-0.014193
-0.033150
-0.020268
-0.020276
-0.021963
-0.027203
-0.020006
-0.004580
-0.047450
-0.002230
-0.020301
-0.047374
-0.014651
-0.020762
-0.043373
-0.036629
-0.033597
-0.034790
-0.039388
-0.021261
-0.045278
-0.039288
-0.007744
-0.012334
-0.002334
-0.001848
-0.043733
-0.015216
-0.015640
-0.014253
-0.021940
-0.020812
-0.001834
-0.033997
-0.040956
-0.049766
-0.036289
-0.001399
-0.019826
-0.048503
-0.017766
-0.020068
-0.019168
-0.020318
-0.021281
-0.020813
-0.019313
-0.043259
-0.002276
-0.019299
-0.018795
-0.019284
-0.019269
-0.007692
-0.040568
-0.042918
-0.021238
-0.046213
-0.022510
-0.022520
-0.016751
-0.017197
-0.041999
-0.010979
-0.043856
-0.043436
-0.044346
-0.025629
-0.025181
-0.024731
-0.025208
-0.023833
-0.024305
-0.024329
-0.024352
-0.023876
-0.024856
-0.024374
-0.024394
-0.024899
-0.023955
-0.023495
-0.023568
-0.046017
-0.043975
-0.023086
-0.015240
-0.042247
-0.023095
-0.022622
-0.023104
-0.023609
-0.023110
-0.023584
-0.022643
-0.022648
-0.022651
-0.022180
-0.023160
-0.042852
-0.005035
-0.040354
-0.042732
-0.049635
-0.020920
-0.013766
-0.039576
-0.043806
-0.042103
-0.022148
-0.043696
-0.023127
-0.032507
-0.037702
-0.049778
-0.043706
-0.043706
-0.002750
-0.043584
-0.050897
-0.038956
-0.026192
-0.040194
-0.051586
-0.014518
-0.014287
-0.042525
-0.044646
-0.045773
-0.021699
-0.021725
-0.045152
-0.022114
-0.011049
-0.022809
-0.043094
-0.022127
-0.043370
-0.005941
-0.041114
-0.025356
-0.043449
-0.024030
-0.013197
-0.017535
-0.017445
-0.016545
-0.017424
-0.041381
-0.031409
-0.020812
-0.044305
-0.008744
-0.014807
-0.026724
-0.026524
-0.024414
-0.024918
-0.047007
-0.046574
-0.044695
-0.042914
-0.025396
-0.027968
-0.019220
-0.045218
-0.047746
-0.040645
-0.004108
-0.003657
-0.012392
-0.021705
-0.003584
-0.049843
-0.017129
-0.021692
-0.042854
-0.013673
-0.034581
-0.043812
-0.019839
-0.010444
-0.008666
-0.024925
-0.023953
-0.024083
-0.021483
-0.023167
-0.013758
-0.043819
-0.036852
-0.002306
-0.037793
-0.015098
-0.002730
-0.044290
-0.016034
-0.046086
-0.043111
-0.030814
-0.001371
-0.001786
-0.042283
-0.042601
-0.047074
-0.024490
-0.024506
-0.006900
-0.011364
-0.051574
-0.000245
-0.000201
-0.018571
-0.039099
-0.029786
-0.039270
-0.010419
-0.020727
-0.043774
-0.042726
-0.009623
-0.042073
-0.043355
-0.046336
-0.045909
-0.029283
-0.028801
-0.026070
-0.024909
-0.021554
-0.045222
-0.046572
-0.046565
-0.046557
-0.047020
-0.047012
-0.047900
-0.038349
-0.048307
-0.022651
-0.025386
-0.038244
-0.022648
-0.045314
-0.005035
-0.005033
-0.004937
-0.042799
-0.028158
-0.039039
-0.035857
-0.032440
-0.026351
-0.026343
-0.038832
-0.041463
-0.029023
-0.029453
-0.034367
-0.023626
-0.024932
-0.026747
-0.026358
-0.049581
-0.023253
-0.049221
-0.048790
-0.042153
-0.040963
-0.042479
-0.024094
-0.024051
-0.042524
-0.016163
-0.043734
-0.014831
-0.032678
-0.040605
-0.041820
-0.009118
-0.008661
-0.041566
-0.043442
-0.050457
-0.042194
-0.003191
-0.024567
-0.024974
-0.005388
-0.005900
-0.023169
-0.046893
-0.051338
-0.039397
-0.040378
-0.050755
-0.042908
-0.002303
-0.037922
-0.044725
-0.041326
-0.003176
-0.002315
-0.001886
-0.025918
-0.005448
-0.050079
-0.036254
-0.024995
-0.040502
-0.023110
-0.010412
-0.041935
-0.046075
-0.046101
-0.037428
-0.049999
-0.018356
-0.042225
-0.025512
-0.003614
-0.045039
-0.018232
-0.024985
-0.024025
-0.026993
-0.011337
-0.051257
-0.041953
-0.023579
-0.039689
-0.051147
-0.039788
-0.050526
-0.031374
-0.038221
-0.025491
-0.024501
-0.042364
-0.048043
-0.025562
-0.004090
-0.025322
-0.025834
-0.032638
-0.008624
-0.041827
-0.022117
-0.017445
-0.016563
-0.016509
-0.017400
-0.017345
-0.016462
-0.018178
-0.018625
-0.043836
-0.044288
-0.043706
-0.044119
-0.041246
-0.007764
-0.033297
-0.040023
-0.048292
-0.005490
-0.026132
-0.041985
-0.025655
-0.012435
-0.025178
-0.025568
-0.024702
-0.024227
-0.043010
-0.023547
-0.038937
-0.013443
-0.017856
-0.010444
-0.002724
-0.013055
-0.011833
-0.049386
-0.002715
-0.014329
-0.038321
-0.027042
-0.047897
-0.024757
-0.020518
-0.023450
-0.008586
-0.009542
-0.004939
-0.019593
-0.028787
-0.015946
-0.024956
-0.042311
-0.019796
-0.014696
-0.014231
-0.013766
-0.040133
-0.013310
-0.012217
-0.016806
-0.019517
-0.010897
-0.019962
-0.019490
-0.010440
-0.012853
-0.036724
-0.035793
-0.010082
-0.008721
-0.008261
-0.043415
-0.045753
-0.012583
-0.044998
-0.043876
-0.018566
-0.016743
-0.016315
-0.023608
-0.022699
-0.047958
-0.020897
-0.021341
-0.044691
-0.044214
-0.009485
-0.017566
-0.025334
-0.024856
-0.015884
-0.024380
-0.024401
-0.024616
-0.038141
-0.040825
-0.038613
-0.032303
-0.023049
-0.022834
-0.025091
-0.041253
-0.044665
-0.048896
-0.048237
-0.006907
-0.016601
-0.024414
-0.048740
-0.018075
-0.017071
-0.020800
-0.043384
-0.009650
-0.007339
-0.046260
-0.046655
-0.045406
-0.010551
-0.021543
-0.005434
-0.031201
-0.041531
-0.048503
-0.039874
-0.045934
-0.032848
-0.033109
-0.013052
-0.050370
-0.042303
-0.042794
-0.048208
-0.018011
-0.027515
-0.027144
-0.011716
-0.048678
-0.043884
-0.018661
-0.031854
-0.032448
-0.041319
-0.002753
-0.028977
-0.025376
-0.041900
-0.001370
-0.026544
-0.027013
-0.027956
-0.050973
-0.041996
-0.037290
-0.037240
-0.037806
-0.045089
-0.034606
-0.027249
-0.052413
-0.020094
-0.038288
-0.037881
-0.031012
-0.030134
-0.030186
-0.030200
-0.030212
-0.031144
-0.030229
-0.029288
-0.027402
-0.026929
-0.031621
-0.033056
-0.033531
-0.036866
-0.017068
-0.017535
-0.016563
-0.017064
-0.021240
-0.022117
-0.010375
-0.023423
-0.010368
-0.043345
-0.022995
-0.023856
-0.024287
-0.044563
-0.008615
-0.009007
-0.008166
-0.008148
-0.041648
-0.008993
-0.007332
-0.008141
-0.040672
-0.031352
-0.012206
-0.013479
-0.011007
-0.031628
-0.032583
-0.021579
-0.039203
-0.039253
-0.011436
-0.013464
-0.016636
-0.017075
-0.017514
-0.005888
-0.011899
-0.040027
-0.013062
-0.005426
-0.012395
-0.005877
-0.010500
-0.011443
-0.030716
-0.005466
-0.005051
-0.045196
-0.023168
-0.017487
-0.042427
-0.049109
-0.033914
-0.002733
-0.025686
-0.043840
-0.041044
-0.025434
-0.024110
-0.023668
-0.047071
-0.006350
-0.025978
-0.038547
-0.047580
-0.034752
-0.017042
-0.025512
-0.017155
-0.024593
-0.012108
-0.013001
-0.041598
-0.035384
-0.049988
-0.032986
-0.025039
-0.025042
-0.036936
-0.031040
-0.030942
-0.036578
-0.033019
-0.033508
-0.002710
-0.002340
-0.041562
-0.025007
-0.027356
-0.020704
-0.050989
-0.009441
-0.019167
-0.037106
-0.001777
-0.013340
-0.030634
-0.036488
-0.027706
-0.028905
-0.011717
-0.025828
-0.024550
-0.041983
-0.011459
-0.040152
-0.018008
-0.016572
-0.017053
-0.011436
-0.036708
-0.009200
-0.048092
-0.005024
-0.020068
-0.018768
-0.012424
-0.050035
-0.047875
-0.016145
-0.009560
-0.013448
-0.035302
-0.021758
-0.014752
-0.046668
-0.002233
-0.014215
-0.045788
-0.007735
-0.015679
-0.052501
-0.007198
-0.047465
-0.047908
-0.005036
-0.010935
-0.011428
-0.042803
-0.029996
-0.012303
-0.013774
-0.027315
-0.033708
-0.050118
-0.026791
-0.017422
-0.027659
-0.048838
-0.035352
-0.017917
-0.049725
-0.019071
-0.018679
-0.028115
-0.028187
-0.029729
-0.025850
-0.033908
-0.001885
-0.044733
-0.029257
-0.028751
-0.028298
-0.014735
-0.015637
-0.051207
-0.051279
-0.028962
-0.029105
-0.050845
-0.050026
-0.047226
-0.016094
-0.020144
-0.019723
-0.000980
-0.017064
-0.049819
-0.000273
-0.017515
-0.023273
-0.012598
-0.046983
-0.030134
-0.004534
-0.031575
-0.040719
-0.032899
-0.048581
-0.033424
-0.018781
-0.041168
-0.024413
-0.019407
-0.030665
-0.030196
-0.036976
-0.035168
-0.046914
-0.007641
-0.009877
-0.046936
-0.032017
-0.028611
-0.030446
-0.008658
-0.002341
-0.002342
-0.002344
-0.024843
-0.047150
-0.045616
-0.011468
-0.039576
-0.010429
-0.047218
-0.039607
-0.051839
-0.023124
-0.051059
-0.001353
-0.021795
-0.017994
-0.007187
-0.001402
-0.017022
-0.017002
-0.016499
-0.016476
-0.035873
-0.009202
-0.004992
-0.020088
-0.038356
-0.032270
-0.013220
-0.013711
-0.033749
-0.019876
-0.010041
-0.010034
-0.009534
-0.002779
-0.002274
-0.014223
-0.010334
-0.018300
-0.008653
-0.026128
-0.015855
-0.014712
-0.048766
-0.015135
-0.013256
-0.026745
-0.034022
-0.031462
-0.006836
-0.020720
-0.041844
-0.040136
-0.041062
-0.041530
-0.042461
-0.016991
-0.011938
-0.011481
-0.009650
-0.009203
-0.008746
-0.028282
-0.010544
-0.044380
-0.010086
-0.034985
-0.048596
-0.046416
-0.038608
-0.012553
-0.044428
-0.016932
-0.051359
-0.013537
-0.031969
-0.011006
-0.029023
-0.047490
-0.047081
-0.034353
-0.030737
-0.038148
-0.048791
-0.037288
-0.008698
-0.041542
-0.046217
-0.038686
-0.031070
-0.047002
-0.046299
-0.027819
-0.039869
-0.052826
-0.052580
-0.013513
-0.034972
-0.027806
-0.026399
-0.026412
-0.017976
-0.017455
-0.017478
-0.017318
-0.014991
-0.014555
-0.014067
-0.013606
-0.017747
-0.018661
-0.036336
-0.036628
-0.036139
-0.007195
-0.012184
-0.030113
-0.022016
-0.005390
-0.041513
-0.004144
-0.017016
-0.030046
-0.031596
-0.012853
-0.032947
-0.032987
-0.033328
-0.029757
-0.030679
-0.008271
-0.009132
-0.035250
-0.009033
-0.010478
-0.043132
-0.001776
-0.034911
-0.002772
-0.002336
-0.051723
-0.031084
-0.050092
-0.020496
-0.001387
-0.016321
-0.019186
-0.009499
-0.017928
-0.012796
-0.015532
-0.010921
-0.007214
-0.040531
-0.020144
-0.048015
-0.035922
-0.014091
-0.030148
-0.000303
-0.033617
-0.022545
-0.020740
-0.043135
-0.005034
-0.049028
-0.019272
-0.048707
-0.046090
-0.046478
-0.021909
-0.045614
-0.020968
-0.001828
-0.021342
-0.044591
-0.001370
-0.006898
-0.052755
-0.011802
-0.020289
-0.010521
-0.036213
-0.035958
-0.009666
-0.035393
-0.045439
-0.044967
-0.017963
-0.029479
-0.018990
-0.017179
-0.020930
-0.034936
-0.042299
-0.017641
-0.025892
-0.009136
-0.024644
-0.021374
-0.042997
-0.042677
-0.008235
-0.013238
-0.052528
-0.000203
-0.045404
-0.045068
-0.038290
-0.037388
-0.036976
-0.037633
-0.036298
-0.035452
-0.031995
-0.032043
-0.031602
-0.030414
-0.030446
-0.030553
-0.030595
-0.030187
-0.030203
-0.029752
-0.029260
-0.029263
-0.027400
-0.026897
-0.027874
-0.027367
-0.027832
-0.025935
-0.025402
-0.031653
-0.031475
-0.033057
-0.033556
-0.038746
-0.010111
-0.034658
-0.042318
-0.038129
-0.021689
-0.009063
-0.009659
-0.008702
-0.027002
-0.008589
-0.028668
-0.031368
-0.014420
-0.039695
-0.032109
-0.039204
-0.016149
-0.033819
-0.005029
-0.004520
-0.037587
-0.036679
-0.026734
-0.005028
-0.005019
-0.037552
-0.049576
-0.049556
-0.049092
-0.049507
-0.042603
-0.049488
-0.003139
-0.049414
-0.046213
-0.050072
-0.042116
-0.039382
-0.043817
-0.041041
-0.025836
-0.050919
-0.013994
-0.026452
-0.025950
-0.050425
-0.015801
-0.041612
-0.035270
-0.051338
-0.050921
-0.027830
-0.006769
-0.010853
-0.025007
-0.001839
-0.026214
-0.013548
-0.031023
-0.033065
-0.033518
-0.049649
-0.033553
-0.035990
-0.004535
-0.014627
-0.032824
-0.027362
-0.004952
-0.037290
-0.033509
-0.034203
-0.031973
-0.029501
-0.033959
-0.033692
-0.041534
-0.041889
-0.025008
-0.047700
-0.048330
-0.031613
-0.038123
-0.030186
-0.015030
-0.042877
-0.045935
-0.019111
-0.042783
-0.042695
-0.041542
-0.048758
-0.019796
-0.042837
-0.015346
-0.023891
-0.041756
-0.002343
-0.022227
-0.018716
-0.019722
-0.018829
-0.036084
-0.052976
-0.031748
-0.032207
-0.033315
-0.013606
-0.007343
-0.045829
-0.045744
-0.021503
-0.021030
-0.045178
-0.004975
-0.049058
-0.031217
-0.045789
-0.046599
-0.040535
-0.050403
-0.043436
-0.040115
-0.029948
-0.014482
-0.041381
-0.040457
-0.019610
-0.034127
-0.044255
-0.051669
-0.013496
-0.006906
-0.019410
-0.023342
-0.026811
-0.005492
-0.042610
-0.039575
-0.018880
-0.001852
-0.037324
-0.050203
-0.045828
-0.049106
-0.017350
-0.010588
-0.034785
-0.011044
-0.008689
-0.025739
-0.006909
-0.041111
-0.053007
-0.009384
-0.037794
-0.030756
-0.029948
-0.016518
-0.016977
-0.016041
-0.013317
-0.042280
-0.008605
-0.023761
-0.026993
-0.026515
-0.005491
-0.004040
-0.004087
-0.013318
-0.012854
-0.005415
-0.017042
-0.026811
-0.025363
-0.024171
-0.049109
-0.007187
-0.003207
-0.011217
-0.011663
-0.025287
-0.024956
-0.037557
-0.033175
-0.007690
-0.010041
-0.018896
-0.009935
-0.038256
-0.036742
-0.036795
-0.050133
-0.020210
-0.045664
-0.048988
-0.003254
-0.017904
-0.001428
-0.036850
-0.034499
-0.038934
-0.051234
-0.006432
-0.024041
-0.051462
-0.005389
-0.023715
-0.039607
-0.037729
-0.051598
-0.010821
-0.035604
-0.019089
-0.048110
-0.042013
-0.021652
-0.012421
-0.013306
-0.048109
-0.041740
-0.048933
-0.033621
-0.006796
-0.048330
-0.042861
-0.005881
-0.003638
-0.039299
-0.010821
-0.027176
-0.026746
-0.046039
-0.051291
-0.009112
-0.025713
-0.002258
-0.035277
-0.044052
-0.015217
-0.001399
-0.026585
-0.051371
-0.037552
-0.013256
-0.014604
-0.014067
-0.021251
-0.016822
-0.026669
-0.036434
-0.012859
-0.040317
-0.012428
-0.013317
-0.040836
-0.011967
-0.042424
-0.038586
-0.038660
-0.019401
-0.014240
-0.015201
-0.014730
-0.015191
-0.025873
-0.020291
-0.019377
-0.037515
-0.045566
-0.010913
-0.034894
-0.050906
-0.030781
-0.027023
-0.033145
-0.034030
-0.041869
-0.031401
-0.008102
-0.005026
-0.047980
-0.005459
-0.003232
-0.049580
-0.040196
-0.046937
-0.028321
-0.023516
-0.028137
-0.002680
-0.008088
-0.009430
-0.025834
-0.031674
-0.033065
-0.035777
-0.007757
-0.050424
-0.003211
-0.035500
-0.022811
-0.044343
-0.000991
-0.012257
-0.000285
-0.015029
-0.017819
-0.042599
-0.041550
-0.047195
-0.016129
-0.026337
-0.030271
-0.049218
-0.012857
-0.042303
-0.013817
-0.046299
-0.039182
-0.041991
-0.046526
-0.009112
-0.042538
-0.034237
-0.022622
-0.033553
-0.036045
-0.048236
-0.049796
-0.038940
-0.046655
-0.006336
-0.039648
-0.026446
-0.051132
-0.000300
-0.021092
-0.027949
-0.042006
-0.014136
-0.010854
-0.042933
-0.036299
-0.036735
-0.036224
-0.035594
-0.036051
-0.036539
-0.035965
-0.035371
-0.043855
-0.009965
-0.009511
-0.027723
-0.021997
-0.046863
-0.041525
-0.033440
-0.022220
-0.038599
-0.026077
-0.025599
-0.037529
-0.012857
-0.025122
-0.013313
-0.024646
-0.025091
-0.039204
-0.039642
-0.015205
-0.042653
-0.035391
-0.008161
-0.028110
-0.042479
-0.048864
-0.038410
-0.036050
-0.036830
-0.037795
-0.016306
-0.039423
-0.038518
-0.038579
-0.039109
-0.039158
-0.024305
-0.026109
-0.011388
-0.037597
-0.050665
-0.037122
-0.031810
-0.023400
-0.023470
-0.045707
-0.039901
-0.039069
-0.009506
-0.012430
-0.037308
-0.052857
-0.034774
-0.048338
-0.037093
-0.004621
-0.019259
-0.005945
-0.002736
-0.032381
-0.025429
-0.034138
-0.002338
-0.003637
-0.038000
-0.046105
-0.007773
-0.001415
-0.016244
-0.028300
-0.050835
-0.028468
-0.040620
-0.024044
-0.024976
-0.003665
-0.007767
-0.033431
-0.053042
-0.052284
-0.051201
-0.030812
-0.031749
-0.041999
-0.038376
-0.037058
-0.037215
-0.036642
-0.035805
-0.031509
-0.030811
-0.029896
-0.031005
-0.031168
-0.027875
-0.014651
-0.014185
-0.014176
-0.032610
-0.033529
-0.034503
-0.034028
-0.011769
-0.010433
-0.037557
-0.034725
-0.037988
-0.037854
-0.031357
-0.032175
-0.044298
-0.009914
-0.042212
-0.030514
-0.041729
-0.007802
-0.029263
-0.027806
-0.007248
-0.028226
-0.029108
-0.029575
-0.029799
-0.034467
-0.038252
-0.028397
-0.036745
-0.039522
-0.039003
-0.029705
-0.028820
-0.028338
-0.028397
-0.027857
-0.027916
-0.027819
-0.046515
-0.046072
-0.038244
-0.038550
-0.028308
-0.038095
-0.037648
-0.037546
-0.031538
-0.031540
-0.039097
-0.030772
-0.028420
-0.032021
-0.031980
-0.038724
-0.004565
-0.039637
-0.041246
-0.027657
-0.039410
-0.018547
-0.040123
-0.026766
-0.003180
-0.016300
-0.026337
-0.026863
-0.026877
-0.050063
-0.040583
-0.032790
-0.033022
-0.035887
-0.039086
-0.033678
-0.036845
-0.028340
-0.033408
-0.015384
-0.014897
-0.046843
-0.027558
-0.034617
-0.031749
-0.032830
-0.033723
-0.040142
-0.038464
-0.025763
-0.027506
-0.036376
-0.038204
-0.036896
-0.036071
-0.035732
-0.035321
-0.027167
-0.026745
-0.034452
-0.049263
-0.030041
-0.030489
-0.009930
-0.032324
-0.025285
-0.024807
-0.021366
-0.034679
-0.027629
-0.033968
-0.046039
-0.007772
-0.030126
-0.050907
-0.029059
-0.039287
-0.032964
-0.028272
-0.026573
-0.025219
-0.045946
-0.044445
-0.038601
-0.042713
-0.034939
-0.038854
-0.029377
-0.033447
-0.044646
-0.032971
-0.035511
-0.038288
-0.011411
-0.041577
-0.034835
-0.026058
-0.027423
-0.027779
-0.039766
-0.031537
-0.007296
-0.038048
-0.037633
-0.027894
-0.033950
-0.041969
-0.027097
-0.035452
-0.032485
-0.040290
-0.028622
-0.029652
-0.028147
-0.030253
-0.038356
-0.023752
-0.029913
-0.038963
-0.016863
-0.029423
-0.038148
-0.009087
-0.031257
-0.027983
-0.029738
-0.030595
-0.027683
-0.036944
-0.033468
-0.026791
-0.036408
-0.028929
-0.029809
-0.032473
-0.041323
-0.037287
-0.006393
-0.033070
-0.035517
-0.028258
-0.034832
-0.038330
-0.027385
-0.027788
-0.028597
-0.033163
-0.032009
-0.046569
-0.028335
-0.031475
-0.004119
-0.035014
-0.035502
-0.042695
-0.033047
-0.045664
-0.031853
-0.029708
-0.029240
-0.030163
-0.036319
-0.030187
-0.031462
-0.032986
-0.052554
-0.003417
-0.035887
-0.009479
-0.005387
-0.009148
-0.017480
-0.019359
-0.019349
-0.020678
-0.045312
-0.028597
-0.043989
-0.034856
-0.009638
-0.026421
-0.015043
-0.035602
-0.009517
-0.010866
-0.023458
-0.023891
-0.008570
-0.008610
-0.044998
-0.024753
-0.024290
-0.008600
-0.025181
-0.025608
-0.008592
-0.005962
-0.010381
-0.042871
-0.013027
-0.013068
-0.019286
-0.020123
-0.020154
-0.029880
-0.020574
-0.035390
-0.047704
-0.005445
-0.005937
-0.005016
-0.004559
-0.021596
-0.005007
-0.049117
-0.023194
-0.020713
-0.012138
-0.032268
-0.018443
-0.010343
-0.036337
-0.006315
-0.019745
-0.027578
-0.005942
-0.015371
-0.042451
-0.043219
-0.045513
-0.039420
-0.044621
-0.007332
-0.021133
-0.038235
-0.017126
-0.038503
-0.008127
-0.038260
-0.043781
-0.048314
-0.019408
-0.044638
-0.019690
-0.018800
-0.019673
-0.003586
-0.006390
-0.004085
-0.040602
-0.002256
-0.034529
-0.046444
-0.042476
-0.035378
-0.010059
-0.046609
-0.043196
-0.041873
-0.030837
-0.048433
-0.044688
-0.014060
-0.003202
-0.044748
-0.023454
-0.039733
-0.050875
-0.040249
-0.001019
-0.053045
-0.053019
-0.052826
-0.027952
-0.006756
-0.000311
-0.000305
-0.000319
-0.000311
-0.000311
-0.000309
-0.000305
-0.022058
-0.025010
-0.025490
-0.028863
-0.044226
-0.037213
-0.034952
-0.030101
-0.027774
-0.039942
-0.038268
-0.024757
-0.023049
-0.022643
-0.025308
-0.039151
-0.039516
-0.038586
-0.048740
-0.040336
-0.042100
-0.024521
-0.017605
-0.033509
-0.048430
-0.023489
-0.041908
-0.041438
-0.040561
-0.011042
-0.047473
-0.014827
-0.031175
-0.025764
-0.048055
-0.012435
-0.023987
-0.029961
-0.052444
-0.020579
-0.046373
-0.046057
-0.036498
-0.038117
-0.004035
-0.010048
-0.010327
-0.041474
-0.037655
-0.049942
-0.028180
-0.007318
-0.025015
-0.049191
-0.015590
-0.024463
-0.035150
-0.026525
-0.025828
-0.012832
-0.012381
-0.030288
-0.022171
-0.049581
-0.025922
-0.030840
-0.004097
-0.016138
-0.035581
-0.027683
-0.013134
-0.010325
-0.001849
-0.045183
-0.037475
-0.036687
-0.025430
-0.008536
-0.025024
-0.031929
-0.012678
-0.051659
-0.050666
-0.037309
-0.040984
-0.001363
-0.033053
-0.000250
-0.015287
-0.044593
-0.012845
-0.048409
-0.002703
-0.013683
-0.008230
-0.012998
-0.019517
-0.049312
-0.050742
-0.000286
-0.027481
-0.018644
-0.009618
-0.005439
-0.004985
-0.019210
-0.006341
-0.012849
-0.048054
-0.047495
-0.003209
-0.047615
-0.037137
-0.024464
-0.047453
-0.049211
-0.021212
-0.009129
-0.048138
-0.036698
-0.043843
-0.022601
-0.005441
-0.047060
-0.046920
-0.007228
-0.008203
-0.021398
-0.047556
-0.043682
-0.050795
-0.011396
-0.022975
-0.029873
-0.016535
-0.023918
-0.023050
-0.007725
-0.028302
-0.013985
-0.023157
-0.027003
-0.038249
-0.042311
-0.012805
-0.033384
-0.034316
-0.007638
-0.023354
-0.033992
-0.002758
-0.034446
-0.033856
-0.045758
-0.015532
-0.031946
-0.025686
-0.001777
-0.046757
-0.049938
-0.018950
-0.016285
-0.034963
-0.033166
-0.028788
-0.053036
-0.000244
-0.051417
-0.011759
-0.017662
-0.010448
-0.049096
-0.022809
-0.048961
-0.041991
-0.008204
-0.009106
-0.036139
-0.010887
-0.050567
-0.046057
-0.015212
-0.046726
-0.015494
-0.016884
-0.024075
-0.025261
-0.010013
-0.052472
-0.052936
-0.052886
-0.030361
-0.031277
-0.027570
-0.024042
-0.026836
-0.026384
-0.047372
-0.027804
-0.047956
-0.027202
-0.025402
-0.027727
-0.026722
-0.027656
-0.007322
-0.026492
-0.014344
-0.002756
-0.040692
-0.006760
-0.028059
-0.028776
-0.039069
-0.044738
-0.003143
-0.041515
-0.036498
-0.023111
-0.036825
-0.042289
-0.028762
-0.028747
-0.028619
-0.000898
-0.001037
-0.023525
-0.052792
-0.048549
-0.052483
-0.047954
-0.044727
-0.044381
-0.044029
-0.035876
-0.033737
-0.033303
-0.027843
-0.038748
-0.043851
-0.045034
-0.043989
-0.031600
-0.017645
-0.049977
-0.003184
-0.030375
-0.040544
-0.031023
-0.032352
-0.041812
-0.007742
-0.030176
-0.028541
-0.008636
-0.043710
-0.036085
-0.043052
-0.002339
-0.020474
-0.037963
-0.047695
-0.039274
-0.023307
-0.051420
-0.006807
-0.030308
-0.040566
-0.048319
-0.048307
-0.027571
-0.033076
-0.011200
-0.021578
-0.042798
-0.040942
-0.034598
-0.003642
-0.050425
-0.009560
-0.007282
-0.032077
-0.045354
-0.044384
-0.028882
-0.008138
-0.004952
-0.010584
-0.024094
-0.005983
-0.053042
-0.034239
-0.042817
-0.032881
-0.034045
-0.010361
-0.046560
-0.045472
-0.046261
-0.009487
-0.007189
-0.030701
-0.005438
-0.004989
-0.041504
-0.017504
-0.018819
-0.004574
-0.005422
-0.021464
-0.017494
-0.035990
-0.003649
-0.024016
-0.020194
-0.039671
-0.023104
-0.011277
-0.005948
-0.045314
-0.019165
-0.003596
-0.029548
-0.013050
-0.023141
-0.002246
-0.007339
-0.049031
-0.033229
-0.019230
-0.041143
-0.049076
-0.020106
-0.002744
-0.002756
-0.040790
-0.019831
-0.011663
-0.046415
-0.038963
-0.001826
-0.036127
-0.042811
-0.039787
-0.047971
-0.043339
-0.008277
-0.000228
-0.007346
-0.037550
-0.011032
-0.022601
-0.047828
-0.017904
-0.035944
-0.038695
-0.038366
-0.039671
-0.052957
-0.000239
-0.031571
-0.031559
-0.044177
-0.021082
-0.032160
-0.011873
-0.042041
-0.029493
-0.033241
-0.030212
-0.024443
-0.017421
-0.026581
-0.044016
-0.023082
-0.037215
-0.037388
-0.041095
-0.043479
-0.028187
-0.028688
-0.047079
-0.034193
-0.033061
-0.030647
-0.023601
-0.051554
-0.006322
-0.001794
-0.032968
-0.052528
-0.000206
-0.010444
-0.013701
-0.016535
-0.009152
-0.022491
-0.048344
-0.005535
-0.022176
-0.025234
-0.023584
-0.013780
-0.012894
-0.023985
-0.031176
-0.025039
-0.021120
-0.012565
-0.003181
-0.002738
-0.049793
-0.014751
-0.016488
-0.013301
-0.005001
-0.007777
-0.024585
-0.050906
-0.007060
-0.000204
-0.000227
-0.000206
-0.028613
-0.039664
-0.046541
-0.010521
-0.035176
-0.052936
-0.000749
-0.036060
-0.041863
-0.049339
-0.049203
-0.014175
-0.041656
-0.017475
-0.001826
-0.038454
-0.014612
-0.038556
-0.042656
-0.001777
-0.016462
-0.034626
-0.002273
-0.019975
-0.034055
-0.011451
-0.050128
-0.011446
-0.018898
-0.009069
-0.046819
-0.018825
-0.016585
-0.033420
-0.009569
-0.048002
-0.020263
-0.001371
-0.017318
-0.045121
-0.050764
-0.021315
-0.002725
-0.029644
-0.033895
-0.007355
-0.017037
-0.016579
-0.009666
-0.007251
-0.045425
-0.012295
-0.020162
-0.035811
-0.037967
-0.045527
-0.002307
-0.017076
-0.037199
-0.047194
-0.046906
-0.007667
-0.018644
-0.019149
-0.007326
-0.013673
-0.041534
-0.010889
-0.020452
-0.036578
-0.041480
-0.040275
-0.040837
-0.018066
-0.042250
-0.043340
-0.010085
-0.043360
-0.042757
-0.042364
-0.003183
-0.014060
-0.040462
-0.050811
-0.039968
-0.030164
-0.016563
-0.006746
-0.006405
-0.004102
-0.049151
-0.043941
-0.045311
-0.030790
-0.031960
-0.016512
-0.045598
-0.016906
-0.038788
-0.014601
-0.037338
-0.043845
-0.043365
-0.044089
-0.041320
-0.044967
-0.009053
-0.023392
-0.007643
-0.039487
-0.021574
-0.017028
-0.039061
-0.037639
-0.005487
-0.042298
-0.033892
-0.038482
-0.038050
-0.049378
-0.045548
-0.040352
-0.033690
-0.043348
-0.037515
-0.025393
-0.047450
-0.006753
-0.036354
-0.035403
-0.006743
-0.007782
-0.016990
-0.031886
-0.041025
-0.044217
-0.018735
-0.003171
-0.001882
-0.041071
-0.038180
-0.037265
-0.012153
-0.050190
-0.001438
-0.037434
-0.037831
-0.039143
-0.030646
-0.020123
-0.042401
-0.006426
-0.026909
-0.021575
-0.043104
-0.023979
-0.034415
-0.016138
-0.024017
-0.032115
-0.032215
-0.032253
-0.017976
-0.044750
-0.022566
-0.015492
-0.013646
-0.021610
-0.005036
-0.043282
-0.025207
-0.026490
-0.043876
-0.017800
-0.023857
-0.017231
-0.017002
-0.040955
-0.016589
-0.004496
-0.052716
-0.010565
-0.006390
-0.017186
-0.038373
-0.016735
-0.011403
-0.045117
-0.046123
-0.014937
-0.025739
-0.052912
-0.025995
-0.029356
-0.032117
-0.029423
-0.035667
-0.045965
-0.047826
-0.026136
-0.042965
-0.028254
-0.023697
-0.002677
-0.040066
-0.044638
-0.009485
-0.005467
-0.032873
-0.051394
-0.039041
-0.014779
-0.000306
-0.039195
-0.031186
-0.018436
-0.023888
-0.028840
-0.017479
-0.017056
-0.004614
-0.004105
-0.025303
-0.005454
-0.027926
-0.032698
-0.026892
-0.008265
-0.003237
-0.012607
-0.040317
-0.044240
-0.004998
-0.029275
-0.032583
-0.009965
-0.023985
-0.031901
-0.006023
-0.041085
-0.016170
-0.040784
-0.003584
-0.017945
-0.039962
-0.004558
-0.010586
-0.038605
-0.051249
-0.012832
-0.042811
-0.011013
-0.050342
-0.028317
-0.025864
-0.044688
-0.047013
-0.017065
-0.005036
-0.005519
-0.030658
-0.004543
-0.033608
-0.043339
-0.026600
-0.039870
-0.007263
-0.035105
-0.023314
-0.029880
-0.030181
-0.032895
-0.035589
-0.052886
-0.035461
-0.016177
-0.004083
-0.003680
-0.003631
-0.001779
-0.015268
-0.014746
-0.014740
-0.035805
-0.017039
-0.033819
-0.044255
-0.016572
-0.010780
-0.015397
-0.023441
-0.001400
-0.024731
-0.042309
-0.014687
-0.017623
-0.036492
-0.035428
-0.039576
-0.047742
-0.004136
-0.050379
-0.004046
-0.019664
-0.004148
-0.008624
-0.013286
-0.040477
-0.012822
-0.001324
-0.033100
-0.002698
-0.007296
-0.047156
-0.034913
-0.025007
-0.028115
-0.015125
-0.016524
-0.030788
-0.027085
-0.029618
-0.032741
-0.027539
-0.022569
-0.000249
-0.000304
-0.000247
-0.047324
-0.019272
-0.014692
-0.008261
-0.018819
-0.001874
-0.019682
-0.007301
-0.004603
-0.031146
-0.014674
-0.015874
-0.018397
-0.010126
-0.001380
-0.010854
-0.043305
-0.010127
-0.005033
-0.004133
-0.039871
-0.024141
-0.045554
-0.034467
-0.050486
-0.051359
-0.048896
-0.010125
-0.035895
-0.029249
-0.043866
-0.049191
-0.042439
-0.002276
-0.018872
-0.028163
-0.039831
-0.020883
-0.018864
-0.048004
-0.050374
-0.028171
-0.009145
-0.008216
-0.006890
-0.007798
-0.005932
-0.004534
-0.004084
-0.026290
-0.025275
-0.017507
-0.048179
-0.032415
-0.020244
-0.002752
-0.024057
-0.047013
-0.043723
-0.019325
-0.001824
-0.050881
-0.050690
-0.050242
-0.018909
-0.019735
-0.049224
-0.014775
-0.050050
-0.000307
-0.034061
-0.032869
-0.015004
-0.016768
-0.017036
-0.016434
-0.024322
-0.009137
-0.008268
-0.045825
-0.009934
-0.030668
-0.013969
-0.018698
-0.005391
-0.004942
-0.005023
-0.022293
-0.004090
-0.039253
-0.049225
-0.042363
-0.002686
-0.017797
-0.007798
-0.017113
-0.002292
-0.021976
-0.008704
-0.031425
-0.049651
-0.018053
-0.037728
-0.048459
-0.015815
-0.012165
-0.020574
-0.014964
-0.006893
-0.051133
-0.014438
-0.029953
-0.018890
-0.009169
-0.011241
-0.017571
-0.017129
-0.007277
-0.020141
-0.033637
-0.011235
-0.052992
-0.000250
-0.032661
-0.031378
-0.046844
-0.036646
-0.005042
-0.039095
-0.038501
-0.012561
-0.028949
-0.053045
-0.027452
-0.035881
-0.035458
-0.035033
-0.017970
-0.017503
-0.017022
-0.016559
-0.019431
-0.035420
-0.043441
-0.005493
-0.012368
-0.012377
-0.049058
-0.015410
-0.027970
-0.019408
-0.010039
-0.020223
-0.015789
-0.044132
-0.022158
-0.015355
-0.002339
-0.026137
-0.018196
-0.010487
-0.037741
-0.050784
-0.020395
-0.010996
-0.037327
-0.000248
-0.017531
-0.019872
-0.019867
-0.022468
-0.038260
-0.005493
-0.035824
-0.050004
-0.027140
-0.038638
-0.034238
-0.036305
-0.002731
-0.011715
-0.041812
-0.013766
-0.031540
-0.049285
-0.041490
-0.050497
-0.049501
-0.001890
-0.018349
-0.002683
-0.044366
-0.035920
-0.020524
-0.015205
-0.028813
-0.004545
-0.004095
-0.009128
-0.033083
-0.042407
-0.052842
-0.032864
-0.017507
-0.021227
-0.021664
-0.022099
-0.021614
-0.021575
-0.014816
-0.007772
-0.005952
-0.014429
-0.010927
-0.019149
-0.021018
-0.013728
-0.014239
-0.015641
-0.020485
-0.020930
-0.034943
-0.033842
-0.009938
-0.013264
-0.014208
-0.012375
-0.029718
-0.014705
-0.015147
-0.018196
-0.015657
-0.041075
-0.008188
-0.005387
-0.007363
-0.022179
-0.012351
-0.007319
-0.020121
-0.012373
-0.003181
-0.049662
-0.013940
-0.006288
-0.021374
-0.035954
-0.038371
-0.051557
-0.026192
-0.009095
-0.053013
-0.014627
-0.013157
-0.011811
-0.016527
-0.016956
-0.008702
-0.011313
-0.025113
-0.016124
-0.019637
-0.012896
-0.018296
-0.013721
-0.007720
-0.020598
-0.023549
-0.020344
-0.016968
-0.015173
-0.014710
-0.022199
-0.019783
-0.015614
-0.035506
-0.021916
-0.021523
-0.013819
-0.048791
-0.014240
-0.011802
-0.019813
-0.009069
-0.008585
-0.035410
-0.019269
-0.014708
-0.033021
-0.046993
-0.020194
-0.020126
-0.012998
-0.006405
-0.019325
-0.052774
-0.031274
-0.007314
-0.021612
-0.018854
-0.017959
-0.017933
-0.017471
-0.016995
-0.016527
-0.016554
-0.015620
-0.016367
-0.014978
-0.014503
-0.010897
-0.009999
-0.009665
-0.023399
-0.023824
-0.011715
-0.012607
-0.012629
-0.022047
-0.033271
-0.045960
-0.019146
-0.035213
-0.005531
-0.041025
-0.025152
-0.025658
-0.012852
-0.013229
-0.003181
-0.020650
-0.023697
-0.012849
-0.021241
-0.025594
-0.017856
-0.018325
-0.013805
-0.024227
-0.009978
-0.008149
-0.025286
-0.010927
-0.010000
-0.010953
-0.024287
-0.014730
-0.010486
-0.024357
-0.002263
-0.015145
-0.012173
-0.021446
-0.024333
-0.024422
-0.012614
-0.023421
-0.015554
-0.017424
-0.009582
-0.019739
-0.018750
-0.025235
-0.035952
-0.011008
-0.046183
-0.022879
-0.010982
-0.045148
-0.002231
-0.023304
-0.007368
-0.024922
-0.043756
-0.022084
-0.018821
-0.018351
-0.017003
-0.020178
-0.050827
-0.027195
-0.022821
-0.027216
-0.033337
-0.024476
-0.020694
-0.019338
-0.019051
-0.020336
-0.020040
-0.009948
-0.010419
-0.013271
-0.035756
-0.036408
-0.010099
-0.010412
-0.009959
-0.009053
-0.024624
-0.043573
-0.023581
-0.043780
-0.026162
-0.026611
-0.005077
-0.005535
-0.036803
-0.018508
-0.016703
-0.016775
-0.016259
-0.020873
-0.020953
-0.021253
-0.024170
-0.027629
-0.009520
-0.047797
-0.016345
-0.023406
-0.044865
-0.007725
-0.042474
-0.013602
-0.010545
-0.009069
-0.018586
-0.011686
-0.012169
-0.019239
-0.002794
-0.038190
-0.011417
-0.011498
-0.001779
-0.024673
-0.023251
-0.031013
-0.023003
-0.012635
-0.047730
-0.007248
-0.010547
-0.025712
-0.025261
-0.009527
-0.026165
-0.023238
-0.022751
-0.009896
-0.008593
-0.025713
-0.020849
-0.038157
-0.014465
-0.047784
-0.006867
-0.006867
-0.019689
-0.021739
-0.010511
-0.021867
-0.025430
-0.023035
-0.039689
-0.010838
-0.042116
-0.042524
-0.009529
-0.029805
-0.006339
-0.004075
-0.030734
-0.037417
-0.022749
-0.010034
-0.002738
-0.025358
-0.051329
-0.010376
-0.032349
-0.001890
-0.026312
-0.010361
-0.044281
-0.018510
-0.026617
-0.029000
-0.050946
-0.025024
-0.006380
-0.028832
-0.034879
-0.028962
-0.022820
-0.000264
-0.037793
-0.032381
-0.029825
-0.030045
-0.030235
-0.037788
-0.020776
-0.023053
-0.035706
-0.038847
-0.010881
-0.023488
-0.023922
-0.008554
-0.024820
-0.007201
-0.029524
-0.029389
-0.025504
-0.039742
-0.030814
-0.031537
-0.039969
-0.027026
-0.026580
-0.005391
-0.011278
-0.015324
-0.017455
-0.026728
-0.005390
-0.005393
-0.004991
-0.019657
-0.042946
-0.004978
-0.004971
-0.035817
-0.005535
-0.005535
-0.005072
-0.004557
-0.005054
-0.005932
-0.023216
-0.039174
-0.004063
-0.003651
-0.028953
-0.011686
-0.005007
-0.023992
-0.025797
-0.024987
-0.025408
-0.003147
-0.005951
-0.039300
-0.039743
-0.005910
-0.019351
-0.034313
-0.035475
-0.016540
-0.009479
-0.010821
-0.026661
-0.027932
-0.035811
-0.025799
-0.025900
-0.025023
-0.024488
-0.006818
-0.034166
-0.015217
-0.014329
-0.006357
-0.006300
-0.027983
-0.033086
-0.041054
-0.029708
-0.008283
-0.006364
-0.024437
-0.035910
-0.034856
-0.024863
-0.002234
-0.012554
-0.035125
-0.008134
-0.009031
-0.025055
-0.025936
-0.038629
-0.030674
-0.034880
-0.034403
-0.037124
-0.031460
-0.033295
-0.039000
-0.007363
-0.025004
-0.025227
-0.025720
-0.026961
-0.001842
-0.002256
-0.019609
-0.020043
-0.020482
-0.035511
-0.031909
-0.009593
-0.033077
-0.025854
-0.028914
-0.013009
-0.021069
-0.003662
-0.001833
-0.002713
-0.002716
-0.002726
-0.002290
-0.002302
-0.002299
-0.024789
-0.006753
-0.037384
-0.025008
-0.007819
-0.011299
-0.020223
-0.002242
-0.018378
-0.007817
-0.020306
-0.008992
-0.018293
-0.009500
-0.001344
-0.008094
-0.037783
-0.037699
-0.032550
-0.036532
-0.037709
-0.030207
-0.043780
-0.004141
-0.025797
-0.007236
-0.027271
-0.035631
-0.045198
-0.051683
-0.033040
-0.007646
-0.033899
-0.032056
-0.015659
-0.005897
-0.011745
-0.012644
-0.033557
-0.007311
-0.004548
-0.029045
-0.028882
-0.022263
-0.022704
-0.012161
-0.042387
-0.036816
-0.036767
-0.034053
-0.003191
-0.035775
-0.025944
-0.003198
-0.007259
-0.034542
-0.006862
-0.003238
-0.032070
-0.018283
-0.042085
-0.032397
-0.035242
-0.031895
-0.009896
-0.025827
-0.000251
-0.028644
-0.020441
-0.008684
-0.023332
-0.034137
-0.004567
-0.032830
-0.042003
-0.018623
-0.039699
-0.020593
-0.049131
-0.047300
-0.048764
-0.048258
-0.028134
-0.040231
-0.020682
-0.021503
-0.013618
-0.031237
-0.022357
-0.037238
-0.019737
-0.045662
-0.017677
-0.052674
-0.025062
-0.006258
-0.000312
-0.000316
-0.000293
-0.000253
-0.045791
-0.033630
-0.044257
-0.029059
-0.044865
-0.005977
-0.014826
-0.020602
-0.022341
-0.041951
-0.003193
-0.025743
-0.019788
-0.011285
-0.044646
-0.040956
-0.051958
-0.041081
-0.033909
-0.044007
-0.046761
-0.035150
-0.012145
-0.028359
-0.027880
-0.038518
-0.027723
-0.034942
-0.044889
-0.040961
-0.000295
-0.034240
-0.047370
-0.026148
-0.011932
-0.047707
-0.032541
-0.027326
-0.035443
-0.028181
-0.051740
-0.043092
-0.005977
-0.013651
-0.016596
-0.032100
-0.026707
-0.012417
-0.003659
-0.040683
-0.042965
-0.001869
-0.026034
-0.022908
-0.039905
-0.052755
-0.041321
-0.017478
-0.016405
-0.012717
-0.005838
-0.020789
-0.008127
-0.032915
-0.049577
-0.019755
-0.043383
-0.009927
-0.007730
-0.049195
-0.011842
-0.037386
-0.036229
-0.002347
-0.047549
-0.035158
-0.007238
-0.007308
-0.051347
-0.041449
-0.001829
-0.030647
-0.010516
-0.023035
-0.022591
-0.023063
-0.037010
-0.049632
-0.030200
-0.019874
-0.026136
-0.010355
-0.007762
-0.047456
-0.006909
-0.015507
-0.035403
-0.046745
-0.046602
-0.011728
-0.042220
-0.051369
-0.045657
-0.030248
-0.032135
-0.049426
-0.038976
-0.031341
-0.011268
-0.035378
-0.032584
-0.020507
-0.038410
-0.033031
-0.001887
-0.002289
-0.033518
-0.041007
-0.034017
-0.010935
-0.026005
-0.016535
-0.029266
-0.039908
-0.028411
-0.040451
-0.004537
-0.002231
-0.042382
-0.052985
-0.053046
-0.052810
-0.052554
-0.021827
-0.025266
-0.029601
-0.032400
-0.035150
-0.008224
-0.029011
-0.025075
-0.035884
-0.018784
-0.042368
-0.041481
-0.023726
-0.020177
-0.017387
-0.002718
-0.051770
-0.050767
-0.011466
-0.028210
-0.010556
-0.026137
-0.031962
-0.002278
-0.034616
-0.041535
-0.022259
-0.029493
-0.010973
-0.021005
-0.047640
-0.011450
-0.027454
-0.005451
-0.048218
-0.018789
-0.045016
-0.011914
-0.037665
-0.029843
-0.008728
-0.007757
-0.039187
-0.022286
-0.032571
-0.034456
-0.005908
-0.006447
-0.043169
-0.032703
-0.017479
-0.033785
-0.011881
-0.012891
-0.009602
-0.009173
-0.012807
-0.016092
-0.014749
-0.018463
-0.048158
-0.028172
-0.024779
-0.023806
-0.020331
-0.019336
-0.018328
-0.000233
-0.000263
-0.000265
-0.000276
-0.000270
-0.000265
-0.000267
-0.000263
-0.000249
-0.004146
-0.039097
-0.002738
-0.009948
-0.051792
-0.043225
-0.009088
-0.012266
-0.005893
-0.027026
-0.010085
-0.033840
-0.044889
-0.026265
-0.009148
-0.041930
-0.012556
-0.051462
-0.003634
-0.033218
-0.032733
-0.036156
-0.046676
-0.035408
-0.004549
-0.019210
-0.015153
-0.001806
-0.008171
-0.001357
-0.050365
-0.046084
-0.044290
-0.000998
-0.053039
-0.023082
-0.043311
-0.044016
-0.041931
-0.042280
-0.032240
-0.026116
-0.042461
-0.038550
-0.037225
-0.001323
-0.030189
-0.043770
-0.043202
-0.027449
-0.045598
-0.011969
-0.011929
-0.013731
-0.036567
-0.040330
-0.047826
-0.036646
-0.043324
-0.043647
-0.042311
-0.040873
-0.033552
-0.045210
-0.046116
-0.047882
-0.004066
-0.040154
-0.018750
-0.013778
-0.011739
-0.041656
-0.020159
-0.026186
-0.042250
-0.041191
-0.034924
-0.045400
-0.042603
-0.041812
-0.002792
-0.041810
-0.041747
-0.018814
-0.035096
-0.039462
-0.003632
-0.029231
-0.040599
-0.028798
-0.015574
-0.014043
-0.006429
-0.005489
-0.003194
-0.036046
-0.003239
-0.021414
-0.039179
-0.007368
-0.020406
-0.019511
-0.011475
-0.038700
-0.009625
-0.044011
-0.018949
-0.017623
-0.025322
-0.024585
-0.016751
-0.043495
-0.006840
-0.028790
-0.014991
-0.034055
-0.004546
-0.040002
-0.046508
-0.003134
-0.008581
-0.047968
-0.006408
-0.038104
-0.041561
-0.016571
-0.009920
-0.009002
-0.005437
-0.004571
-0.021025
-0.022322
-0.012412
-0.024140
-0.029948
-0.017904
-0.003141
-0.022844
-0.028359
-0.006445
-0.005895
-0.040801
-0.046997
-0.042371
-0.035071
-0.025260
-0.047201
-0.015114
-0.003642
-0.033971
-0.026246
-0.006884
-0.030602
-0.006789
-0.006832
-0.050843
-0.019706
-0.008138
-0.008193
-0.031998
-0.046170
-0.053044
-0.052924
-0.052872
-0.013239
-0.030545
-0.031480
-0.009178
-0.023370
-0.022183
-0.021554
-0.007747
-0.040792
-0.016559
-0.045655
-0.021779
-0.043855
-0.030101
-0.013781
-0.048198
-0.008133
-0.012276
-0.042818
-0.003138
-0.010565
-0.026993
-0.006258
-0.002738
-0.035421
-0.010587
-0.040873
-0.037388
-0.000284
-0.010889
-0.038418
-0.009198
-0.037606
-0.034528
-0.005479
-0.047798
-0.034541
-0.002233
-0.032893
-0.008084
-0.039526
-0.021792
-0.043382
-0.045640
-0.043097
-0.050358
-0.004038
-0.033089
-0.044665
-0.006839
-0.004986
-0.033515
-0.004543
-0.010020
-0.028546
-0.052912
-0.052857
-0.017435
-0.030991
-0.017605
-0.012998
-0.031625
-0.036266
-0.043299
-0.003213
-0.038599
-0.037983
-0.039871
-0.052947
-0.016501
-0.025182
-0.047908
-0.045255
-0.027571
-0.005387
-0.016984
-0.011217
-0.030146
-0.028071
-0.031688
-0.028784
-0.046597
-0.011665
-0.021849
-0.030360
-0.046985
-0.034691
-0.009624
-0.036174
-0.009556
-0.026747
-0.042926
-0.043214
-0.004139
-0.030312
-0.033070
-0.033995
-0.053046
-0.052792
-0.023614
-0.020094
-0.019076
-0.018044
-0.052057
-0.048590
-0.032632
-0.002280
-0.022259
-0.034423
-0.016081
-0.008286
-0.009908
-0.027930
-0.026773
-0.030231
-0.005493
-0.005532
-0.034327
-0.005944
-0.016552
-0.011254
-0.020680
-0.040275
-0.045255
-0.039720
-0.036539
-0.009589
-0.039997
-0.028817
-0.019225
-0.006447
-0.032021
-0.026013
-0.023428
-0.050089
-0.032955
-0.033508
-0.007185
-0.018915
-0.027090
-0.049498
-0.025328
-0.016360
-0.013146
-0.006366
-0.050486
-0.008661
-0.037744
-0.050736
-0.011784
-0.034617
-0.020579
-0.001434
-0.017269
-0.001325
-0.001842
-0.037359
-0.005886
-0.041292
-0.005892
-0.040979
-0.025030
-0.040457
-0.042457
-0.033198
-0.046167
-0.004996
-0.044826
-0.049642
-0.033156
-0.029100
-0.019428
-0.032831
-0.027059
-0.026587
-0.044606
-0.042858
-0.039151
-0.043662
-0.042003
-0.048931
-0.045754
-0.037337
-0.034768
-0.052652
-0.031960
-0.018473
-0.043340
-0.044224
-0.045674
-0.046018
-0.027780
-0.004621
-0.005484
-0.031040
-0.041066
-0.050598
-0.020743
-0.008615
-0.001438
-0.033037
-0.033030
-0.034270
-0.034391
-0.027067
-0.008238
-0.022924
-0.036492
-0.027036
-0.028376
-0.032815
-0.030711
-0.032328
-0.042787
-0.042207
-0.032745
-0.045797
-0.033552
-0.035496
-0.033357
-0.027144
-0.028832
-0.038234
-0.025750
-0.048082
-0.040003
-0.035587
-0.028346
-0.042834
-0.031432
-0.037058
-0.007291
-0.032776
-0.028226
-0.032001
-0.044749
-0.033460
-0.027836
-0.044404
-0.041946
-0.028747
-0.034276
-0.045696
-0.036850
-0.036082
-0.034284
-0.029479
-0.029931
-0.028347
-0.034007
-0.040765
-0.035898
-0.037229
-0.031086
-0.031980
-0.033538
-0.047408
-0.036302
-0.027126
-0.037327
-0.028759
-0.045168
-0.031956
-0.034934
-0.026277
-0.046817
-0.035949
-0.035002
-0.010074
-0.038417
-0.034391
-0.010085
-0.046343
-0.019272
-0.042439
-0.046044
-0.046524
-0.035686
-0.014383
-0.027939
-0.006814
-0.002281
-0.040194
-0.022855
-0.019706
-0.045650
-0.049959
-0.005959
-0.041205
-0.048214
-0.051798
-0.010086
-0.014749
-0.034061
-0.036135
-0.006297
-0.007684
-0.003240
-0.007814
-0.035586
-0.036268
-0.001854
-0.031906
-0.008741
-0.001371
-0.034532
-0.009578
-0.006450
-0.049391
-0.016452
-0.019027
-0.015698
-0.018717
-0.049565
-0.021892
-0.014095
-0.020766
-0.042299
-0.039288
-0.049633
-0.042321
-0.048693
-0.011379
-0.051439
-0.028001
-0.013800
-0.008585
-0.019910
-0.005937
-0.020076
-0.032658
-0.042985
-0.006381
-0.044198
-0.039600
-0.023479
-0.010808
-0.037359
-0.045499
-0.034501
-0.049378
-0.001466
-0.026077
-0.037709
-0.005399
-0.035616
-0.051374
-0.005435
-0.024553
-0.034888
-0.028313
-0.028316
-0.011842
-0.041498
-0.027819
-0.029024
-0.001399
-0.030146
-0.011880
-0.048027
-0.030680
-0.031997
-0.038556
-0.005914
-0.019176
-0.007235
-0.041688
-0.009511
-0.033150
-0.028330
-0.052057
-0.000263
-0.047006
-0.047891
-0.049037
-0.022782
-0.022338
-0.051181
-0.012748
-0.010838
-0.010090
-0.045658
-0.019690
-0.029045
-0.041281
-0.039450
-0.034663
-0.043097
-0.032592
-0.026640
-0.052736
-0.052249
-0.031895
-0.013640
-0.004987
-0.020090
-0.023548
-0.023569
-0.024582
-0.042387
-0.012606
-0.033597
-0.001402
-0.004689
-0.000262
-0.043104
-0.040183
-0.011663
-0.035223
-0.040832
-0.006909
-0.031018
-0.014578
-0.030975
-0.027842
-0.006376
-0.034138
-0.002753
-0.031384
-0.032077
-0.006849
-0.030790
-0.023619
-0.001404
-0.008245
-0.013761
-0.022280
-0.042528
-0.014783
-0.000251
-0.000240
-0.049633
-0.050527
-0.043712
-0.005881
-0.011865
-0.006366
-0.014924
-0.000250
-0.005838
-0.043353
-0.002301
-0.001341
-0.033899
-0.050374
-0.014566
-0.035631
-0.040154
-0.008257
-0.009523
-0.051683
-0.006437
-0.040066
-0.019559
-0.013750
-0.002664
-0.009378
-0.031969
-0.041729
-0.042667
-0.015841
-0.042886
-0.017551
-0.050755
-0.042834
-0.051881
-0.042013
-0.043056
-0.031304
-0.032352
-0.040761
-0.029610
-0.043442
-0.011732
-0.043308
-0.025643
-0.003168
-0.005460
-0.033070
-0.027262
-0.043529
-0.006404
-0.014859
-0.044591
-0.041064
-0.011723
-0.043380
-0.048798
-0.023619
-0.040395
-0.028294
-0.041433
-0.045650
-0.049710
-0.001825
-0.041646
-0.050767
-0.012145
-0.037287
-0.007308
-0.041796
-0.005940
-0.023781
-0.041413
-0.042612
-0.014554
-0.051972
-0.027101
-0.005441
-0.005019
-0.003189
-0.008637
-0.014500
-0.046493
-0.049442
-0.044695
-0.036090
-0.040871
-0.026495
-0.028788
-0.052900
-0.030189
-0.006362
-0.012618
-0.004568
-0.035803
-0.005472
-0.032570
-0.003184
-0.024079
-0.032773
-0.038364
-0.002797
-0.021810
-0.013115
-0.018368
-0.026199
-0.007592
-0.026556
-0.012777
-0.010953
-0.042130
-0.007843
-0.020836
-0.036252
-0.019202
-0.046654
-0.029831
-0.050945
-0.014404
-0.037235
-0.028994
-0.040505
-0.019304
-0.000252
-0.045599
-0.044905
-0.047692
-0.022412
-0.006904
-0.009932
-0.045357
-0.000309
-0.010546
-0.047571
-0.048961
-0.029341
-0.050652
-0.011927
-0.016579
-0.016578
-0.041119
-0.003606
-0.039067
-0.008647
-0.004579
-0.027729
-0.022885
-0.037741
-0.004096
-0.004488
-0.007248
-0.036250
-0.042757
-0.028308
-0.004595
-0.024017
-0.009993
-0.028635
-0.015766
-0.025562
-0.039649
-0.005916
-0.045281
-0.047001
-0.038207
-0.048772
-0.021457
-0.032580
-0.013197
-0.006842
-0.006387
-0.050379
-0.003133
-0.020704
-0.008672
-0.014835
-0.005059
-0.016321
-0.021827
-0.050403
-0.034341
-0.003614
-0.014892
-0.046579
-0.017097
-0.003208
-0.008600
-0.033083
-0.051882
-0.010506
-0.005979
-0.015772
-0.051798
-0.016611
-0.015257
-0.046039
-0.011944
-0.014897
-0.010033
-0.042317
-0.017302
-0.032290
-0.015663
-0.005955
-0.000249
-0.030090
-0.016549
-0.020312
-0.043328
-0.007323
-0.004985
-0.025332
-0.041980
-0.034300
-0.009927
-0.014827
-0.002751
-0.051692
-0.021090
-0.038578
-0.008546
-0.040152
-0.031973
-0.033909
-0.014862
-0.004486
-0.011833
-0.013889
-0.004487
-0.008587
-0.022455
-0.021116
-0.039099
-0.018419
-0.051333
-0.004940
-0.050476
-0.020913
-0.014616
-0.013629
-0.046833
-0.005532
-0.018751
-0.011421
-0.003179
-0.011881
-0.040621
-0.014195
-0.013168
-0.041192
-0.016928
-0.021835
-0.046114
-0.004487
-0.047408
-0.012247
-0.046039
-0.010486
-0.022441
-0.029073
-0.003196
-0.021860
-0.018436
-0.044589
-0.022575
-0.014704
-0.013651
-0.016816
-0.015506
-0.015426
-0.020463
-0.040839
-0.013189
-0.004946
-0.025255
-0.025118
-0.016535
-0.013496
-0.011850
-0.007238
-0.016134
-0.012295
-0.020771
-0.003215
-0.011508
-0.010455
-0.033930
-0.035270
-0.040023
-0.017492
-0.011788
-0.010546
-0.022755
-0.017877
-0.022834
-0.009572
-0.007368
-0.024961
-0.025979
-0.024644
-0.017816
-0.015644
-0.040029
-0.034837
-0.024953
-0.014193
-0.009934
-0.035728
-0.011269
-0.011430
-0.043825
-0.022184
-0.004533
-0.046929
-0.019410
-0.017662
-0.037061
-0.022305
-0.023507
-0.045322
-0.008642
-0.023226
-0.043777
-0.017235
-0.008666
-0.007704
-0.037216
-0.029113
-0.040395
-0.011450
-0.006345
-0.008244
-0.012312
-0.011443
-0.016687
-0.009642
-0.024441
-0.035377
-0.022254
-0.036955
-0.043283
-0.031938
-0.021325
-0.047843
-0.033310
-0.041970
-0.009101
-0.007233
-0.007730
-0.028858
-0.011752
-0.005445
-0.047742
-0.050742
-0.029764
-0.036015
-0.021740
-0.034725
-0.036308
-0.032058
-0.030539
-0.009154
-0.008116
-0.008106
-0.035567
-0.005843
-0.029222
-0.011222
-0.015257
-0.005533
-0.005527
-0.004971
-0.017941
-0.042036
-0.029694
-0.005467
-0.029069
-0.022811
-0.025379
-0.041832
-0.038110
-0.049612
-0.048590
-0.034250
-0.034128
-0.007686
-0.034930
-0.024049
-0.040044
-0.039678
-0.011329
-0.035157
-0.027952
-0.032869
-0.031621
-0.004577
-0.008216
-0.008212
-0.004114
-0.037288
-0.030248
-0.030732
-0.036955
-0.007752
-0.025048
-0.025815
-0.003147
-0.001807
-0.040275
-0.023288
-0.037470
-0.002303
-0.003215
-0.001832
-0.031105
-0.031130
-0.032832
-0.005001
-0.034960
-0.042457
-0.006739
-0.037180
-0.034532
-0.013081
-0.028821
-0.007323
-0.012198
-0.034097
-0.030212
-0.035179
-0.002286
-0.034486
-0.023701
-0.035642
-0.032495
-0.002301
-0.040133
-0.012223
-0.004995
-0.006357
-0.012557
-0.027309
-0.007272
-0.015288
-0.015673
-0.008133
-0.006819
-0.042825
-0.009907
-0.032716
-0.044670
-0.034785
-0.028342
-0.031579
-0.004081
-0.022254
-0.014449
-0.028771
-0.043234
-0.047548
-0.041474
-0.004093
-0.009876
-0.044128
-0.015746
-0.048158
-0.001351
-0.001340
-0.023489
-0.009496
-0.051642
-0.046129
-0.004488
-0.003673
-0.032828
-0.039590
-0.031242
-0.034494
-0.048923
-0.040197
-0.050219
-0.036631
-0.026987
-0.026694
-0.051793
-0.028806
-0.022312
-0.042451
-0.034859
-0.035188
-0.012407
-0.028976
-0.036237
-0.020093
-0.035157
-0.050820
-0.006387
-0.004093
-0.031870
-0.050418
-0.008618
-0.037388
-0.044498
-0.010521
-0.045400
-0.022884
-0.016542
-0.036044
-0.035928
-0.041582
-0.036767
-0.035640
-0.041801
-0.002793
-0.050571
-0.047160
-0.043379
-0.031917
-0.029326
-0.003608
-0.027911
-0.041807
-0.033418
-0.032537
-0.039702
-0.024943
-0.050519
-0.028467
-0.009024
-0.047684
-0.021422
-0.007777
-0.009971
-0.046993
-0.010825
-0.005955
-0.040129
-0.003195
-0.045227
-0.035504
-0.046493
-0.047844
-0.016067
-0.035667
-0.050063
-0.032983
-0.044909
-0.047240
-0.048150
-0.005437
-0.049007
-0.045448
-0.002795
-0.046465
-0.005752
-0.022766
-0.041461
-0.017538
-0.051704
-0.029767
-0.017968
-0.044642
-0.028433
-0.008689
-0.031937
-0.017068
-0.029047
-0.033420
-0.005057
-0.028363
-0.051539
-0.031917
-0.031909
-0.012421
-0.008739
-0.007802
-0.020284
-0.050488
-0.012616
-0.002680
-0.030120
-0.049076
-0.006738
-0.041324
-0.048526
-0.039405
-0.047011
-0.051368
-0.046603
-0.042407
-0.039388
-0.018941
-0.001896
-0.007258
-0.036985
-0.040336
-0.037606
-0.003253
-0.043135
-0.044191
-0.045940
-0.045903
-0.040761
-0.009529
-0.005909
-0.049403
-0.045049
-0.031156
-0.048837
-0.013199
-0.043828
-0.023672
-0.048882
-0.043171
-0.009048
-0.035867
-0.005925
-0.041928
-0.042702
-0.021433
-0.044683
-0.029069
-0.046725
-0.041860
-0.001334
-0.042813
-0.029264
-0.034798
-0.042172
-0.032104
-0.049624
-0.020474
-0.025023
-0.030986
-0.034439
-0.044711
-0.002687
-0.045909
-0.004116
-0.009928
-0.016609
-0.024370
-0.021877
-0.028994
-0.006794
-0.006372
-0.042174
-0.005440
-0.045577
-0.011002
-0.028591
-0.020169
-0.050342
-0.003145
-0.044577
-0.040508
-0.006814
-0.010178
-0.049454
-0.028660
-0.010079
-0.029126
-0.044632
-0.004530
-0.016699
-0.037190
-0.027371
-0.012312
-0.009056
-0.044525
-0.006409
-0.005477
-0.003132
-0.004158
-0.005020
-0.030207
-0.031653
-0.031509
-0.009949
-0.003636
-0.007315
-0.005913
-0.006747
-0.025627
-0.040905
-0.025027
-0.010846
-0.012362
-0.042283
-0.048198
-0.045909
-0.042382
-0.050444
-0.033676
-0.042886
-0.008700
-0.014459
-0.012766
-0.031575
-0.021705
-0.046644
-0.029556
-0.002284
-0.011890
-0.041798
-0.050724
-0.049285
-0.028568
-0.051745
-0.050623
-0.033547
-0.036082
-0.015985
-0.035739
-0.031159
-0.047472
-0.040953
-0.004535
-0.043845
-0.042899
-0.043390
-0.004082
-0.042123
-0.034282
-0.023304
-0.028929
-0.025055
-0.044265
-0.027930
-0.041706
-0.007812
-0.027483
-0.036175
-0.040109
-0.019008
-0.009629
-0.036679
-0.036454
-0.023807
-0.036841
-0.030643
-0.036796
-0.017749
-0.004117
-0.044668
-0.028158
-0.016257
-0.013518
-0.028002
-0.042209
-0.049559
-0.010789
-0.043196
-0.021590
-0.039190
-0.036441
-0.030891
-0.033847
-0.031164
-0.030151
-0.040835
-0.049502
-0.026166
-0.047390
-0.033228
-0.032760
-0.031462
-0.037758
-0.026060
-0.037076
-0.048150
-0.039875
-0.030630
-0.028164
-0.028523
-0.006389
-0.034487
-0.034045
-0.034465
-0.021817
-0.027348
-0.041062
-0.032099
-0.046122
-0.038278
-0.028759
-0.028412
-0.029507
-0.032716
-0.031401
-0.036010
-0.031658
-0.032133
-0.046129
-0.016603
-0.048026
-0.014383
-0.045641
-0.013940
-0.035297
-0.016656
-0.045423
-0.034367
-0.037758
-0.041974
-0.039938
-0.043537
-0.032092
-0.036726
-0.001386
-0.031727
-0.033409
-0.040798
-0.025386
-0.034487
-0.036846
-0.051273
-0.029080
-0.032082
-0.049806
-0.002742
-0.033749
-0.015410
-0.004552
-0.042837
-0.006741
-0.016626
-0.002708
-0.045548
-0.029527
-0.025698
-0.051789
-0.034948
-0.004611
-0.049501
-0.015903
-0.031628
-0.046839
-0.009563
-0.046572
-0.050784
-0.028055
-0.052016
-0.036403
-0.006374
-0.043305
-0.045699
-0.042907
-0.017252
-0.040999
-0.038545
-0.010061
-0.049380
-0.047339
-0.037619
-0.029047
-0.040985
-0.020127
-0.029053
-0.044738
-0.024990
-0.031752
-0.045946
-0.005865
-0.013071
-0.003600
-0.049793
-0.036721
-0.032944
-0.045528
-0.046727
-0.015369
-0.037983
-0.045662
-0.043532
-0.040985
-0.007825
-0.040963
-0.042958
-0.019272
-0.027598
-0.004051
-0.047826
-0.022731
-0.002246
-0.001387
-0.033914
-0.033630
-0.016975
-0.009619
-0.032339
-0.044270
-0.031590
-0.051315
-0.004072
-0.029024
-0.029497
-0.013939
-0.044627
-0.011778
-0.015004
-0.050039
-0.006026
-0.000205
-0.026524
-0.049525
-0.014239
-0.017265
-0.042116
-0.015369
-0.011873
-0.042211
-0.046416
-0.048958
-0.033297
-0.041863
-0.006376
-0.001814
-0.027640
-0.043400
-0.019168
-0.045513
-0.037087
-0.049664
-0.001399
-0.045855
-0.043034
-0.018567
-0.046310
-0.042909
-0.017864
-0.037027
-0.016231
-0.010773
-0.043723
-0.018308
-0.034791
-0.042893
-0.041143
-0.042930
-0.015269
-0.037131
-0.045152
-0.037299
-0.012625
-0.014776
-0.003133
-0.047698
-0.010405
-0.044668
-0.023281
-0.043489
-0.023460
-0.025087
-0.045047
-0.007286
-0.007242
-0.042918
-0.049830
-0.049403
-0.035189
-0.014604
-0.031444
-0.008152
-0.007638
-0.036568
-0.013961
-0.042806
-0.002291
-0.047387
-0.004038
-0.044549
-0.011219
-0.039371
-0.035648
-0.034117
-0.032129
-0.031979
-0.030137
-0.001832
-0.034774
-0.038196
-0.006408
-0.044259
-0.040401
-0.019453
-0.035767
-0.007281
-0.003132
-0.023638
-0.010127
-0.002278
-0.048974
-0.015969
-0.018353
-0.050942
-0.048503
-0.027284
-0.025087
-0.034936
-0.028231
-0.004592
-0.044712
-0.004035
-0.008589
-0.049669
-0.022306
-0.002770
-0.029996
-0.049385
-0.007243
-0.027302
-0.003696
-0.045935
-0.046465
-0.005474
-0.004589
-0.021525
-0.045797
-0.025113
-0.018105
-0.006893
-0.016214
-0.012381
-0.016390
-0.018029
-0.000204
-0.015426
-0.018988
-0.006370
-0.034756
-0.050827
-0.015709
-0.020657
-0.048850
-0.016854
-0.021784
-0.024394
-0.041783
-0.016087
-0.013907
-0.030241
-0.032060
-0.028808
-0.028147
-0.002680
-0.006398
-0.004571
-0.020990
-0.042677
-0.008642
-0.045039
-0.021416
-0.042910
-0.049709
-0.019351
-0.035581
-0.042133
-0.010542
-0.020998
-0.021534
-0.004937
-0.017832
-0.013662
-0.021912
-0.042799
-0.012206
-0.012707
-0.015068
-0.013102
-0.011829
-0.048753
-0.013318
-0.010945
-0.048351
-0.018338
-0.046971
-0.050439
-0.011820
-0.010913
-0.010448
-0.004938
-0.023725
-0.011320
-0.008649
-0.041433
-0.007709
-0.045268
-0.041984
-0.009971
-0.023358
-0.012787
-0.012757
-0.035210
-0.034736
-0.042613
-0.024927
-0.024994
-0.023049
-0.013683
-0.013220
-0.008559
-0.011299
-0.037168
-0.041767
-0.019047
-0.023145
-0.044194
-0.014201
-0.010474
-0.016790
-0.022724
-0.015437
-0.019031
-0.046171
-0.043731
-0.008620
-0.012606
-0.015544
-0.036719
-0.007782
-0.036400
-0.034496
-0.003664
-0.022289
-0.044276
-0.034666
-0.007241
-0.013081
-0.014365
-0.014429
-0.004527
-0.005959
-0.019317
-0.029294
-0.029738
-0.024413
-0.038477
-0.003185
-0.005992
-0.002689
-0.037616
-0.035153
-0.007643
-0.013443
-0.026159
-0.009879
-0.008537
-0.026374
-0.011707
-0.025473
-0.025282
-0.002242
-0.002708
-0.017994
-0.016656
-0.041423
-0.007242
-0.013052
-0.029990
-0.007357
-0.005001
-0.001411
-0.009430
-0.023516
-0.015214
-0.005848
-0.029014
-0.037806
-0.035025
-0.049652
-0.017566
-0.011269
-0.004946
-0.033470
-0.033608
-0.021567
-0.029477
-0.012669
-0.033959
-0.005048
-0.010374
-0.009031
-0.003678
-0.024822
-0.009959
-0.030074
-0.030491
-0.036642
-0.004122
-0.009500
-0.049469
-0.047374
-0.011468
-0.000239
-0.016593
-0.032600
-0.003179
-0.004549
-0.010127
-0.016382
-0.008610
-0.045904
-0.005873
-0.038252
-0.041994
-0.046259
-0.050506
-0.051502
-0.029374
-0.006440
-0.005002
-0.038703
-0.025536
-0.031415
-0.034475
-0.049324
-0.043012
-0.045943
-0.044454
-0.027788
-0.028338
-0.043877
-0.051185
-0.048629
-0.034216
-0.001442
-0.031946
-0.044750
-0.049525
-0.041168
-0.048229
-0.026107
-0.021047
-0.030348
-0.029907
-0.043843
-0.004036
-0.035125
-0.034496
-0.029477
-0.019604
-0.009914
-0.042569
-0.000203
-0.046337
-0.041321
-0.020484
-0.040502
-0.011470
-0.036156
-0.050323
-0.047731
-0.031496
-0.015874
-0.015918
-0.042483
-0.009583
-0.026224
-0.014568
-0.007732
-0.049183
-0.044723
-0.052211
-0.040695
-0.031230
-0.046515
-0.023549
-0.024506
-0.008102
-0.042479
-0.005985
-0.005405
-0.011306
-0.019328
-0.046277
-0.034053
-0.007636
-0.006440
-0.023770
-0.015248
-0.041952
-0.038131
-0.017712
-0.040427
-0.039701
-0.043397
-0.049037
-0.049353
-0.025276
-0.043836
-0.017197
-0.043495
-0.050637
-0.044493
-0.029608
-0.004533
-0.004139
-0.004937
-0.022144
-0.007658
-0.002799
-0.005415
-0.049609
-0.039190
-0.006323
-0.044011
-0.042616
-0.032104
-0.020986
-0.049130
-0.049652
-0.036438
-0.013693
-0.023628
-0.024388
-0.029397
-0.048972
-0.050910
-0.015814
-0.007294
-0.051610
-0.030845
-0.048990
-0.040530
-0.009953
-0.021111
-0.013359
-0.048150
-0.009971
-0.035089
-0.035554
-0.045010
-0.034888
-0.018300
-0.045135
-0.013496
-0.029556
-0.003222
-0.011294
-0.047810
-0.047652
-0.032933
-0.035520
-0.040123
-0.047420
-0.046609
-0.052165
-0.015777
-0.005913
-0.012565
-0.026786
-0.051573
-0.034107
-0.046089
-0.020952
-0.009622
-0.009620
-0.011971
-0.011739
-0.016878
-0.016009
-0.002700
-0.032790
-0.025701
-0.006863
-0.048625
-0.040149
-0.011858
-0.017374
-0.022507
-0.017714
-0.038197
-0.024158
-0.007688
-0.034691
-0.034448
-0.047261
-0.010853
-0.034938
-0.031519
-0.031415
-0.020244
-0.017435
-0.009624
-0.029961
-0.045134
-0.050279
-0.010895
-0.047490
-0.048127
-0.003187
-0.023779
-0.003667
-0.010771
-0.001577
-0.010374
-0.018299
-0.011274
-0.007761
-0.018178
-0.031460
-0.021003
-0.032584
-0.031729
-0.011455
-0.039993
-0.037093
-0.035114
-0.046084
-0.041285
-0.035179
-0.030514
-0.021894
-0.005937
-0.048760
-0.050941
-0.033506
-0.026576
-0.026420
-0.010841
-0.005419
-0.050395
-0.027326
-0.029990
-0.022237
-0.019490
-0.032644
-0.034702
-0.035154
-0.038792
-0.032004
-0.039993
-0.033518
-0.026615
-0.042461
-0.037359
-0.004084
-0.036074
-0.025620
-0.026872
-0.028093
-0.030340
-0.030845
-0.027640
-0.027964
-0.032605
-0.029536
-0.032022
-0.034346
-0.006898
-0.008737
-0.005449
-0.035031
-0.034472
-0.039997
-0.042799
-0.040574
-0.022817
-0.027706
-0.022220
-0.029497
-0.033997
-0.046998
-0.047018
-0.015017
-0.037134
-0.005918
-0.022680
-0.005950
-0.047968
-0.003623
-0.051242
-0.013891
-0.036648
-0.044882
-0.011355
-0.041801
-0.008734
-0.004944
-0.021436
-0.005016
-0.034938
-0.043529
-0.028834
-0.040365
-0.029105
-0.013680
-0.036533
-0.014964
-0.029766
-0.036456
-0.007195
-0.044670
-0.021502
-0.005979
-0.006866
-0.028949
-0.051325
-0.020538
-0.047571
-0.048351
-0.001050
-0.033037
-0.032523
-0.050907
-0.024422
-0.027013
-0.041161
-0.031612
-0.012336
-0.047847
-0.041833
-0.004991
-0.031946
-0.010945
-0.009513
-0.010073
-0.003596
-0.035022
-0.039538
-0.037287
-0.045064
-0.036746
-0.044117
-0.014977
-0.034542
-0.039494
-0.041827
-0.049336
-0.048292
-0.019663
-0.017596
-0.031600
-0.011498
-0.012607
-0.049559
-0.042656
-0.044244
-0.001328
-0.046353
-0.004575
-0.002727
-0.007644
-0.042997
-0.007735
-0.016104
-0.006788
-0.017781
-0.051364
-0.048462
-0.048935
-0.031838
-0.043737
-0.027986
-0.029736
-0.049878
-0.051754
-0.011929
-0.052016
-0.033088
-0.050085
-0.050629
-0.023003
-0.050946
-0.049059
-0.028996
-0.016914
-0.050019
-0.012554
-0.008233
-0.014910
-0.047016
-0.005508
-0.029446
-0.018528
-0.046086
-0.019290
-0.031538
-0.018489
-0.034374
-0.003225
-0.050135
-0.018122
-0.049417
-0.018363
-0.029694
-0.047620
-0.048829
-0.046487
-0.011494
-0.029631
-0.002752
-0.011919
-0.014915
-0.044797
-0.015492
-0.024355
-0.032477
-0.021203
-0.014952
-0.036369
-0.047956
-0.015959
-0.001825
-0.012737
-0.049633
-0.034775
-0.015568
-0.026038
-0.017027
-0.025060
-0.047392
-0.018468
-0.008243
-0.040623
-0.004571
-0.004091
-0.012767
-0.012767
-0.047549
-0.029587
-0.004545
-0.033766
-0.011345
-0.005842
-0.022860
-0.009549
-0.010421
-0.015017
-0.010929
-0.010547
-0.012814
-0.011732
-0.020121
-0.022860
-0.011379
-0.011971
-0.026456
-0.051201
-0.013702
-0.027506
-0.045946
-0.026580
-0.040679
-0.041494
-0.010904
-0.039702
-0.036360
-0.043092
-0.025645
-0.024374
-0.010547
-0.012188
-0.008166
-0.026841
-0.005490
-0.003185
-0.003626
-0.005992
-0.005229
-0.009044
-0.028691
-0.046801
-0.011700
-0.046745
-0.025017
-0.015698
-0.017976
-0.005524
-0.004996
-0.005013
-0.022273
-0.047436
-0.005460
-0.025907
-0.031255
-0.029575
-0.003598
-0.008982
-0.036149
-0.025496
-0.046018
-0.039671
-0.021909
-0.022859
-0.007290
-0.002794
-0.002795
-0.001850
-0.015346
-0.030403
-0.003210
-0.028665
-0.045103
-0.033007
-0.006423
-0.006393
-0.008230
-0.008691
-0.007688
-0.035599
-0.032983
-0.021090
-0.049586
-0.025503
-0.026385
-0.005990
-0.030211
-0.029150
-0.019752
-0.006442
-0.025686
-0.027056
-0.030929
-0.010836
-0.006404
-0.035150
-0.034023
-0.005983
-0.015055
-0.012777
-0.001569
-0.034001
-0.017872
-0.003230
-0.018815
-0.010588
-0.040424
-0.049109
-0.046217
-0.051217
-0.048740
-0.004122
-0.032041
-0.052259
-0.033840
-0.049708
-0.015723
-0.034542
-0.045171
-0.030871
-0.028738
-0.013294
-0.015217
-0.013942
-0.031317
-0.050080
-0.009902
-0.004083
-0.044771
-0.048606
-0.014334
-0.051784
-0.029536
-0.003180
-0.008606
-0.044259
-0.025971
-0.025909
-0.050795
-0.031514
-0.039331
-0.050331
-0.041782
-0.021732
-0.027291
-0.007336
-0.035033
-0.034097
-0.045047
-0.005472
-0.018414
-0.018367
-0.035212
-0.012191
-0.013602
-0.049007
-0.030019
-0.051839
-0.006412
-0.035039
-0.039618
-0.045433
-0.050312
-0.049502
-0.018642
-0.001334
-0.044201
-0.018317
-0.003179
-0.030240
-0.047218
-0.047168
-0.039898
-0.042155
-0.045201
-0.032576
-0.014385
-0.050162
-0.047617
-0.007827
-0.045788
-0.004577
-0.006340
-0.009445
-0.037617
-0.021953
-0.018360
-0.037518
-0.023970
-0.034314
-0.051093
-0.015030
-0.018606
-0.018103
-0.041008
-0.050565
-0.021954
-0.046529
-0.009616
-0.020938
-0.050612
-0.021894
-0.052084
-0.047127
-0.040432
-0.051518
-0.045645
-0.002734
-0.049828
-0.023278
-0.034930
-0.004128
-0.013027
-0.021367
-0.049442
-0.024198
-0.050118
-0.039681
-0.047225
-0.043124
-0.043860
-0.016975
-0.047849
-0.006769
-0.008583
-0.036228
-0.030602
-0.034540
-0.006756
-0.013886
-0.029231
-0.040455
-0.003603
-0.031475
-0.022507
-0.036335
-0.045154
-0.031499
-0.043645
-0.011898
-0.045754
-0.002318
-0.046648
-0.046925
-0.031194
-0.039804
-0.034631
-0.026935
-0.024100
-0.001314
-0.003227
-0.037811
-0.043765
-0.037579
-0.043052
-0.014412
-0.046794
-0.005844
-0.045432
-0.030318
-0.043286
-0.050565
-0.030070
-0.031596
-0.034292
-0.036649
-0.048739
-0.030898
-0.030458
-0.032983
-0.033689
-0.033202
-0.028046
-0.045620
-0.034337
-0.034828
-0.038104
-0.033979
-0.026931
-0.029150
-0.004985
-0.033723
-0.035794
-0.029377
-0.007314
-0.038468
-0.037528
-0.048990
-0.021845
-0.014725
-0.006896
-0.010587
-0.042449
-0.013533
-0.040893
-0.029465
-0.031471
-0.024127
-0.003667
-0.015913
-0.021005
-0.022233
-0.030993
-0.023715
-0.022804
-0.045302
-0.051598
-0.000250
-0.003598
-0.010536
-0.042985
-0.035143
-0.003644
-0.024564
-0.050358
-0.048711
-0.046974
-0.001044
-0.050235
-0.047894
-0.001894
-0.032040
-0.029126
-0.011413
-0.013758
-0.047652
-0.013249
-0.021835
-0.012610
-0.024140
-0.051928
-0.048681
-0.007638
-0.044354
-0.013124
-0.048083
-0.024097
-0.037975
-0.029527
-0.035359
-0.029307
-0.037556
-0.011329
-0.003589
-0.034812
-0.045227
-0.005045
-0.022305
-0.030055
-0.010455
-0.047620
-0.020373
-0.035724
-0.023245
-0.008183
-0.001383
-0.034120
-0.044712
-0.002736
-0.008074
-0.018160
-0.008534
-0.004049
-0.044527
-0.011278
-0.040262
-0.008157
-0.015304
-0.046806
-0.042522
-0.050517
-0.050495
-0.036060
-0.040494
-0.042653
-0.026515
-0.019707
-0.011972
-0.026038
-0.051325
-0.042692
-0.046422
-0.016685
-0.022534
-0.011311
-0.005922
-0.025782
-0.009931
-0.039771
-0.008271
-0.035154
-0.039801
-0.019752
-0.015666
-0.004987
-0.004555
-0.034043
-0.049198
-0.008236
-0.013218
-0.011973
-0.049037
-0.007677
-0.034043
-0.004037
-0.002744
-0.047457
-0.046629
-0.040786
-0.046954
-0.020978
-0.004938
-0.017481
-0.033718
-0.042480
-0.040152
-0.014404
-0.008655
-0.020222
-0.009956
-0.010525
-0.045995
-0.015637
-0.048239
-0.016699
-0.033788
-0.043851
-0.019511
-0.018904
-0.007368
-0.005039
-0.039675
-0.011778
-0.014114
-0.035236
-0.012316
-0.022306
-0.004085
-0.034776
-0.034389
-0.012307
-0.042713
-0.009513
-0.043924
-0.009099
-0.015481
-0.010013
-0.012138
-0.033742
-0.034977
-0.005485
-0.013050
-0.039330
-0.011675
-0.043941
-0.012831
-0.045150
-0.007785
-0.018122
-0.034851
-0.003132
-0.051365
-0.010832
-0.032921
-0.023511
-0.008148
-0.035172
-0.014807
-0.015766
-0.005440
-0.005516
-0.004117
-0.010771
-0.023580
-0.015276
-0.007683
-0.028477
-0.009879
-0.006743
-0.001790
-0.035157
-0.002779
-0.002788
-0.001357
-0.038300
-0.002696
-0.018317
-0.018752
-0.028456
-0.035209
-0.020657
-0.031524
-0.004502
-0.040701
-0.026957
-0.016218
-0.036934
-0.040798
-0.012665
-0.019389
-0.040046
-0.040558
-0.023307
-0.027729
-0.039448
-0.015720
-0.051586
-0.033277
-0.027288
-0.049353
-0.051604
-0.008092
-0.006393
-0.047420
-0.030098
-0.034134
-0.015755
-0.030403
-0.044517
-0.031628
-0.051818
-0.008230
-0.050089
-0.043133
-0.017444
-0.030539
-0.018743
-0.047447
-0.010588
-0.000203
-0.017470
-0.001847
-0.019348
-0.049935
-0.049986
-0.029608
-0.034836
-0.028207
-0.017930
-0.040483
-0.051043
-0.048125
-0.001311
-0.000183
-0.004530
-0.007319
-0.012727
-0.045756
-0.004543
-0.026841
-0.015723
-0.047158
-0.040093
-0.037806
-0.047234
-0.039823
-0.044986
-0.050474
-0.050135
-0.047589
-0.034398
-0.046797
-0.040687
-0.012897
-0.019453
-0.044947
-0.017945
-0.023019
-0.008997
-0.004968
-0.029583
-0.047450
-0.032565
-0.047434
-0.037514
-0.047007
-0.050506
-0.009481
-0.049649
-0.004100
-0.048526
-0.047352
-0.039623
-0.019186
-0.018929
-0.033652
-0.039949
-0.034826
-0.015302
-0.050956
-0.021639
-0.026804
-0.029610
-0.048568
-0.017930
-0.032599
-0.016375
-0.034736
-0.015424
-0.043959
-0.047294
-0.005989
-0.012303
-0.015017
-0.008227
-0.051692
-0.013479
-0.025212
-0.046954
-0.003670
-0.006874
-0.006787
-0.025430
-0.037728
-0.005949
-0.044625
-0.023664
-0.042133
-0.013560
-0.023618
-0.005971
-0.041009
-0.036175
-0.046565
-0.034585
-0.028028
-0.051510
-0.033716
-0.026880
-0.045965
-0.004099
-0.018373
-0.049126
-0.016641
-0.045192
-0.046919
-0.022696
-0.040391
-0.021843
-0.046299
-0.015680
-0.001829
-0.038206
-0.005388
-0.008620
-0.021550
-0.048004
-0.021658
-0.004060
-0.033618
-0.026433
-0.050474
-0.050523
-0.049953
-0.004114
-0.049658
-0.007326
-0.043114
-0.045577
-0.025859
-0.004990
-0.009882
-0.018528
-0.013937
-0.047810
-0.038349
-0.011784
-0.034283
-0.042867
-0.049979
-0.020336
-0.039719
-0.016200
-0.001879
-0.012598
-0.015270
-0.008111
-0.046983
-0.043460
-0.046752
-0.046369
-0.010544
-0.014004
-0.046516
-0.013731
-0.025351
-0.019238
-0.019826
-0.040008
-0.042969
-0.021886
-0.015176
-0.014393
-0.029356
-0.050327
-0.018547
-0.010006
-0.047460
-0.048887
-0.039969
-0.040121
-0.038725
-0.047885
-0.004095
-0.045789
-0.048933
-0.040819
-0.046997
-0.017075
-0.005929
-0.003181
-0.034352
-0.047006
-0.003649
-0.049466
-0.023937
-0.042616
-0.004486
-0.001408
-0.022830
-0.047427
-0.047578
-0.049625
-0.046419
-0.019389
-0.020559
-0.001827
-0.004985
-0.029653
-0.029053
-0.020495
-0.051745
-0.003173
-0.020920
-0.015324
-0.012343
-0.007785
-0.020529
-0.035500
-0.023954
-0.002683
-0.036799
-0.040053
-0.021892
-0.010006
-0.021712
-0.014592
-0.014142
-0.012707
-0.035467
-0.033583
-0.024169
-0.009563
-0.015335
-0.008626
-0.038244
-0.041602
-0.020763
-0.005481
-0.009929
-0.010085
-0.025282
-0.021860
-0.050422
-0.018470
-0.048991
-0.024388
-0.031282
-0.021052
-0.017924
-0.041446
-0.002693
-0.006793
-0.008986
-0.006740
-0.025643
-0.019186
-0.029562
-0.002271
-0.013960
-0.043504
-0.005454
-0.003211
-0.030489
-0.028963
-0.027727
-0.007259
-0.029242
-0.035642
-0.010795
-0.005402
-0.007209
-0.006393
-0.047551
-0.031929
-0.017422
-0.045643
-0.040023
-0.049378
-0.051466
-0.043488
-0.026862
-0.030668
-0.039198
-0.035502
-0.042462
-0.047227
-0.046726
-0.014459
-0.037686
-0.029683
-0.049986
-0.002290
-0.050543
-0.047894
-0.024003
-0.047824
-0.036639
-0.035562
-0.050291
-0.029852
-0.049655
-0.011230
-0.030375
-0.026311
-0.045598
-0.004574
-0.021034
-0.047408
-0.042726
-0.012898
-0.020243
-0.051921
-0.010395
-0.045577
-0.052057
-0.005482
-0.047925
-0.005923
-0.050102
-0.046668
-0.040391
-0.052167
-0.010795
-0.045555
-0.049225
-0.031489
-0.006332
-0.048897
-0.046457
-0.037654
-0.018766
-0.048198
-0.048416
-0.022755
-0.009043
-0.018787
-0.029744
-0.011469
-0.034389
-0.040701
-0.028410
-0.009941
-0.017932
-0.045758
-0.043088
-0.021167
-0.006384
-0.003133
-0.012555
-0.001885
-0.007732
-0.022101
-0.012607
-0.002240
-0.049216
-0.048335
-0.048082
-0.028806
-0.029631
-0.008550
-0.004999
-0.003698
-0.041159
-0.017881
-0.027763
-0.003139
-0.012660
-0.049895
-0.051637
-0.051574
-0.006787
-0.045537
-0.008696
-0.023931
-0.038703
-0.023509
-0.047957
-0.032697
-0.029782
-0.036078
-0.001324
-0.015607
-0.037648
-0.042577
-0.042866
-0.004075
-0.011362
-0.047460
-0.030785
-0.036434
-0.012784
-0.008982
-0.036504
-0.034828
-0.042174
-0.020180
-0.012998
-0.037359
-0.052569
-0.047358
-0.023946
-0.023594
-0.046843
-0.010063
-0.022341
-0.013178
-0.038741
-0.013471
-0.048734
-0.013995
-0.050179
-0.004499
-0.010586
-0.030016
-0.002681
-0.020836
-0.010327
-0.029078
-0.004553
-0.040383
-0.017087
-0.047641
-0.048251
-0.038705
-0.003593
-0.026269
-0.021047
-0.030963
-0.015384
-0.031901
-0.039942
-0.031100
-0.032959
-0.047826
-0.021479
-0.024420
-0.039192
-0.012432
-0.047872
-0.002731
-0.050257
-0.047980
-0.052444
-0.017480
-0.029080
-0.047431
-0.010828
-0.046672
-0.017466
-0.030545
-0.010978
-0.004595
-0.003240
-0.005405
-0.040451
-0.049653
-0.005002
-0.017538
-0.046123
-0.011023
-0.001781
-0.010533
-0.025671
-0.048345
-0.038774
-0.045037
-0.006353
-0.050569
-0.009661
-0.021240
-0.009963
-0.011824
-0.044723
-0.029587
-0.005390
-0.023488
-0.044224
-0.028857
-0.021408
-0.030458
-0.010545
-0.048441
-0.006840
-0.010862
-0.023223
-0.021862
-0.027266
-0.005438
-0.035215
-0.012351
-0.022361
-0.008245
-0.009018
-0.009081
-0.044642
-0.047408
-0.008279
-0.024940
-0.024477
-0.007205
-0.016659
-0.005923
-0.004527
-0.029288
-0.004958
-0.023954
-0.036866
-0.029639
-0.006304
-0.030294
-0.001449
-0.013499
-0.041203
-0.034747
-0.001834
-0.007770
-0.036932
-0.034781
-0.029100
-0.004097
-0.040521
-0.001829
-0.012652
-0.006823
-0.019889
-0.028317
-0.045554
-0.006405
-0.017858
-0.046393
-0.010122
-0.034337
-0.029668
-0.034467
-0.024066
-0.050150
-0.045652
-0.047392
-0.028779
-0.004144
-0.002326
-0.007727
-0.014798
-0.005854
-0.042172
-0.039827
-0.006429
-0.009613
-0.048996
-0.051785
-0.038686
-0.005469
-0.017031
-0.015746
-0.004084
-0.004042
-0.044765
-0.051549
-0.040218
-0.047455
-0.040550
-0.028813
-0.047060
-0.042656
-0.005006
-0.016337
-0.029283
-0.010822
-0.026802
-0.029746
-0.034611
-0.029266
-0.007704
-0.050643
-0.047387
-0.028879
-0.030097
-0.005929
-0.021523
-0.004548
-0.004502
-0.046968
-0.018510
-0.040401
-0.049635
-0.017422
-0.040003
-0.043370
-0.015214
-0.042207
-0.004119
-0.036564
-0.028798
-0.025720
-0.032879
-0.040083
-0.013020
-0.033565
-0.020806
-0.047455
-0.029673
-0.029599
-0.012395
-0.029631
-0.017891
-0.047348
-0.002322
-0.033590
-0.047844
-0.021758
-0.026425
-0.038845
-0.006815
-0.049084
-0.017872
-0.006802
-0.002288
-0.015175
-0.017503
-0.018353
-0.004069
-0.034717
-0.012377
-0.050474
-0.050368
-0.006307
-0.016186
-0.012395
-0.039943
-0.047859
-0.014872
-0.047464
-0.017040
-0.005511
-0.025036
-0.003620
-0.006412
-0.030065
-0.042355
-0.035088
-0.048837
-0.028834
-0.028963
-0.043510
-0.040683
-0.017028
-0.005009
-0.004534
-0.048995
-0.008286
-0.049299
-0.047423
-0.009653
-0.002682
-0.033263
-0.051992
-0.046322
-0.048239
-0.010125
-0.024570
-0.012707
-0.012616
-0.036507
-0.002765
-0.016059
-0.049236
-0.048961
-0.010871
-0.011510
-0.021224
-0.021781
-0.022720
-0.015384
-0.009099
-0.043714
-0.042029
-0.044107
-0.024100
-0.009024
-0.023568
-0.029158
-0.005933
-0.003654
-0.008135
-0.025681
-0.039282
-0.029650
-0.024556
-0.005873
-0.039340
-0.006384
-0.006854
-0.047310
-0.030955
-0.023071
-0.001782
-0.024571
-0.006419
-0.004078
-0.030043
-0.015641
-0.045555
-0.049655
-0.041190
-0.034415
-0.039600
-0.032944
-0.010539
-0.050491
-0.020280
-0.018804
-0.025928
-0.047251
-0.015679
-0.045960
-0.006836
-0.012865
-0.046544
-0.052471
-0.047879
-0.021590
-0.001361
-0.011338
-0.047885
-0.052413
-0.011931
-0.015666
-0.040200
-0.014751
-0.020743
-0.023888
-0.026900
-0.022662
-0.046539
-0.004125
-0.050204
-0.012676
-0.033546
-0.031578
-0.047849
-0.027770
-0.050083
-0.039595
-0.048340
-0.013750
-0.011949
-0.050219
-0.045207
-0.022768
-0.018804
-0.006351
-0.047873
-0.010999
-0.020296
-0.020268
-0.051903
-0.037704
-0.006806
-0.041108
-0.003647
-0.052617
-0.048459
-0.001845
-0.050203
-0.018389
-0.004044
-0.005843
-0.016614
-0.008274
-0.047843
-0.020943
-0.040523
-0.044007
-0.028241
-0.040389
-0.034398
-0.048344
-0.024044
-0.029332
-0.030569
-0.050089
-0.045150
-0.028808
-0.045113
-0.046022
-0.004535
-0.045656
-0.029690
-0.050764
-0.051977
-0.006370
-0.050667
-0.002730
-0.021600
-0.046846
-0.002736
-0.048830
-0.041490
-0.013891
-0.014711
-0.050242
-0.032895
-0.015814
-0.046392
-0.045183
-0.029707
-0.002729
-0.049210
-0.009485
-0.052985
-0.046843
-0.046847
-0.046415
-0.020976
-0.046160
-0.040942
-0.041321
-0.018743
-0.044222
-0.025859
-0.046076
-0.017932
-0.026441
-0.022817
-0.017494
-0.045113
-0.010569
-0.046630
-0.022414
-0.010120
-0.006289
-0.033933
-0.037307
-0.029128
-0.004998
-0.051832
-0.018752
-0.042355
-0.029507
-0.004108
-0.024551
-0.013560
-0.001324
-0.047390
-0.008286
-0.031294
-0.049707
-0.018470
-0.020776
-0.016112
-0.050174
-0.004487
-0.050282
-0.010539
-0.045478
-0.018871
-0.047872
-0.013074
-0.013690
-0.052176
-0.019786
-0.050461
-0.011461
-0.014566
-0.011972
-0.013743
-0.006341
-0.005929
-0.007708
-0.007253
-0.008596
-0.032160
-0.041952
-0.025942
-0.022716
-0.013061
-0.013506
-0.003236
-0.019348
-0.014903
-0.004051
-0.004949
-0.006806
-0.015758
-0.024530
-0.007235
-0.004133
-0.025255
-0.003696
-0.029171
-0.029073
-0.005462
-0.015212
-0.037702
-0.001377
-0.046396
-0.014449
-0.010413
-0.049805
-0.013788
-0.046559
-0.047427
-0.049190
-0.017924
-0.046007
-0.013447
-0.012435
-0.050406
-0.005466
-0.022276
-0.017628
-0.009664
-0.046325
-0.047443
-0.040568
-0.014847
-0.047404
-0.041178
-0.045943
-0.018005
-0.018864
-0.028288
-0.044539
-0.043893
-0.001370
-0.003644
-0.047270
-0.048254
-0.018508
-0.004586
-0.003189
-0.016170
-0.008087
-0.002681
-0.023080
-0.047436
-0.013051
-0.041794
-0.044021
-0.013448
-0.039438
-0.020088
-0.047535
-0.017580
-0.009985
-0.009075
-0.007255
-0.034500
-0.050729
-0.047434
-0.049336
-0.047443
-0.040542
-0.010579
-0.008570
-0.015720
-0.029937
-0.032397
-0.011511
-0.049750
-0.043513
-0.011371
-0.050415
-0.024521
-0.038734
-0.017475
-0.010573
-0.007305
-0.041963
-0.029546
-0.050019
-0.018789
-0.046441
-0.050564
-0.050306
-0.047900
-0.038576
-0.002727
-0.039634
-0.022293
-0.047905
-0.012395
-0.050058
-0.029217
-0.051369
-0.029149
-0.047351
-0.019368
-0.047859
-0.030206
-0.044746
-0.017588
-0.016784
-0.048933
-0.028336
-0.016161
-0.014978
-0.010124
-0.033125
-0.018437
-0.013580
-0.050306
-0.018844
-0.008244
-0.040786
-0.005888
-0.008245
-0.044295
-0.014470
-0.011046
-0.006792
-0.010841
-0.021277
-0.040093
-0.023621
-0.018969
-0.028905
-0.049309
-0.048306
-0.013886
-0.003244
-0.004103
-0.011226
-0.018299
-0.006858
-0.029192
-0.051370
-0.008285
-0.052976
-0.022222
-0.045091
-0.003244
-0.050457
-0.017037
-0.043106
-0.006796
-0.016979
-0.013081
-0.021795
-0.048310
-0.039637
-0.012994
-0.040134
-0.052383
-0.043987
-0.046983
-0.051415
-0.005451
-0.005971
-0.008534
-0.050243
-0.049314
-0.052284
-0.044444
-0.028430
-0.051158
-0.018328
-0.015267
-0.009659
-0.019785
-0.025396
-0.005900
-0.024787
-0.005839
-0.013594
-0.047618
-0.011750
-0.019828
-0.017977
-0.025718
-0.039657
-0.020774
-0.014712
-0.037709
-0.050269
-0.021600
-0.050269
-0.008981
-0.040074
-0.034711
-0.041531
-0.018036
-0.010582
-0.031353
-0.021848
-0.038719
-0.047422
-0.030071
-0.029255
-0.006760
-0.039823
-0.002778
-0.022199
-0.047779
-0.013155
-0.017186
-0.011724
-0.010463
-0.029169
-0.024355
-0.049759
-0.049929
-0.020350
-0.046163
-0.042992
-0.013950
-0.033442
-0.008286
-0.047221
-0.050753
-0.047803
-0.028929
-0.036406
-0.023527
-0.045730
-0.028501
-0.051365
-0.050515
-0.048995
-0.017492
-0.024061
-0.010529
-0.028709
-0.020306
-0.008615
-0.021390
-0.014667
-0.051785
-0.024064
-0.024537
-0.021792
-0.008583
-0.025251
-0.024088
-0.013995
-0.001390
-0.029210
-0.025080
-0.039070
-0.001348
-0.006336
-0.004084
-0.022901
-0.006295
-0.037209
-0.007635
-0.037338
-0.029230
-0.052442
-0.047300
-0.006384
-0.052211
-0.051683
-0.045656
-0.049860
-0.042783
-0.005516
-0.003629
-0.010111
-0.051365
-0.043534
-0.042798
-0.051935
-0.046454
-0.024974
-0.034693
-0.052497
-0.010421
-0.019389
-0.033406
-0.023140
-0.045699
-0.010115
-0.026346
-0.029227
-0.028506
-0.038085
-0.045009
-0.044220
-0.026728
-0.049417
-0.025648
-0.029187
-0.049844
-0.046170
-0.018878
-0.050332
-0.048798
-0.013051
-0.045969
-0.008586
-0.010118
-0.024854
-0.005042
-0.050900
-0.006338
-0.052114
-0.038686
-0.014848
-0.018427
-0.005051
-0.024098
-0.033901
-0.047901
-0.003694
-0.018345
-0.023630
-0.043859
-0.016139
-0.005523
-0.048523
-0.051630
-0.014836
-0.010083
-0.017939
-0.033441
-0.046422
-0.051042
-0.012856
-0.011927
-0.018311
-0.008106
-0.040197
-0.006822
-0.020312
-0.030611
-0.018360
-0.029718
-0.006849
-0.005904
-0.029639
-0.049778
-0.039462
-0.010080
-0.013900
-0.003662
-0.049470
-0.017904
-0.004592
-0.005012
-0.003132
-0.032332
-0.033618
-0.049077
-0.011932
-0.039827
-0.049664
-0.029203
-0.010569
-0.045255
-0.016196
-0.029721
-0.045516
-0.050492
-0.047158
-0.051549
-0.051736
-0.032959
-0.048838
-0.048180
-0.024987
-0.014103
-0.047896
-0.047882
-0.024490
-0.012857
-0.022647
-0.051268
-0.014153
-0.003179
-0.050389
-0.035705
-0.006778
-0.005045
-0.019405
-0.044794
-0.016207
-0.013291
-0.021199
-0.010561
-0.015279
-0.042599
-0.015745
-0.045278
-0.003631
-0.022939
-0.011973
-0.048158
-0.011973
-0.022086
-0.011044
-0.016214
-0.028271
-0.004110
-0.026423
-0.022496
-0.047113
-0.002781
-0.015315
-0.003645
-0.025006
-0.004589
-0.026384
-0.022468
-0.032529
-0.052167
-0.042580
-0.011464
-0.043333
-0.007662
-0.019365
-0.005514
-0.051722
-0.034831
-0.050881
-0.049554
-0.011931
-0.012665
-0.025782
-0.024571
-0.014438
-0.044832
-0.026649
-0.045599
-0.029595
-0.032460
-0.049858
-0.028917
-0.044176
-0.038777
-0.039125
-0.026395
-0.021747
-0.010576
-0.044016
-0.049263
-0.001328
-0.035683
-0.041191
-0.038268
-0.039120
-0.007301
-0.040441
-0.034857
-0.026421
-0.015358
-0.015801
-0.049380
-0.013115
-0.052202
-0.029240
-0.004562
-0.052113
-0.012394
-0.030701
-0.015639
-0.015216
-0.005438
-0.012727
-0.005436
-0.011337
-0.013711
-0.008564
-0.041336
-0.023050
-0.006827
-0.029255
-0.020751
-0.003187
-0.033054
-0.025982
-0.020766
-0.013097
-0.001333
-0.033981
-0.029697
-0.039184
-0.010071
-0.029733
-0.018728
-0.013496
-0.046055
-0.050444
-0.028786
-0.017471
-0.046478
-0.035321
-0.050794
-0.050800
-0.022441
-0.032539
-0.007783
-0.010067
-0.047065
-0.003675
-0.025459
-0.051217
-0.050666
-0.013135
-0.042822
-0.047447
-0.017812
-0.049964
-0.045234
-0.005858
-0.017542
-0.033927
-0.026686
-0.041205
-0.039539
-0.006345
-0.049736
-0.041423
-0.048667
-0.004999
-0.004136
-0.007824
-0.028011
-0.043527
-0.052027
-0.030432
-0.010521
-0.051158
-0.028771
-0.043306
-0.021192
-0.005054
-0.030624
-0.016149
-0.010104
-0.011004
-0.051264
-0.014381
-0.006810
-0.012435
-0.012390
-0.020707
-0.039207
-0.019428
-0.024593
-0.025957
-0.021203
-0.025498
-0.031520
-0.021639
-0.052123
-0.051744
-0.050837
-0.023538
-0.001836
-0.031439
-0.011969
-0.043924
-0.047322
-0.015314
-0.049945
-0.039545
-0.046727
-0.024100
-0.051776
-0.040111
-0.005437
-0.007258
-0.022702
-0.015680
-0.015290
-0.046839
-0.003692
-0.020767
-0.052173
-0.025815
-0.007821
-0.011504
-0.045626
-0.047372
-0.049523
-0.050702
-0.032812
-0.048567
-0.051998
-0.052992
-0.045433
-0.005926
-0.051300
-0.044446
-0.018902
-0.008238
-0.019866
-0.052192
-0.014287
-0.019839
-0.039661
-0.010996
-0.022158
-0.006792
-0.007263
-0.023987
-0.026411
-0.035324
-0.052137
-0.025573
-0.007785
-0.052279
-0.046647
-0.011932
-0.047806
-0.017033
-0.051484
-0.003652
-0.010529
-0.011466
-0.047758
-0.008230
-0.047548
-0.040200
-0.011042
-0.040101
-0.013884
-0.043855
-0.026457
-0.043184
-0.023063
-0.049633
-0.052542
-0.052192
-0.035384
-0.034893
-0.036315
-0.011741
-0.028136
-0.023565
-0.019359
-0.010533
-0.005846
-0.014892
-0.011035
-0.003234
-0.047640
-0.035242
-0.010536
-0.003642
-0.051681
-0.024519
-0.013105
-0.030993
-0.045823
-0.023087
-0.051124
-0.014826
-0.003683
-0.011321
-0.047724
-0.003647
-0.002788
-0.052181
-0.049817
-0.052624
-0.025286
-0.003193
-0.052102
-0.052604
-0.052341
-0.022967
-0.018008
-0.010077
-0.045992
-0.014416
-0.018936
-0.020680
-0.013052
-0.019835
-0.052259
-0.002229
-0.051447
-0.023331
-0.019325
-0.032204
-0.022560
-0.043497
-0.010582
-0.007683
-0.010992
-0.023157
-0.024089
-0.033515
-0.017067
-0.024228
-0.004093
-0.004546
-0.025439
-0.003248
-0.046538
-0.049525
-0.024982
-0.004543
-0.005394
-0.048433
-0.021164
-0.012417
-0.005890
-0.052957
-0.005885
-0.049718
-0.040819
-0.011039
-0.049633
-0.017970
-0.052561
-0.052350
-0.016672
-0.007782
-0.040188
-0.007826
-0.047206
-0.025363
-0.050432
-0.024953
-0.053007
-0.049438
-0.010573
-0.018898
-0.004148
-0.013186
-0.001788
-0.031979
-0.017417
-0.047798
-0.025950
-0.028879
-0.051793
-0.049215
-0.034240
-0.052358
-0.009031
-0.026452
-0.018833
-0.025332
-0.005388
-0.028928
-0.026765
-0.047327
-0.051317
-0.052608
-0.046929
-0.029275
-0.022008
-0.013323
-0.012434
-0.048117
-0.051220
-0.018009
-0.007784
-0.013113
-0.047370
-0.009479
-0.001373
-0.006389
-0.050617
-0.035826
-0.041713
-0.016627
-0.023370
-0.024995
-0.025985
-0.015729
-0.051759
-0.050785
-0.019871
-0.014848
-0.052213
-0.014004
-0.017473
-0.004106
-0.007311
-0.052159
-0.045275
-0.013442
-0.018296
-0.003191
-0.026417
-0.005968
-0.002734
-0.040830
-0.026448
-0.044052
-0.046432
-0.028917
-0.047289
-0.044380
-0.019831
-0.012407
-0.044346
-0.048387
-0.002276
-0.026424
-0.017950
-0.043541
-0.050918
-0.048360
-0.047684
-0.050560
-0.052213
-0.022872
-0.021244
-0.023626
-0.029746
-0.023800
-0.017412
-0.033226
-0.029833
-0.029626
-0.052235
-0.039287
-0.012707
-0.051211
-0.052604
-0.015424
-0.049850
-0.003200
-0.006853
-0.041321
-0.043157
-0.039182
-0.049896
-0.034472
-0.034127
-0.013950
-0.007812
-0.023588
-0.048095
-0.001778
-0.002302
-0.023094
-0.050978
-0.032697
-0.026764
-0.052301
-0.033362
-0.026411
-0.022099
-0.026441
-0.048623
-0.045643
-0.026404
-0.019401
-0.011506
-0.017961
-0.023761
-0.017099
-0.008582
-0.036237
-0.027181
-0.041562
-0.023592
-0.020289
-0.051514
-0.011909
-0.023983
-0.052630
-0.004108
-0.032879
-0.033007
-0.019850
-0.013960
-0.032477
-0.052411
-0.023930
-0.049504
-0.024189
-0.014246
-0.049896
-0.051341
-0.033915
-0.052628
-0.047580
-0.026456
-0.026433
-0.020812
-0.019368
-0.018471
-0.012373
-0.012170
-0.012871
-0.017847
-0.038008
-0.025075
-0.022048
-0.018020
-0.031937
-0.024999
-0.013496
-0.008982
-0.003250
-0.003232
-0.018415
-0.016120
-0.023950
-0.025923
-0.051417
-0.008281
-0.003690
-0.024536
-0.003656
-0.044489
-0.004618
-0.052200
-0.031335
-0.038402
-0.052456
-0.029548
-0.030555
-0.048931
-0.018493
-0.018988
-0.014881
-0.052320
-0.025947
-0.038402
-0.018463
-0.021664
-0.037301
-0.025947
-0.007827
-0.007352
-0.002348
-0.008244
-0.011953
-0.020328
-0.008534
-0.004162
-0.025978
-0.004150
-0.024001
-0.013526
-0.025997
-0.027141
-0.050062
-0.033569
-0.026306
-0.034901
-0.050849
-0.013983
-0.035918
-0.052138
-0.025936
-0.029733
-0.025942
-0.052614
-0.049289
-0.019910
-0.022035
-0.052627
-0.024346
-0.003707
-0.043619
-0.021709
-0.012678
-0.021626
-0.004574
-0.025966
-0.025973
-0.033992
-0.049988
-0.019449
-0.046374
-0.051785
-0.014427
-0.052377
-0.025936
-0.008134
-0.047441
-0.034335
-0.050147
-0.012669
-0.006437
-0.013516
-0.033428
-0.052078
-0.007357
-0.038104
-0.026804
-0.025408
-0.009482
-0.013971
-0.047081
-0.052023
-0.049631
-0.053024
-0.025973
-0.025928
-0.004152
-0.011001
-0.046863
-0.018900
-0.026423
-0.052211
-0.015829
-0.052393
-0.011776
-0.021189
-0.022062
-0.025464
-0.019389
-0.051721
-0.006396
-0.012214
-0.050215
-0.052195
-0.052631
-0.047221
-0.011768
-0.008284
-0.003698
-0.018265
-0.049433
-0.012223
-0.017112
-0.003661
-0.052584
-0.034479
-0.022073
-0.009429
-0.008241
-0.004106
-0.024221
-0.009030
-0.024055
-0.025481
-0.025961
-0.024525
-0.023399
-0.016743
-0.024402
-0.018939
-0.036717
-0.003694
-0.025961
-0.007778
-0.003245
-0.048051
-0.024014
-0.003203
-0.008283
-0.047166
-0.014026
-0.052067
-0.023362
-0.024966
-0.024562
-0.036811
-0.017054
-0.007314
-0.003198
-0.047658
-0.003202
-0.011329
-0.052652
-0.003205
-0.025417
-0.024649
-0.025957
-0.006323
-0.047704
-0.014330
-0.024004
-0.021227
-0.052213
-0.023830
-0.051059
-0.046968
-0.046889
-0.011277
-0.024066
-0.051466
-0.014015
-0.003700
-0.026395
-0.007819
-0.012826
-0.052092
-0.052521
-0.032240
-0.033054
-0.034403
-0.049353
-0.023581
-0.026383
-0.030539
-0.024421
-0.030137
-0.022480
-0.034413
-0.003658
-0.024369
-0.043893
-0.024259
-0.011285
-0.016703
-0.034968
-0.052531
-0.024030
-0.018433
-0.052508
-0.016759
-0.030592
-0.023792
-0.040932
-0.025500
-0.031917
-0.007776
-0.031997
-0.005910
-0.051778
-0.047537
-0.033859
-0.052159
-0.004150
-0.047034
-0.034204
-0.032179
-0.003206
-0.012179
-0.033020
-0.022632
-0.052621
-0.051789
-0.050999
-0.027555
-0.007814
-0.026344
-0.042506
-0.043821
-0.027181
-0.046810
-0.046854
-0.003701
-0.052173
-0.007780
-0.024655
-0.035250
-0.018475
-0.031846
-0.046792
-0.027677
-0.027220
-0.050785
-0.033021
-0.028506
-0.022114
-0.026420
-0.008274
-0.052009
-0.050800
-0.024789
-0.053013
-0.037213
-0.034823
-0.052052
-0.031687
-0.022606
-0.052967
-0.052551
-0.052134
-0.052597
-0.040450
-0.028515
-0.051966
-0.052696
-0.052592
-0.003247
-0.052584
-0.033824
-0.008981
-0.030898
-0.013165
-0.003242
-0.049988
-0.045338
-0.024687
-0.025918
-0.048712
-0.035658
-0.040067
-0.037612
-0.029338
-0.013899
-0.052630
-0.025213
-0.030939
-0.051269
-0.013570
-0.008233
-0.031786
-0.043650
-0.051818
-0.004161
-0.052212
-0.051862
-0.007817
-0.040830
-0.004122
-0.024845
-0.024776
-0.051181
-0.044871
-0.047264
-0.045824
-0.008279
-0.042485
-0.039179
-0.035665
-0.051869
-0.003703
-0.045090
-0.051642
-0.031748
-0.035836
-0.026382
-0.003706
-0.052630
-0.051881
-0.039291
-0.052207
-0.046405
-0.050215
-0.036627
-0.008236
-0.008240
-0.040692
-0.029326
-0.014319
-0.003654
-0.003659
-0.024616
-0.008277
-0.052592
-0.052426
-0.009880
-0.030499
-0.007823
-0.052213
-0.045651
-0.052185
-0.036723
-0.004576
-0.052578
-0.007767
-0.052039
-0.051370
-0.030151
-0.003664
-0.051514
-0.027636
-0.052630
-0.052142
-0.051736
-0.007773
-0.027597
-0.046774
-0.040060
-0.041577
-0.041281
-0.050432
-0.041928
-0.048418
-0.012625
-0.030188
-0.037117
-0.032140
-0.050900
-0.003707
-0.041437
-0.047404
-0.043855
-0.052617
-0.004120
-0.004617
-0.052152
-0.004164
-0.003666
-0.049477
-0.003252
-0.022145
-0.025538
-0.004120
-0.022575
-0.030098
-0.045862
-0.052521
-0.041798
-0.052542
-0.043342
-0.004578
-0.004121
-0.042154
-0.052207
-0.003707
-0.003707
-0.037703
-0.029374
-0.013943
-0.003664
-0.006852
-0.004619
-0.033087
-0.044794
-0.038503
-0.040441
-0.052078
-0.049556
-0.003703
-0.052052
-0.029288
-0.052023
-0.044176
-0.048552
-0.028468
-0.052039
-0.032983
-0.051977
-0.052531
-0.052208
-0.053029
-0.051958
-0.047708
-0.004116
-0.047504
-0.028551
-0.052202
-0.051220
-0.052067
-0.044202
-0.004110
-0.050406
-0.047125
-0.003665
-0.049262
-0.045572
-0.042137
-0.052318
-0.052138
-0.052614
-0.041060
-0.003659
-0.003247
-0.051992
-0.008085
-0.052195
-0.051921
-0.004163
-0.052009
-0.046375
-0.041192
-0.052578
-0.041071
-0.052628
-0.040923
-0.051376
-0.004164
-0.052561
-0.046429
-0.004119
-0.052084
-0.002354
-0.003708
-0.052249
-0.043541
-0.039563
-0.003709
-0.051941
-0.039681
-0.038501
-0.003666
-0.052569
-0.051789
-0.052123
-0.049796
-0.049818
-0.052165
-0.051759
-0.051667
-0.004121
-0.052181
-0.051998
-0.052456
-0.052208
-0.052597
-0.052393
-0.002307
-0.038792
-0.052102
-0.052497
-0.052200
-0.050794
-0.038898
-0.004122
-0.004123
-0.052188
-0.047620
-0.050643
-0.047068
-0.037609
-0.052442
-0.052279
-0.050294
-0.004165
-0.003709
-0.052628
-0.052411
-0.052114
-0.003666
-0.050978
-0.050560
-0.052211
-0.043166
-0.052113
-0.043859
-0.049126
-0.052426
-0.039949
-0.052377
-0.052235
-0.050915
-0.052471
-0.003667
-0.052134
-0.052551
-0.044138
-0.039943
-0.052341
-0.003709
-0.003667
-0.051132
-0.051211
-0.051881
-0.051721
-0.052716
-0.003200
-0.052483
-0.004163
-0.050492
-0.044977
-0.051134
-0.052358
-0.047667
-0.051333
-0.037704
-0.046766
-0.004165
-0.003667
-0.051683
-0.050734
-0.051692
-0.050617
-0.052350
-0.045281
-0.051042
-0.050843
-0.003242
-0.003709
-0.004123
-0.051793
-0.051903
-0.044918
-0.040319
-0.004123
-0.052320
-0.045641
-0.041205
-0.040327
-0.050849
-0.049631
-0.050681
-0.049718
-0.051636
-0.052057
-0.051681
-0.004165
-0.051557
-0.003709
-0.044489
-0.044709
-0.049711
-0.045889
-0.051744
-0.004123
-0.051043
-0.051771
-0.045036
-0.051098
-0.051158
-0.051484
-0.039567
-0.004165
-0.051835
-0.039675
-0.049959
-0.004165
-0.049850
-0.045934
-0.045580
-0.051510
-0.038896
-0.038793
-0.003667
-0.042645
-0.046370
-0.051317
-0.051577
-0.046867
-0.047271
-0.051093
-0.049642
-0.044540
-0.049096
-0.049750
-0.003667
-0.044664
-0.047591
-0.047156
-0.041646
-0.044384
-0.042308
-0.043157
-0.049523
-0.003709
-0.044343
-0.004165
-0.052213
-0.048113
-0.052027
-0.042288
-0.050837
-0.050062
-0.004620
-0.003708
-0.048495
-0.050235
-0.051610
-0.048086
-0.048230
-0.004123
-0.004577
-0.004164
-0.052301
-0.003248
-0.004121
-0.042852
-0.050327
-0.041782
-0.048741
-0.045376
-0.049550
-0.045577
-0.047867
-0.050712
-0.048830
-0.042667
-0.003250
-0.003207
-0.003661
-0.043497
-0.003209
-0.049392
-0.049215
-0.044582
-0.003206
-0.051300
-0.004114
-0.003662
-0.003704
-0.003205
-0.050881
-0.003706
-0.049525
-0.003701
-0.049687
-0.050918
-0.004156
-0.050150
-0.003251
-0.049433
-0.051264
-0.003663
-0.003658
-0.004158
-0.049084
-0.002746
-0.047204
-0.045196
-0.051268
-0.004154
-0.004112
-0.044446
-0.049314
-0.051935
-0.003700
-0.045315
-0.048830
-0.047231
-0.051341
-0.046218
-0.051901
-0.003654
-0.048976
-0.046808
-0.045027
-0.048684
-0.043714
-0.048330
-0.043527
-0.043021
-0.049633
-0.050050
-0.046833
-0.043682
-0.004122
-0.049273
-0.004163
-0.042996
-0.001288
-0.003125
-0.046745
-0.046157
-0.046972
-0.046702
-0.045831
-0.046136
-0.043744
-0.043479
-0.013534
-0.047076
-0.045912
-0.010652
-0.004567
-0.016525
-0.004702
-0.005982
-0.006014
-0.043772
-0.043249
-0.040709
-0.014734
-0.043226
-0.010658
-0.010689
-0.040345
-0.041154
-0.040973
-0.044592
-0.044028
-0.038068
-0.025981
-0.011631
-0.023811
-0.032393
-0.032774
-0.019591
-0.020038
-0.036046
-0.039816
-0.048128
-0.000209
-0.047914
-0.048127
-0.047916
-0.038599
-0.034962
-0.034961
-0.017075
-0.040070
-0.042984
-0.037360
-0.012958
-0.039397
-0.036344
-0.010439
-0.004969
-0.029883
-0.003696
-0.003694
-0.040670
-0.040848
-0.024713
-0.001732
-0.004945
-0.004495
-0.001316
-0.001784
-0.041165
-0.044266
-0.022566
-0.022563
-0.004710
-0.005231
-0.039601
-0.040056
-0.040523
-0.024085
-0.039140
-0.023615
-0.000189
-0.043193
-0.021829
-0.040255
-0.041587
-0.014252
-0.014013
-0.010946
-0.020347
-0.032008
-0.009380
-0.009385
-0.042272
-0.032714
-0.045072
-0.019670
-0.035925
-0.021323
-0.046090
-0.039917
-0.007325
-0.011619
-0.045393
-0.045777
-0.018291
-0.004929
-0.037001
-0.011744
-0.011714
-0.026538
-0.043220
-0.039781
-0.020127
-0.039637
-0.002223
-0.032252
-0.024847
-0.024821
-0.003118
-0.029893
-0.038588
-0.048336
-0.048337
-0.000246
-0.037478
-0.037138
-0.014405
-0.014844
-0.029343
-0.014750
-0.012964
-0.008136
-0.001850
-0.002284
-0.039758
-0.036366
-0.036914
-0.015718
-0.015301
-0.015298
-0.018827
-0.020580
-0.036605
-0.018274
-0.024091
-0.028236
-0.039928
-0.024302
-0.044533
-0.031740
-0.036771
-0.040251
-0.017085
-0.002099
-0.011166
-0.012141
-0.010944
-0.005501
-0.024542
-0.044951
-0.033962
-0.033962
-0.039344
-0.037644
-0.042736
-0.039813
-0.018816
-0.011457
-0.033432
-0.033432
-0.031549
-0.020850
-0.043251
-0.007602
-0.009093
-0.009088
-0.042830
-0.043205
-0.041952
-0.033158
-0.033157
-0.022306
-0.022305
-0.030159
-0.030284
-0.029881
-0.007312
-0.034799
-0.034798
-0.027312
-0.016944
-0.017359
-0.040859
-0.004130
-0.003705
-0.004129
-0.003702
-0.012956
-0.012537
-0.019074
-0.019088
-0.038543
-0.038934
-0.025986
-0.025577
-0.000667
-0.001446
-0.001044
-0.001113
-0.000655
-0.000212
-0.000996
-0.001042
-0.000988
-0.000169
-0.000180
-0.000169
-0.000178
-0.001008
-0.000991
-0.000240
-0.000234
-0.000210
-0.000172
-0.000186
-0.000182
-0.001446
-0.000987
-0.000662
-0.001475
-0.000970
-0.001000
-0.001027
-0.001093
-0.001922
-0.001482
-0.000992
-0.040272
-0.013954
-0.013536
-0.025737
-0.026814
-0.046504
-0.046501
-0.046885
-0.046883
-0.016530
-0.016106
-0.037946
-0.040713
-0.041091
-0.044002
-0.043627
-0.019626
-0.020041
-0.031027
-0.031023
-0.035792
-0.035798
-0.017507
-0.017088
-0.029105
-0.023409
-0.023404
-0.041027
-0.010291
-0.010292
-0.006388
-0.006390
-0.032673
-0.046075
-0.045686
-0.003124
-0.021399
-0.020119
-0.012962
-0.044473
-0.032266
-0.024722
-0.038542
-0.008538
-0.042053
-0.026525
-0.026936
-0.000951
-0.000731
-0.000998
-0.001002
-0.000945
-0.000976
-0.000939
-0.000708
-0.000293
-0.000271
-0.000290
-0.000949
-0.000229
-0.000230
-0.000246
-0.000728
-0.000215
-0.000273
-0.000234
-0.000234
-0.000251
-0.001436
-0.001386
-0.000936
-0.000977
-0.000945
-0.001887
-0.005748
-0.005741
-0.013997
-0.044486
-0.008130
-0.027713
-0.002682
-0.003112
-0.045473
-0.004533
-0.027699
-0.016517
-0.010942
-0.001766
-0.028956
-0.029357
-0.013999
-0.047066
-0.000300
-0.000190
-0.000195
-0.047673
-0.000303
-0.047673
-0.047066
-0.042742
-0.043700
-0.042028
-0.032649
-0.019611
-0.039481
-0.004987
-0.040396
-0.046093
-0.038089
-0.008150
-0.040204
-0.024079
-0.028447
-0.028406
-0.008546
-0.040688
-0.013513
-0.039005
-0.042472
-0.036342
-0.015560
-0.022061
-0.007589
-0.037003
-0.021766
-0.040298
-0.005422
-0.030704
-0.030692
-0.020583
-0.014498
-0.042496
-0.031751
-0.045349
-0.027483
-0.034278
-0.034278
-0.045298
-0.025061
-0.025005
-0.021076
-0.017897
-0.017901
-0.001051
-0.011995
-0.004685
-0.045835
-0.018042
-0.018075
-0.034061
-0.034060
-0.027454
-0.030785
-0.030812
-0.021578
-0.042387
-0.008355
-0.004532
-0.028209
-0.046091
-0.012115
-0.012131
-0.039461
-0.005479
-0.019606
-0.039952
-0.045791
-0.032718
-0.025201
-0.025176
-0.027350
-0.037445
-0.014791
-0.016117
-0.014369
-0.002254
-0.044007
-0.041872
-0.039777
-0.036762
-0.015677
-0.015674
-0.036314
-0.045703
-0.002705
-0.037704
-0.028573
-0.028574
-0.023944
-0.041562
-0.005433
-0.036470
-0.010780
-0.013792
-0.018816
-0.041571
-0.005900
-0.005890
-0.041516
-0.024294
-0.044751
-0.027365
-0.013466
-0.039932
-0.019170
-0.019184
-0.011196
-0.040059
-0.033132
-0.033146
-0.019898
-0.032432
-0.031871
-0.007226
-0.020498
-0.045514
-0.044096
-0.000611
-0.000622
-0.000620
-0.001046
-0.001101
-0.000647
-0.000592
-0.000563
-0.000560
-0.001057
-0.000609
-0.000578
-0.000616
-0.000615
-0.000666
-0.001047
-0.000671
-0.000644
-0.000612
-0.001039
-0.000619
-0.000557
-0.000558
-0.000600
-0.000533
-0.000572
-0.001552
-0.043550
-0.007225
-0.009463
-0.009465
-0.042800
-0.041740
-0.038924
-0.022650
-0.022650
-0.029853
-0.012546
-0.030071
-0.007593
-0.035108
-0.035108
-0.016996
-0.016133
-0.003939
-0.003940
-0.037785
-0.012738
-0.038652
-0.025759
-0.001183
-0.000735
-0.000984
-0.001422
-0.000982
-0.000692
-0.000276
-0.000966
-0.000920
-0.000931
-0.000238
-0.000942
-0.000239
-0.000237
-0.000244
-0.000302
-0.001423
-0.000296
-0.000273
-0.001405
-0.000248
-0.000242
-0.000240
-0.000732
-0.001853
-0.000926
-0.000922
-0.000965
-0.000890
-0.000933
-0.002893
-0.013759
-0.026068
-0.026496
-0.046266
-0.046270
-0.016307
-0.016304
-0.002713
-0.038242
-0.040760
-0.043582
-0.019832
-0.042268
-0.037786
-0.035537
-0.035534
-0.038895
-0.017317
-0.029427
-0.023078
-0.023079
-0.041307
-0.009901
-0.009906
-0.012563
-0.006786
-0.006788
-0.032312
-0.045516
-0.045882
-0.012737
-0.038650
-0.000685
-0.001602
-0.001146
-0.000995
-0.000712
-0.000996
-0.001108
-0.000651
-0.000653
-0.000648
-0.000704
-0.000682
-0.000657
-0.000997
-0.000668
-0.000973
-0.000688
-0.000960
-0.000652
-0.000637
-0.000918
-0.000654
-0.000922
-0.000923
-0.000932
-0.000654
-0.000984
-0.000647
-0.000940
-0.000943
-0.000709
-0.000643
-0.000703
-0.000990
-0.000671
-0.000959
-0.000686
-0.000967
-0.001091
-0.000649
-0.001050
-0.001053
-0.001055
-0.000707
-0.000652
-0.000995
-0.000989
-0.001054
-0.000659
-0.000707
-0.000922
-0.000589
-0.001053
-0.000637
-0.001045
-0.001043
-0.000647
-0.000988
-0.000652
-0.000923
-0.000590
-0.001061
-0.000648
-0.000985
-0.000988
-0.000575
-0.000986
-0.001007
-0.000589
-0.000986
-0.000589
-0.000989
-0.000623
-0.000590
-0.001037
-0.000578
-0.000591
-0.001021
-0.000653
-0.001528
-0.001028
-0.000656
-0.001023
-0.000624
-0.000600
-0.000924
-0.001031
-0.000627
-0.000652
-0.000679
-0.000652
-0.000595
-0.001513
-0.001065
-0.001018
-0.001003
-0.000588
-0.000958
-0.000619
-0.001049
-0.000991
-0.000587
-0.000653
-0.000613
-0.000582
-0.000638
-0.000589
-0.000588
-0.000651
-0.000718
-0.000704
-0.000986
-0.001058
-0.000661
-0.000656
-0.000990
-0.000652
-0.000667
-0.001051
-0.001045
-0.000982
-0.000649
-0.001042
-0.000651
-0.000652
-0.000925
-0.000710
-0.000625
-0.000986
-0.000654
-0.001490
-0.000991
-0.001025
-0.000589
-0.000591
-0.000618
-0.000986
-0.000589
-0.000592
-0.000995
-0.001021
-0.000590
-0.001005
-0.000986
-0.000985
-0.000589
-0.000927
-0.000987
-0.000655
-0.000922
-0.000923
-0.000610
-0.001053
-0.000952
-0.000576
-0.000629
-0.000625
-0.000922
-0.000589
-0.000686
-0.001003
-0.001961
-0.001025
-0.000623
-0.001016
-0.001017
-0.000987
-0.000986
-0.000985
-0.000563
-0.000922
-0.000995
-0.001018
-0.000957
-0.000714
-0.000992
-0.000718
-0.001002
-0.000684
-0.000964
-0.000656
-0.000925
-0.000922
-0.000653
-0.000683
-0.000955
-0.000653
-0.000923
-0.000690
-0.000970
-0.000973
-0.001909
-0.001001
-0.000713
-0.001438
-0.000716
-0.000936
-0.001416
-0.000944
-0.000933
-0.000987
-0.000971
-0.000707
-0.000949
-0.026727
-0.001060
-0.000658
-0.001052
-0.000646
-0.001009
-0.001034
-0.001002
-0.001012
-0.000237
-0.001498
-0.000212
-0.000658
-0.000233
-0.000168
-0.000185
-0.000174
-0.000190
-0.000150
-0.001464
-0.000172
-0.000179
-0.001004
-0.000190
-0.001961
-0.001036
-0.000999
-0.001008
-0.041857
-0.047837
-0.000217
-0.047837
-0.014362
-0.008359
-0.002893
-0.044857
-0.006378
-0.006384
-0.010316
-0.040906
-0.010306
-0.032011
-0.020347
-0.029127
-0.047367
-0.000561
-0.000554
-0.047367
-0.011465
-0.039824
-0.024544
-0.036769
-0.044105
-0.001569
-0.036700
-0.000204
-0.005431
-0.032429
-0.020471
-0.031952
-0.019900
-0.000585
-0.005230
-0.024389
-0.039342
-0.040114
-0.044477
-0.011231
-0.042441
-0.006259
-0.006260
-0.010443
-0.047411
-0.000562
-0.047411
-0.013793
-0.042398
-0.000553
-0.001748
-0.010436
-0.040664
-0.014252
-0.005032
-0.044836
-0.005041
-0.031897
-0.020496
-0.014385
-0.001531
-0.001075
-0.000672
-0.001056
-0.000669
-0.001044
-0.000616
-0.000614
-0.000618
-0.000616
-0.000629
-0.000555
-0.000575
-0.000582
-0.000644
-0.001057
-0.000637
-0.000614
-0.001066
-0.000587
-0.000579
-0.000560
-0.000614
-0.000612
-0.000651
-0.000623
-0.000565
-0.000922
-0.000610
-0.000949
-0.036635
-0.024364
-0.040135
-0.011217
-0.010274
-0.006422
-0.006404
-0.040916
-0.010298
SCALARS strain_e12 float 1
LOOKUP_TABLE default
-0.000112
0.000011
0.000158
0.000108
0.000156
-0.000229
-0.000274
-0.000099
0.000095
0.000268
-0.000317
-0.000189
0.000154
-0.000032
-0.000161
0.000109
-0.000250
0.000238
0.000142
-0.000273
0.000126
-0.000046
0.000026
-0.000021
0.000064
-0.000236
0.000237
-0.000038
0.000184
0.000096
0.000019
0.000124
0.000389
-0.000025
0.000024
0.000126
-0.000021
0.000371
-0.000125
0.000107
-0.000278
0.000084
-0.000189
0.000187
-0.000229
0.000226
-0.000094
-0.000072
-0.000414
0.000015
-0.000111
-0.000415
0.000516
-0.000008
-0.000382
0.000038
-0.000112
-0.000141
-0.000046
0.000051
-0.000009
0.000129
-0.000029
0.000112
-0.000086
0.000034
0.000254
-0.000034
-0.000028
-0.000283
0.000059
-0.000277
-0.000512
0.000512
-0.000155
0.000095
-0.000092
-0.000047
0.000046
0.000244
0.000189
0.000002
-0.000011
0.000056
-0.000226
0.000228
0.000117
0.000028
-0.000201
0.000168
0.000302
0.000020
0.000028
-0.000084
0.000083
-0.000314
0.000762
0.000195
-0.000141
0.000053
0.000380
-0.000010
0.000012
-0.000098
-0.000546
-0.000004
0.000009
-0.000488
0.000361
-0.000039
0.000074
0.000071
0.000104
-0.000180
-0.000004
-0.000007
0.000091
0.000082
-0.000511
-0.000025
-0.000216
0.000215
0.000011
-0.000060
-0.000014
0.000003
-0.000321
0.000058
-0.000039
-0.000022
0.000089
-0.000427
-0.000026
-0.000013
0.000032
0.000053
-0.000046
0.000047
0.000013
0.000052
-0.000445
0.000032
-0.000081
0.000196
-0.000242
0.000293
-0.000108
0.000013
-0.000134
-0.000009
0.000032
-0.000270
-0.000053
-0.000035
0.000034
-0.000194
0.000017
-0.000050
-0.000001
0.000023
-0.000019
0.000205
-0.000196
0.000029
-0.000014
-0.000032
-0.000429
-0.000038
-0.000002
0.000001
-0.000045
-0.000112
-0.000073
0.000354
0.000091
-0.000096
-0.000020
0.000024
-0.000010
-0.000255
-0.000523
0.000460
-0.000181
-0.000138
-0.000474
0.000017
-0.000302
-0.000584
0.000008
-0.000531
0.000026
-0.000132
-0.000081
0.000015
-0.000133
0.000684
-0.000342
-0.000104
0.000103
-0.000304
0.000048
0.000193
0.000277
-0.000033
0.000044
0.000003
-0.000002
0.000567
-0.000053
-0.000931
0.000060
-0.000259
0.000255
0.000015
0.000001
-0.000207
0.000207
-0.000337
-0.000281
-0.000119
-0.000066
0.000001
-0.000202
0.000227
-0.000171
-0.000176
0.000184
0.000098
-0.000232
0.000074
-0.000177
-0.000323
0.000011
-0.000359
0.000043
-0.000065
0.000066
0.000411
0.000136
-0.000008
-0.000113
0.000144
-0.000022
-0.000290
0.000296
-0.000006
0.000196
0.000323
-0.000015
0.000006
-0.000004
-0.000036
0.000011
-0.000195
0.000042
0.000461
-0.000250
-0.000046
-0.000005
0.000001
0.000290
0.000075
-0.000235
-0.000234
-0.000186
0.000159
-0.000043
-0.000009
-0.000059
-0.000030
-0.000021
0.000046
0.000044
0.000032
0.000021
-0.000029
-0.000014
-0.000038
-0.000023
-0.000032
0.000006
-0.000000
0.000009
0.000006
0.000004
-0.000002
-0.000009
-0.000004
-0.000013
0.000001
-0.000008
0.000034
0.000274
-0.000307
0.000305
-0.000010
-0.000114
0.000181
-0.000002
-0.000424
-0.000112
0.000111
-0.000229
0.000229
-0.000022
-0.000069
0.000049
0.000038
0.000348
-0.000081
0.000082
-0.000025
0.000023
0.000500
-0.000016
0.000499
0.000410
0.000137
0.000518
0.000079
-0.000067
-0.000069
-0.000000
-0.000233
-0.000736
-0.000306
0.000033
-0.000283
-0.000240
-0.000210
0.000228
-0.000207
-0.000084
0.000074
-0.000472
-0.000130
0.000132
-0.000343
0.000117
0.000029
-0.000259
0.000266
-0.000046
0.000018
-0.000084
-0.000169
0.000142
0.000050
-0.000229
-0.000443
-0.000754
-0.000024
0.000023
0.000031
0.000027
0.000039
0.000019
0.000001
-0.000025
0.000019
-0.000021
-0.000030
-0.000029
0.000025
-0.000472
-0.000033
-0.000067
0.000031
0.000000
-0.000051
-0.000037
0.000033
0.000025
0.000017
-0.000023
-0.000007
-0.000020
-0.000020
-0.000324
-0.000003
-0.000732
-0.000073
0.000246
-0.000093
-0.000106
0.000380
0.000358
-0.000196
-0.000315
-0.000266
-0.000023
-0.000818
-0.000450
0.000025
-0.000027
-0.000067
0.000007
-0.000250
-0.000009
-0.000556
-0.000700
-0.000006
0.000014
0.000022
0.000485
-0.000485
0.000110
-0.000693
-0.000040
-0.000044
-0.000002
0.000014
-0.000200
-0.000017
-0.000445
-0.000592
0.000031
-0.000037
-0.000349
-0.000548
-0.000001
0.000096
0.000041
-0.000480
-0.000018
-0.000548
-0.000444
0.000221
0.000034
-0.000894
0.000001
0.000032
-0.000457
-0.000446
-0.000494
-0.000074
-0.000481
-0.000197
-0.000531
-0.000440
-0.000106
-0.000516
-0.000103
-0.000031
-0.000485
-0.000074
-0.000075
-0.000103
-0.000193
-0.000568
-0.000097
-0.000428
-0.000092
0.000154
-0.000148
-0.000086
-0.000146
-0.000151
0.000153
-0.000412
-0.000551
-0.000133
-0.000091
-0.000091
-0.000175
0.000516
-0.000081
-0.000473
0.000540
-0.001556
-0.000102
-0.000119
-0.000074
-0.000183
0.000012
0.000407
-0.000606
-0.000129
0.000565
-0.000084
-0.000108
0.000425
0.000161
0.000528
-0.000069
0.000561
0.000110
-0.000138
0.000449
-0.000161
-0.000116
-0.000095
0.000455
-0.000089
0.000170
0.000105
-0.000062
0.000275
0.000465
-0.000057
-0.000586
-0.000137
-0.000124
0.000209
-0.001618
0.000471
0.000106
0.000480
0.000196
0.000000
0.000099
0.000487
-0.000064
0.000546
-0.000050
0.000019
-0.000118
0.000019
-0.000190
-0.000102
-0.000128
0.000000
-0.000099
0.000132
0.000000
0.000532
-0.000200
0.000755
0.000037
0.000565
0.000827
-0.000020
-0.000135
-0.000644
0.000220
0.000517
0.000184
-0.000044
0.000525
0.000484
-0.000130
0.000203
0.000137
0.000474
0.000120
0.000686
0.000225
-0.000090
-0.000313
-0.000310
-0.000334
0.000137
-0.000038
-0.000125
-0.000466
0.000036
0.000744
0.000656
0.000166
-0.000337
-0.000042
0.000405
0.000175
0.000281
-0.001608
0.000264
0.000038
-0.000598
0.000534
0.000235
0.000154
0.000297
-0.000063
0.000112
-0.000169
0.000528
-0.000166
0.000265
0.000094
-0.001540
0.000523
-0.000650
-0.000105
0.000080
0.000013
-0.000532
0.000230
0.000657
0.000254
-0.000112
0.000231
-0.000032
-0.000516
0.000236
-0.000113
0.001572
0.000281
0.000296
0.001286
-0.001204
0.000090
-0.000620
-0.000101
0.001105
0.000547
-0.001616
-0.000013
0.000536
-0.000472
0.000000
-0.000573
0.000593
0.000385
0.000050
-0.000195
0.000592
-0.001553
0.000230
-0.000108
-0.001327
-0.000125
0.000459
-0.001506
0.000290
-0.000052
-0.000038
0.000264
0.000000
0.000713
-0.000588
0.000075
0.000164
-0.000283
-0.000371
0.000218
-0.000761
-0.000645
-0.000564
-0.000343
-0.000250
0.000026
-0.000559
0.001154
-0.000528
0.001228
-0.000115
-0.000077
-0.000100
0.000069
0.000696
0.000420
-0.000104
0.001052
0.000595
0.000227
0.000072
0.000633
0.000556
-0.000185
-0.000585
-0.001508
0.000383
-0.001542
0.000514
-0.000119
0.000241
-0.000025
0.000635
-0.000152
-0.001077
-0.000805
0.000071
0.000067
-0.000586
-0.000841
-0.001526
0.000284
0.000088
0.000422
-0.000139
0.000342
0.000282
-0.000133
-0.000063
-0.000612
-0.000121
-0.001493
0.000072
-0.000231
-0.000111
0.000073
0.000526
-0.000448
0.000271
0.000074
0.000447
-0.000591
-0.000165
-0.000661
-0.001577
-0.000098
-0.000617
0.000518
-0.000112
-0.000075
0.000057
-0.000205
-0.000855
0.000558
-0.000216
0.001402
0.001553
0.000558
-0.000187
0.001076
-0.000681
0.000393
0.000704
-0.000339
0.000145
0.000153
-0.000106
-0.000049
0.000072
0.001297
0.000238
0.000257
0.000302
-0.000020
-0.000335
-0.000213
0.000648
-0.000576
0.000224
0.000433
-0.001226
0.001178
0.000368
-0.001474
-0.001539
-0.000146
-0.000127
-0.000138
0.000432
-0.001573
-0.000219
-0.000083
0.001202
-0.001584
0.000519
-0.000185
0.000377
-0.000779
0.000846
-0.000229
-0.000683
0.000528
0.000203
0.000054
0.000071
0.000288
0.000195
0.000062
0.000216
-0.001578
-0.000249
0.000717
0.000556
0.000573
0.000246
-0.000201
0.000018
0.000063
-0.000688
0.000269
0.000305
-0.000245
0.000233
-0.000592
0.001252
0.001506
0.000091
0.000606
0.000724
-0.000174
0.000052
-0.000113
0.000391
0.000173
-0.000785
0.001498
0.000071
0.000530
0.000045
0.000046
-0.000233
0.000222
-0.000230
-0.000710
-0.000224
0.000292
-0.000194
-0.000217
0.000470
-0.000259
-0.000771
0.000374
0.000350
0.001258
0.000383
-0.000227
-0.000309
0.000274
0.000430
-0.000716
-0.000280
0.000347
-0.000289
0.000412
0.000900
-0.001268
0.000030
-0.000107
-0.000021
-0.000738
0.000957
-0.000238
0.000485
0.000070
0.001535
0.000887
-0.000020
0.000307
-0.001192
0.000071
0.000450
-0.000066
0.000374
-0.000557
0.000321
-0.000743
-0.000019
0.001365
0.000905
0.001692
-0.000080
0.000204
-0.000147
0.000209
-0.000359
-0.000181
0.000299
-0.000526
0.001317
-0.000197
0.001162
0.000300
-0.000639
-0.001327
0.000519
-0.000129
0.001035
-0.000384
0.000513
0.000242
-0.000075
-0.001201
0.000367
0.000195
0.000194
0.001033
-0.000156
-0.000257
-0.000424
0.000566
0.001185
-0.001630
-0.001330
0.001407
0.001125
-0.001633
-0.000213
-0.000493
0.001202
0.000193
0.000052
0.001463
0.000013
0.000806
-0.000728
0.000301
-0.000096
0.001135
-0.000190
0.000667
0.000026
-0.000208
0.000266
0.000651
0.000204
-0.000056
0.000364
-0.000170
-0.001454
0.001503
0.001410
0.000973
0.000577
0.000232
0.000274
0.000257
-0.000017
0.000886
-0.000201
0.001283
0.000279
0.000901
-0.000102
-0.001410
-0.001417
0.001529
0.000665
0.000244
0.000308
-0.001018
0.000683
0.000184
-0.000737
-0.001202
-0.000179
0.000557
-0.000413
0.000016
0.000038
0.000697
0.000676
0.000380
0.000124
0.000430
0.000177
0.000769
0.000195
0.000919
-0.000339
0.000897
0.001663
0.000195
-0.000253
0.000328
0.000026
0.000220
0.001614
-0.001341
0.001330
-0.001454
-0.000766
0.001145
0.000054
-0.000429
-0.001353
0.001589
0.000250
-0.000026
0.000085
-0.000203
0.000616
0.000013
-0.000094
0.000768
-0.001682
-0.000006
0.001648
0.000538
-0.000836
0.000850
0.000210
-0.000162
0.000463
-0.000233
-0.000799
0.000236
-0.000403
0.000670
-0.000371
-0.001635
-0.000557
-0.000226
0.000702
0.000405
0.000267
0.001650
-0.000204
0.000716
-0.000254
-0.000113
-0.000227
-0.000082
-0.000225
0.000067
0.000323
-0.000601
-0.000134
-0.000088
-0.000193
-0.000260
0.000141
-0.000064
-0.000112
0.000424
0.000839
-0.000292
-0.000138
0.000292
-0.001688
-0.000265
0.000508
-0.000795
-0.001565
-0.000211
-0.000277
0.000875
0.001109
0.000261
-0.000392
-0.001736
0.000071
0.000441
0.000702
0.000020
0.001260
0.000262
0.000371
0.000922
0.000286
-0.001158
0.001259
0.001497
-0.000031
-0.000703
0.001685
0.001042
0.000552
-0.001525
-0.000932
-0.001490
-0.000655
-0.000447
0.001732
0.000497
-0.000089
-0.000216
0.000703
0.000556
0.000018
-0.000111
0.000789
0.000517
-0.000026
0.000245
-0.000304
-0.000134
0.000036
0.000935
-0.001732
0.000264
-0.000496
-0.000000
-0.000636
0.000088
-0.000259
0.001031
0.000066
0.000688
0.001726
-0.000179
0.001260
-0.000856
0.000477
-0.000157
0.000402
0.000208
-0.000475
-0.000079
0.000817
-0.000013
-0.000197
-0.001559
0.000695
0.000125
0.000917
-0.000512
-0.000210
0.000485
-0.000147
0.000471
0.000072
-0.001408
0.000219
0.000886
0.000299
0.000205
0.000016
0.000680
-0.000744
-0.000443
-0.000492
-0.000340
0.000576
-0.000806
0.000972
0.000123
-0.001074
0.000552
-0.000114
-0.000758
0.000903
-0.000463
0.000696
0.000251
0.000932
-0.000086
-0.001465
0.000273
-0.000197
0.000944
0.001169
-0.001450
-0.000790
-0.001407
-0.000420
-0.001191
-0.000222
0.000816
-0.000324
-0.000497
-0.000272
-0.000781
-0.001449
-0.000074
-0.001401
-0.000131
-0.000246
-0.000386
-0.000986
-0.000317
-0.000908
-0.000460
0.000489
0.000870
-0.000154
0.000878
0.001455
0.000535
-0.001360
0.000257
0.000673
0.000544
-0.000945
-0.001492
-0.001479
-0.001371
-0.000140
0.000672
0.000084
-0.000142
0.000609
-0.000507
0.000274
0.001245
0.000440
0.000821
-0.000439
-0.000220
0.001491
0.000882
-0.001517
0.000267
0.000012
-0.001468
-0.001631
0.001120
0.000657
0.000087
-0.001340
0.000360
-0.000070
0.000346
0.001566
0.001548
-0.000430
-0.000338
-0.000967
-0.000418
-0.001268
0.000988
-0.000785
0.000676
-0.000475
0.001534
0.000541
-0.000489
-0.000070
0.001017
0.000049
-0.000601
0.000094
-0.000222
0.001538
-0.000084
-0.000113
0.000191
-0.000022
-0.000495
0.000527
-0.000878
0.000601
-0.000214
-0.000220
0.000847
0.000693
-0.000331
0.000560
0.000711
0.000519
0.000907
0.000894
-0.000819
0.000518
0.000060
-0.000118
0.000006
-0.000184
-0.000556
0.000211
-0.000082
0.000124
-0.001432
0.001713
-0.000064
-0.000004
-0.000553
0.000834
-0.000420
-0.000413
0.000688
0.000016
0.001229
-0.000141
0.000296
-0.000552
0.001646
0.000648
0.001383
-0.000168
-0.001357
-0.000560
-0.000219
0.001491
0.000018
0.000247
-0.000095
0.000708
-0.000618
0.000142
-0.001455
0.000322
0.001285
-0.000581
0.000923
-0.001380
-0.001593
0.001053
-0.000075
0.000020
0.000111
0.000502
-0.000863
0.000225
0.000316
0.000550
-0.000221
-0.000406
-0.000158
0.000045
0.001253
-0.000180
0.000664
0.000793
-0.001355
-0.000798
0.000230
0.000239
0.000591
-0.000392
-0.001426
0.000357
0.000377
0.000042
-0.000149
0.000232
-0.000160
0.000280
-0.000307
-0.001337
-0.000766
-0.000865
0.000507
0.000037
-0.000755
-0.000154
0.000686
-0.000087
-0.000176
0.000804
-0.000261
-0.000083
0.000677
0.000335
0.000484
0.000127
-0.000093
-0.000334
0.001430
-0.001440
-0.001442
0.000102
0.001503
-0.000343
-0.001288
0.001474
0.001547
-0.000115
-0.000191
-0.001352
0.001593
0.001124
0.000070
0.000208
-0.001327
-0.000324
-0.001449
0.000594
0.001028
-0.000462
-0.000152
0.000831
-0.000022
0.000894
-0.000409
0.000655
0.000725
-0.001072
0.001663
0.000699
-0.000991
-0.001410
0.000687
-0.001526
0.000246
-0.000300
-0.001297
0.000754
0.000144
0.001616
0.000324
-0.000419
-0.000101
0.000392
0.000354
-0.001089
-0.000696
-0.000020
-0.000079
-0.000572
0.000651
0.000652
0.000964
-0.000077
0.000039
0.001072
0.001068
-0.000358
0.000630
0.000978
0.001015
0.000352
-0.000305
0.000258
0.000615
-0.000144
-0.001416
-0.001178
0.001600
-0.000648
0.000951
-0.001278
-0.000375
0.000771
-0.000551
0.000686
0.000512
-0.000224
-0.000481
-0.000091
0.000920
-0.000489
0.000761
0.000009
0.000378
0.000264
0.000697
-0.000086
-0.000071
-0.000229
-0.000247
0.000046
0.000643
-0.000185
-0.000552
-0.000155
-0.000370
0.000696
-0.000426
0.000043
-0.000250
0.000564
0.000680
0.000622
-0.000421
0.000363
-0.000331
0.000174
0.001434
0.000216
0.001517
-0.000960
-0.000211
-0.001346
0.001526
0.001654
-0.000061
0.000071
-0.000211
0.000927
-0.000693
-0.000225
-0.000111
-0.000000
-0.000756
-0.000316
0.000673
-0.000353
-0.000226
-0.001442
-0.000419
0.000610
0.000270
0.000381
-0.001659
0.000619
0.000729
0.000458
0.000967
0.001638
-0.000274
-0.000213
-0.001635
0.000836
0.000035
0.000780
0.000505
0.000259
-0.000055
-0.000083
-0.001014
0.001635
0.000261
0.001484
-0.001451
0.000236
0.001643
-0.001452
-0.000336
0.000680
-0.000821
0.000622
0.001049
-0.001051
-0.000499
-0.001590
-0.000802
-0.000086
0.001568
0.001478
0.000052
0.000097
-0.000392
0.000799
-0.001578
0.000047
-0.000179
0.000937
0.001563
0.001655
-0.000913
0.000949
0.000056
0.000593
-0.001453
-0.000802
-0.000227
0.000053
-0.001399
-0.000122
-0.001117
-0.000070
-0.000182
0.000242
-0.000465
-0.000078
-0.000991
0.000205
0.000850
-0.000113
-0.000141
-0.001369
-0.001304
0.000380
0.000941
0.001118
0.001155
-0.000236
0.000010
-0.000236
0.000127
0.000258
0.000018
-0.000118
-0.001391
0.000533
0.000019
-0.000014
-0.000348
0.000017
-0.000216
0.001385
-0.000001
-0.000136
-0.000204
-0.000233
0.000269
-0.000655
0.001038
0.000468
0.000899
-0.000468
-0.000581
-0.000257
0.000074
-0.001191
0.000253
0.001195
0.000292
-0.001535
0.000826
0.000894
0.001451
0.000054
-0.000184
-0.000347
0.000936
-0.000478
0.000074
-0.000774
0.000642
-0.000122
-0.000761
-0.000174
0.000204
0.000108
0.000063
-0.000953
-0.000109
0.001022
0.001590
0.000200
-0.000141
-0.000000
0.001159
-0.000227
0.000033
0.001423
-0.000970
-0.001658
0.000027
-0.000342
0.001248
-0.001399
-0.001268
-0.000787
0.000737
0.000630
0.001238
0.000487
-0.001300
-0.000149
0.001296
0.000004
-0.000704
-0.000185
-0.001496
-0.001398
-0.000108
0.000548
-0.000498
0.000031
-0.000182
-0.000151
0.000439
-0.001317
-0.000226
-0.000127
0.000521
-0.000129
0.001187
0.000166
-0.000671
-0.001402
-0.001630
0.001205
0.001435
0.000163
0.000719
-0.001288
-0.000029
0.000284
0.001082
-0.001500
0.001073
0.001618
0.001395
0.000845
-0.000219
0.000580
0.001058
-0.000454
0.001136
0.000004
-0.000725
0.000279
-0.000434
0.000340
-0.001651
0.000299
-0.000473
0.000271
-0.000056
-0.000947
-0.001014
0.000907
-0.000356
-0.000380
-0.000576
0.000706
0.001209
0.000166
0.001110
0.000528
0.001434
0.000837
-0.000156
0.000043
-0.000674
-0.000770
-0.001533
-0.001099
-0.000716
0.000268
0.000177
0.000173
-0.000175
-0.001345
0.000002
-0.001374
-0.000253
0.000666
-0.001546
0.000174
0.000257
0.000681
0.000069
0.000466
-0.000692
-0.000223
0.001533
0.000383
-0.000008
-0.000383
-0.000097
0.001648
-0.001058
-0.000118
-0.000851
0.000339
-0.000915
0.001247
0.000565
0.000602
-0.000066
-0.000133
0.000103
-0.001012
-0.000980
-0.000241
0.000775
0.000780
-0.000217
-0.001290
0.000942
-0.000061
0.001091
-0.000797
-0.000399
-0.000419
-0.000422
-0.000223
0.000065
-0.000157
-0.001397
0.000047
0.000327
0.000919
0.000296
0.000270
0.000551
0.000287
0.000481
-0.001382
0.000187
0.000540
0.000184
0.000055
0.000841
-0.000048
-0.001026
0.001041
0.000889
-0.001044
0.000059
0.000044
0.000991
-0.001047
-0.000475
-0.000143
0.000683
0.000540
-0.000980
-0.000911
-0.000991
-0.000482
-0.000948
-0.000353
0.000455
0.000194
0.001474
-0.000087
-0.001168
0.000570
0.000146
0.001094
-0.000720
0.000046
0.000041
-0.000099
-0.000146
0.000943
0.000464
-0.000647
-0.000035
-0.000261
0.001591
0.000010
-0.000292
-0.000131
0.001392
0.000786
-0.000265
0.001589
0.000717
0.000594
-0.000546
-0.000208
0.000050
0.001566
0.000674
-0.001681
0.000735
0.000685
-0.001022
0.000542
0.001619
-0.001175
-0.000115
0.000860
0.000172
0.001246
-0.001007
-0.000458
-0.000187
0.000854
-0.000159
0.001660
-0.000854
-0.000566
0.000588
0.000695
0.000391
-0.000447
-0.000047
0.001735
0.000287
-0.000762
0.000192
-0.000889
-0.001007
0.000227
-0.000447
0.000260
0.000946
-0.001728
0.001134
0.000642
0.001023
-0.001124
0.000737
-0.001488
-0.000988
0.001601
0.001223
0.000596
-0.000647
0.001074
-0.000667
0.000059
-0.000650
0.000582
0.000612
0.001090
0.000252
0.000043
0.000955
0.001047
0.000551
-0.000882
-0.000093
-0.000077
-0.000885
0.001118
0.000157
-0.000397
-0.001466
-0.001343
-0.000602
-0.000286
0.000560
-0.000195
-0.000632
0.000347
0.000531
-0.000374
0.000281
-0.000013
-0.000874
0.001118
0.001139
0.000009
0.000470
-0.000015
-0.001365
0.000202
0.001449
-0.000595
0.000057
0.000746
0.001367
-0.000204
0.000551
-0.000837
0.000624
0.000762
0.000006
-0.001403
0.000612
0.000473
0.000326
0.000004
0.001454
-0.000533
0.000637
-0.000089
0.000026
0.000657
0.000428
0.000544
-0.000959
-0.000254
0.000171
0.000043
-0.000392
-0.000969
-0.001630
-0.001735
0.000643
0.000233
0.001466
0.000447
-0.000287
0.000682
0.000433
0.001055
0.000833
0.000181
-0.000437
-0.000065
-0.000045
-0.000197
0.000353
-0.000455
-0.001294
-0.000794
-0.000033
0.000398
-0.001339
0.000304
-0.000864
0.000080
0.001081
0.000591
0.001514
0.000907
-0.001653
-0.000254
0.001399
0.001284
0.001110
0.000561
-0.001160
-0.001125
0.000987
0.001280
-0.000598
0.001616
0.000049
-0.001326
0.000867
0.000162
-0.000207
-0.000000
0.000982
-0.001146
0.000813
0.001598
-0.000359
0.000083
-0.000101
0.000122
0.001458
-0.001389
-0.001405
-0.001373
0.000096
0.000050
0.000175
-0.000017
-0.000499
0.000156
-0.000386
0.001079
0.001039
-0.000183
-0.000091
0.000067
0.000118
-0.001437
0.000955
-0.000803
-0.000650
-0.000068
0.000505
-0.000206
-0.000181
-0.000613
-0.000070
-0.000417
0.001187
0.000026
0.000527
0.000143
-0.000081
0.000945
-0.000117
0.000083
0.000087
0.000932
0.000916
0.001612
0.001064
-0.000642
0.001451
0.001722
-0.000233
0.000235
-0.000061
-0.000022
-0.001305
-0.000414
0.000081
-0.000019
0.000961
-0.001126
0.001487
-0.000565
0.001063
-0.001346
0.001678
0.000361
0.000211
-0.001658
-0.001550
0.000085
-0.000043
-0.000260
0.000397
-0.000131
-0.001267
-0.000282
0.000837
0.001058
-0.001391
0.000568
0.000866
-0.000542
0.001701
-0.000605
0.001636
-0.000059
0.000039
0.000713
0.000933
-0.000024
0.001138
-0.000072
-0.001623
0.000142
-0.000245
-0.001388
-0.000292
-0.001343
0.000486
0.001237
-0.001325
0.000095
0.001347
-0.001539
0.000884
0.001499
-0.001326
0.000999
0.000117
-0.000176
-0.001609
0.000895
0.001723
0.000586
0.001640
-0.001677
-0.000131
-0.001718
-0.001003
-0.000141
-0.000464
-0.001399
0.001717
0.000141
0.000260
-0.000590
0.000747
0.000811
0.000154
0.001586
-0.000281
0.000019
-0.000133
0.000839
0.000440
-0.000260
0.001103
0.001547
0.000467
0.000002
-0.001289
-0.000702
0.000906
-0.000084
-0.000757
-0.001717
0.000848
-0.001453
-0.000328
0.000844
-0.000379
0.000313
-0.001123
-0.001134
0.000100
-0.000032
-0.001389
0.000633
-0.000055
0.000109
0.001426
0.001494
0.000868
-0.000143
-0.000072
0.001605
0.000720
-0.000100
0.001664
0.000197
0.001447
-0.001369
-0.000933
0.001526
0.000183
0.000754
-0.001646
-0.001300
-0.000497
-0.000363
-0.001395
0.000476
0.000161
0.001020
-0.001057
-0.000103
-0.001244
-0.000772
0.000741
-0.001336
0.001006
-0.001293
-0.001113
-0.000085
0.000616
0.000109
0.000087
0.000419
0.001199
-0.001299
-0.001152
-0.000585
0.001582
-0.000117
-0.000977
0.000633
-0.000746
0.001081
-0.001317
0.000701
0.000089
0.001454
0.001267
-0.000909
0.001600
0.000980
-0.000041
-0.000099
-0.000221
-0.000230
0.000270
-0.001468
0.001631
0.000285
-0.000046
-0.000065
0.000194
0.000192
0.000157
0.000500
0.000061
-0.000395
-0.000354
-0.000431
-0.000392
0.000291
0.000810
-0.000477
0.000059
-0.001419
-0.000514
-0.000432
-0.000629
-0.000924
-0.000946
-0.001648
0.000268
-0.000895
-0.000075
0.000279
0.000143
0.000179
-0.000479
0.000261
-0.000396
-0.000364
0.000251
0.000256
0.000047
-0.000896
-0.000442
-0.000097
0.000525
0.000081
-0.000032
-0.000241
-0.000054
0.000115
-0.000029
-0.000065
-0.000282
-0.001423
0.000144
0.000323
-0.000128
-0.001023
-0.000392
-0.000127
-0.000039
-0.000143
-0.001037
-0.000104
-0.001446
-0.000623
0.001485
-0.000411
-0.000916
0.001009
0.000227
0.001349
-0.000030
-0.000796
0.000448
0.000754
0.000058
-0.000868
0.001506
-0.001416
0.000007
-0.000198
-0.000120
-0.001434
-0.000000
0.000127
-0.000014
0.000918
0.001388
0.001467
-0.001171
-0.000118
-0.001366
0.001051
0.000403
0.000056
-0.000044
-0.000072
-0.000253
-0.001011
0.001701
0.000692
-0.000000
-0.000559
0.001116
0.001291
0.000174
0.000867
0.000733
-0.000167
0.000190
0.001118
-0.000131
-0.001504
-0.001044
-0.000441
-0.000581
0.000196
0.000559
-0.000179
0.000579
0.000004
-0.000218
0.000410
0.001162
-0.000858
-0.001371
-0.001133
0.001329
-0.001253
-0.001377
-0.001483
-0.000855
-0.000889
-0.000841
-0.001154
-0.000389
-0.000187
0.000428
0.000347
-0.001572
0.000348
0.000078
0.001225
-0.000165
-0.001026
-0.000013
-0.001332
0.001411
-0.000718
-0.001586
-0.000139
-0.000377
0.000623
-0.000525
-0.000663
0.001706
0.000155
0.000071
-0.000485
0.000624
0.000053
0.000126
0.000433
0.001740
0.000858
0.000355
-0.001090
0.000389
0.000085
0.001716
0.000390
-0.001118
0.000390
-0.000106
-0.000714
-0.000673
-0.001416
0.000186
-0.000085
-0.000967
-0.001225
-0.000057
-0.000117
-0.000305
0.000215
-0.001542
0.000409
0.000382
-0.000998
-0.000010
0.000205
0.000585
0.001321
0.001077
0.001476
-0.000340
0.000118
-0.001557
-0.000610
-0.001595
-0.000078
-0.001195
-0.000548
0.000991
-0.000902
0.000973
0.001547
0.000032
0.001563
-0.001434
-0.001276
0.000100
-0.000392
0.000007
-0.001567
-0.000468
-0.001723
0.000387
-0.000005
-0.000136
0.000419
-0.000234
-0.000100
0.000560
-0.001028
0.000168
0.000298
0.001053
-0.000898
-0.000542
0.000012
-0.000023
-0.000634
0.000931
-0.000199
0.000014
0.000462
0.000265
0.000913
-0.001164
0.000165
-0.000754
0.000907
0.001102
-0.000694
0.000610
-0.001068
-0.000055
-0.000200
0.000089
-0.001671
0.001232
0.000506
0.000998
0.001278
0.000129
0.001299
0.001546
0.001051
0.001056
-0.000854
-0.000904
0.001606
0.001471
-0.000808
-0.000179
0.001327
0.000259
0.000690
0.001108
0.001051
0.000035
0.000377
0.000062
-0.001402
0.001290
-0.001380
0.000084
-0.000031
-0.001650
-0.001287
-0.000393
-0.000271
0.000549
0.001399
0.000479
-0.000014
0.000716
0.000018
-0.001419
0.000039
-0.000506
-0.000462
0.000196
0.001630
-0.000316
0.001022
-0.000378
0.001321
0.001037
-0.000100
-0.000266
-0.000323
-0.000382
0.000122
-0.001601
0.000746
0.000671
0.000187
-0.000020
0.000692
-0.000273
-0.000131
-0.000033
-0.000087
0.000253
0.000015
-0.000023
0.000231
0.001031
0.000059
-0.000176
-0.001296
-0.001149
-0.001061
0.000698
0.000481
0.000618
0.000054
-0.000266
0.000090
0.000516
-0.000470
-0.001070
-0.001678
-0.001434
-0.000325
0.000126
0.000293
0.000342
0.000999
-0.000144
-0.001385
0.000624
-0.000207
-0.000118
-0.000318
-0.000347
-0.000278
0.000692
-0.001252
-0.000002
0.000260
0.000794
0.001022
-0.000433
0.001471
-0.000455
0.000529
-0.000103
-0.000633
-0.000085
0.000374
0.000853
-0.000948
-0.000501
-0.000414
-0.000386
0.000702
0.001402
-0.000836
0.000365
0.000333
0.001242
0.000360
0.000623
0.000636
0.000340
-0.000550
-0.000496
-0.000490
0.000248
0.000116
0.000389
0.000217
-0.001027
0.000275
-0.001740
0.000877
0.000050
0.001584
0.000272
-0.000220
0.000652
-0.001629
-0.000007
0.001432
0.000286
-0.000007
0.000427
0.000226
0.000001
-0.000103
-0.000388
0.000569
0.001309
0.001328
0.000163
0.000135
-0.000102
0.000900
-0.000739
-0.000795
0.001316
0.000216
-0.000486
0.000095
0.001623
-0.001426
-0.000578
-0.000147
0.001145
0.000088
0.000066
0.000644
-0.000063
-0.000029
-0.000189
0.000061
0.000037
0.001002
0.000958
0.001475
-0.000167
0.001736
-0.001478
-0.000029
-0.001308
-0.000166
-0.000347
0.000203
0.000072
0.000175
0.000795
-0.001257
-0.000943
0.000092
-0.001298
0.001403
-0.000748
-0.000076
0.001117
0.000383
0.000207
-0.000735
-0.001315
-0.000182
0.001309
-0.000118
0.001664
-0.000173
0.000970
-0.000079
-0.000195
0.001137
-0.000323
0.001308
0.000038
0.000081
0.000049
0.001074
-0.000333
-0.000420
0.000407
0.000371
0.000362
0.001124
-0.000179
0.000370
-0.001517
-0.000121
0.000116
-0.000423
0.001437
-0.000386
-0.001507
-0.000425
0.000826
0.000042
0.000505
-0.001013
0.000414
-0.000075
0.000458
0.001127
0.000671
0.001037
0.000917
0.000662
-0.000273
-0.001189
-0.000335
-0.000360
-0.000528
-0.000562
0.001343
0.000034
-0.000905
0.000400
-0.001165
-0.001357
0.000069
0.001480
0.001520
0.000483
-0.001605
0.000137
0.000755
-0.000054
0.000818
-0.001715
0.000141
-0.000914
-0.001605
0.000375
-0.000260
0.000293
0.000572
0.001260
-0.000805
-0.000945
-0.000031
-0.000500
0.001505
0.000060
0.000054
0.000013
0.000134
0.001732
0.000052
-0.000031
-0.000136
0.000960
0.001178
0.000263
0.000246
0.000294
0.001114
0.000690
0.000396
-0.000899
0.000105
0.000096
0.000716
-0.001565
-0.000194
0.000597
-0.000236
0.000061
0.000430
-0.001184
0.000070
-0.000685
0.000203
-0.000563
0.000469
0.000314
0.000757
-0.000268
-0.000579
0.000738
0.000566
-0.000026
-0.000080
0.001152
0.000231
0.001207
0.000588
0.000327
0.000707
0.000036
-0.000012
0.000869
0.000339
-0.000851
0.000100
0.000039
-0.000148
0.000794
-0.000568
0.001000
0.000516
-0.001230
0.000000
0.000084
0.000678
-0.001360
0.000090
-0.001226
0.000000
-0.000408
0.000737
-0.000048
0.001584
-0.000928
0.001408
-0.001187
0.001343
-0.001237
-0.001367
0.000698
0.001054
0.001260
0.000961
0.001062
0.000666
-0.001378
0.000801
-0.000014
-0.001088
-0.000235
0.000982
0.000622
-0.001058
-0.001432
-0.000972
-0.000391
0.001111
-0.001072
0.000646
-0.000066
0.000296
-0.000262
-0.000621
0.001125
0.000449
-0.001740
-0.000500
-0.000675
-0.000723
0.000039
0.000108
-0.000343
0.000378
-0.000398
-0.000845
0.000331
0.000864
0.000021
0.000380
-0.000195
-0.000724
0.000063
-0.001408
0.000652
0.000906
0.000526
-0.000988
0.001154
-0.000079
0.001090
-0.000306
-0.000184
-0.000254
-0.000922
0.001651
0.000913
0.001275
-0.000914
0.000185
0.000736
0.001437
0.001134
-0.000000
-0.000299
0.001089
0.001618
0.000207
-0.000853
-0.001392
-0.000590
0.000406
0.001185
0.000955
0.000502
0.001191
-0.001151
0.000121
0.000271
0.000445
-0.000103
0.000198
-0.000398
0.000674
0.001272
-0.000120
0.000177
-0.000035
0.000000
0.001501
-0.000122
-0.000613
0.001347
0.001030
-0.000071
0.001230
-0.001220
-0.000084
0.001177
-0.000002
-0.001561
0.000601
0.001274
0.000841
-0.000018
0.000618
0.000261
0.000353
-0.000216
0.000051
-0.000234
-0.000590
0.000446
-0.000674
-0.000093
-0.000384
0.000137
-0.000306
0.000272
-0.001526
-0.000063
0.001117
0.001004
0.001012
0.000134
-0.001513
-0.000096
-0.000415
0.000705
0.000631
-0.001058
-0.001292
-0.000626
-0.001437
-0.000368
0.001531
-0.000175
0.000522
-0.000945
0.001614
-0.000929
-0.000257
0.000217
-0.000514
0.000934
-0.000070
0.000096
-0.000135
0.001290
0.001229
0.000175
-0.000016
-0.000957
-0.000831
-0.000095
0.000371
-0.000072
0.001203
-0.000424
-0.000053
0.000445
-0.000629
0.001062
-0.000174
0.001530
0.000473
-0.000198
0.000514
0.000550
-0.000561
0.000770
0.000986
0.000493
0.000222
0.000439
0.000353
-0.000049
-0.000440
0.000590
-0.000226
-0.000928
-0.000862
-0.001311
-0.001068
-0.000269
-0.000837
-0.001105
-0.000137
0.000517
-0.000057
0.000946
-0.000503
0.000000
0.000611
-0.000086
0.000546
0.000393
-0.000431
0.000183
-0.000231
0.000161
0.000518
0.000249
0.000670
-0.000408
-0.000371
-0.000097
-0.000083
-0.001466
-0.000008
0.000909
-0.000508
-0.001344
0.000147
-0.000361
0.000253
-0.000060
-0.000603
-0.000788
0.000011
0.000591
-0.000582
0.000960
0.000409
0.000321
0.000293
-0.000312
-0.000046
-0.001409
-0.000818
-0.001453
-0.000277
-0.000271
0.000165
-0.001591
0.001229
0.000302
-0.000261
0.000234
-0.000604
0.000024
-0.000733
-0.000182
0.000536
0.000247
0.000285
0.000486
0.000003
-0.000002
0.001537
0.001711
-0.001341
0.001312
0.001309
0.001309
0.001341
-0.001117
-0.000230
-0.000119
-0.000370
-0.001248
-0.000395
-0.000426
-0.000801
-0.000513
0.000154
0.000206
0.000126
-0.000098
-0.001439
-0.001411
0.000061
-0.000241
0.000105
-0.000081
-0.000151
0.000497
-0.000676
-0.000105
0.000126
0.000217
-0.000195
0.000090
-0.000291
-0.001192
-0.001218
0.000188
0.000087
0.000034
0.000016
0.000006
-0.000007
-0.000027
0.000035
0.000997
0.001511
-0.000268
-0.000494
-0.000894
-0.000026
-0.000282
-0.000477
-0.000584
-0.000891
-0.000261
-0.000355
0.000148
-0.000586
-0.000082
0.001305
-0.001525
-0.000976
-0.000514
-0.001196
0.000155
-0.000170
0.000319
0.000109
-0.001140
0.000111
0.001592
0.000688
0.000039
0.001047
-0.000057
-0.001500
-0.000347
-0.001423
-0.000937
0.000079
-0.000404
0.000560
-0.001229
-0.000596
-0.001511
-0.001525
-0.000207
-0.000103
-0.000232
-0.000057
-0.001511
-0.000157
0.001040
-0.000276
0.000406
0.000172
-0.000049
0.001595
0.001577
0.000562
0.001269
-0.000040
0.000361
0.000024
-0.000579
0.000856
0.000442
-0.000396
0.000178
0.000543
-0.000239
0.000162
0.000112
-0.000802
0.000571
-0.001372
0.001178
-0.000020
0.001688
-0.000317
0.000370
-0.000665
0.000498
0.000260
-0.000129
0.000547
0.001035
0.001275
0.000074
-0.000122
-0.000366
-0.000359
0.000179
-0.000425
-0.001207
-0.000556
-0.001268
-0.000052
0.000088
0.000028
0.000124
0.000674
0.001144
0.001025
0.001410
-0.001278
-0.001280
0.000405
0.000836
0.000701
0.001276
0.000020
0.000182
-0.000055
-0.001246
0.001192
0.000569
0.001344
-0.000189
0.000239
0.000198
0.000829
0.000547
0.000208
0.000255
0.001192
0.001104
-0.001327
-0.001422
0.000306
-0.001010
-0.000201
0.000656
-0.000122
0.001164
0.001558
-0.000934
-0.000004
0.000218
0.000577
-0.000405
-0.000096
-0.000109
-0.001491
0.000769
0.001427
-0.001450
-0.000811
-0.000060
0.001184
-0.000110
0.000293
0.000379
0.001280
0.000323
0.000861
-0.000778
-0.000267
-0.000264
0.001220
-0.000337
0.000646
-0.000292
-0.000244
-0.000393
-0.000034
0.000414
0.001285
0.000455
-0.000347
-0.000999
-0.000992
0.000892
0.000303
0.001045
0.000015
0.000092
0.000217
0.000648
0.000036
-0.000970
0.000244
0.000082
0.001639
0.000031
-0.000078
-0.000076
-0.000450
0.000845
-0.000262
-0.000084
-0.000576
0.000986
0.000044
-0.001283
0.000245
0.000944
0.001472
0.000064
0.001490
-0.000618
-0.000369
-0.000169
-0.000398
-0.000791
-0.001051
0.000070
0.000620
-0.000671
0.001654
-0.000677
0.000106
-0.000716
-0.001103
-0.001143
-0.000074
0.001023
0.000248
-0.000596
-0.000853
0.001110
0.001571
0.000729
-0.001103
-0.000362
-0.001348
-0.000783
-0.000082
0.000111
0.000128
-0.000017
0.000419
0.001044
0.000474
0.001198
0.000834
-0.001701
0.001366
0.001448
0.001205
0.000007
0.001043
-0.001341
0.000192
0.001681
0.001017
0.001569
0.000052
0.000168
-0.001062
0.001371
0.000661
-0.001144
0.000851
0.001264
0.000896
-0.000516
-0.000411
-0.000730
0.000771
-0.000550
-0.000803
-0.001250
0.001630
0.001088
0.000489
0.001051
0.001657
0.000681
-0.001207
0.001204
0.001539
-0.000028
-0.001205
0.001259
-0.001633
0.001453
-0.000668
-0.000945
0.000911
-0.000626
0.000221
0.000282
-0.000437
-0.000919
-0.000897
0.000064
0.001433
-0.000050
0.000104
0.000092
-0.000010
-0.000145
0.001254
-0.001543
-0.000649
0.000641
0.000012
0.000535
-0.000971
-0.000129
-0.001458
-0.001143
-0.000666
-0.000485
-0.000562
0.001298
0.000084
0.000170
-0.000530
-0.001561
0.000845
0.000234
0.001221
0.000241
0.000114
-0.000290
0.000928
0.000930
0.000104
0.000326
0.000116
0.001434
-0.000900
-0.000191
-0.000062
0.001035
-0.001044
0.000711
-0.000000
-0.000105
0.000766
-0.000003
-0.000878
0.000723
0.000309
-0.000719
0.001499
0.000070
0.000015
0.000112
-0.001103
-0.001035
0.001019
-0.000663
0.001513
0.001058
-0.001713
0.000150
-0.000278
0.000998
0.000542
-0.000009
0.000267
-0.000212
-0.001255
-0.000936
0.000655
0.001479
0.000967
-0.001576
0.001220
-0.000168
0.000608
-0.000338
0.000093
-0.000814
-0.000517
-0.001384
0.000534
-0.000456
-0.000310
-0.000193
-0.001305
-0.000002
0.001185
-0.001226
0.000633
0.000055
0.001326
0.000660
0.000347
0.000614
0.000120
0.000653
-0.000321
0.000707
0.000970
-0.001120
0.001089
0.001252
0.001472
-0.001716
0.001432
-0.000629
0.001342
-0.000290
0.001255
0.001282
0.000997
-0.001380
-0.000272
0.001256
-0.001252
-0.000297
0.000778
-0.000443
-0.000106
-0.000386
0.000087
-0.000739
0.000587
0.001100
-0.000010
0.001176
0.000041
0.000827
-0.001141
0.000012
-0.001095
0.000100
-0.001288
-0.000043
-0.000310
-0.000373
0.000251
-0.000873
-0.000062
-0.000601
-0.000825
0.000254
0.000749
-0.000011
0.000599
-0.000634
-0.001118
-0.000006
0.000171
-0.000533
-0.000686
0.000852
-0.000074
-0.001265
0.000163
-0.000779
-0.000174
-0.000166
0.000341
0.001553
-0.001706
0.001022
0.001108
-0.001315
-0.000108
-0.000871
0.000218
-0.000722
0.000961
-0.000298
-0.000322
-0.000231
0.000239
0.000843
-0.000401
0.000034
0.001077
0.001374
0.001195
-0.001139
0.000856
0.000391
0.000105
0.000100
-0.000019
-0.000765
0.000486
-0.000015
-0.000265
-0.000119
-0.000055
0.000877
0.000479
0.000366
0.000038
-0.000055
-0.000403
-0.000466
-0.000188
-0.000220
0.000308
-0.000163
0.000453
0.000517
0.000061
0.000444
0.000134
-0.000267
-0.000090
-0.000229
0.000265
0.000070
-0.001725
-0.001110
-0.000053
-0.000651
0.000462
0.001571
-0.001252
-0.000691
-0.000913
0.000697
-0.000300
0.000485
-0.000507
-0.000451
0.000562
0.000432
0.000977
0.001692
-0.000872
-0.000116
-0.000085
-0.000711
0.000468
-0.000842
-0.000981
0.001375
-0.001261
-0.000078
-0.000267
0.000404
-0.000457
-0.000434
-0.000179
0.001590
-0.000600
0.000414
-0.000845
0.000651
0.001586
-0.000274
0.000716
-0.000068
-0.001154
0.001184
0.000728
0.000691
-0.000052
0.000496
-0.000248
-0.000390
0.000748
-0.000056
-0.001385
0.000155
0.000535
0.000764
0.001556
-0.000817
0.000482
0.000347
-0.000092
-0.000322
-0.000427
0.000606
0.000534
0.000462
0.000477
-0.000131
-0.000269
-0.000858
0.000716
-0.000377
-0.000141
-0.000145
0.000943
-0.000365
0.000825
-0.000172
-0.000158
-0.001043
-0.000264
-0.000416
0.000109
0.000886
0.000210
0.000388
-0.000101
-0.000356
-0.001247
-0.000725
0.000495
0.000114
-0.000060
0.000929
0.000375
0.001007
-0.000343
-0.000670
0.000988
0.000280
0.001021
-0.000299
-0.000065
0.000725
0.000247
0.000020
0.001339
0.000246
-0.000116
0.001169
0.000821
0.000918
0.000423
0.000285
-0.000356
0.000304
0.000621
-0.000483
-0.000600
-0.000314
-0.000304
0.000131
0.001226
-0.000493
0.001047
0.000047
-0.000034
0.000038
0.000740
-0.000915
0.000746
0.000097
-0.000740
-0.000311
-0.000946
-0.000216
-0.000226
-0.000448
-0.000016
0.000198
-0.000033
0.000094
0.000771
0.000094
0.000098
0.001222
0.000138
0.000107
-0.000244
0.000467
0.000121
0.001022
-0.000937
0.000639
-0.000108
0.000140
0.001727
0.000173
0.000222
-0.000780
0.000117
0.000458
-0.000163
-0.001074
0.000048
0.000546
-0.001167
-0.000537
0.000071
0.000062
0.000020
0.000432
-0.000038
-0.000268
-0.000185
0.000940
0.000516
0.000189
0.000998
0.000554
-0.000978
-0.000023
-0.000002
0.000024
-0.000045
-0.000130
-0.001131
-0.000083
-0.000151
0.001226
0.001113
-0.000702
-0.000201
-0.001195
-0.000629
-0.000309
-0.000124
-0.000174
0.000805
-0.000821
-0.000391
0.000182
0.000176
0.000048
-0.000555
-0.000911
-0.001035
-0.000072
-0.000140
0.000169
-0.000933
0.000154
0.001155
0.000579
0.000284
-0.001356
-0.001003
0.000088
-0.000641
-0.001207
-0.000187
0.000606
-0.000956
-0.000136
-0.001717
0.000618
0.000452
0.001034
-0.000378
-0.000290
0.000493
-0.000221
-0.001420
-0.000964
0.000921
-0.000261
-0.001111
-0.001154
-0.000443
-0.000260
-0.001442
-0.001147
0.001191
0.000181
-0.000063
-0.000482
-0.000158
0.000601
-0.000037
0.000259
0.000976
-0.000104
-0.000221
-0.000361
0.000171
-0.000247
-0.000033
-0.000085
-0.001589
-0.000355
-0.000025
-0.001276
-0.000371
-0.000308
-0.000098
0.000270
0.000254
0.000588
0.000458
0.000491
0.000267
0.000021
0.001023
0.000988
0.000238
0.000249
-0.000400
0.000958
-0.000571
0.000008
-0.001051
0.000860
-0.000053
0.000373
-0.000283
-0.000257
-0.000383
0.000803
-0.000034
0.000943
0.000451
0.000611
-0.000692
-0.000508
-0.000010
-0.000048
-0.000443
0.000117
-0.000433
-0.001544
0.000238
-0.000293
0.000234
-0.001097
-0.000257
-0.000179
0.001339
0.001292
0.000043
-0.000124
-0.000417
0.000036
-0.000082
-0.001235
-0.000143
0.000907
0.001453
-0.000182
-0.000757
0.000591
0.000128
0.001007
0.000405
0.001043
0.000271
-0.000946
-0.000197
0.001377
0.000844
0.000928
0.001631
-0.001178
-0.000968
0.001166
0.000499
0.000541
-0.001340
-0.000339
-0.000636
0.000489
0.000086
0.000557
0.000396
0.000396
0.000444
0.000814
-0.000941
0.000906
-0.000961
-0.000127
0.001541
-0.000236
-0.000240
0.000456
-0.000021
-0.000523
-0.001509
0.000180
-0.000959
-0.000524
-0.001257
-0.001238
-0.000204
-0.000270
-0.000292
0.000897
-0.000253
-0.001258
0.001113
-0.001367
0.001146
-0.000133
0.001495
-0.000084
0.000316
0.001130
-0.000325
-0.001305
-0.001328
0.000453
-0.001623
-0.001645
0.000271
0.000747
0.001125
0.001233
-0.001263
-0.000807
0.001273
0.001126
-0.001525
0.000849
0.000785
0.001651
0.001533
-0.001612
-0.000688
-0.000747
0.000283
-0.000018
0.001352
-0.001609
0.001381
0.001691
-0.000367
-0.000008
0.000054
-0.000444
0.000164
0.000163
0.001433
-0.000922
0.001068
-0.000563
0.001131
0.001207
0.000304
-0.000642
-0.001308
0.000184
-0.000738
0.001006
0.000189
0.000308
0.000841
-0.000911
-0.000694
0.000728
-0.000113
-0.000491
-0.001172
-0.000754
-0.000340
0.000225
0.000233
-0.000593
-0.000525
-0.000080
0.001162
-0.000660
-0.001208
0.001538
0.000452
0.001063
-0.001563
-0.001599
0.000806
-0.001214
-0.000189
0.000248
-0.000130
-0.000396
-0.000226
0.000641
0.000184
-0.000910
0.000513
-0.000246
-0.000003
-0.000558
-0.000008
0.000236
0.000203
-0.000255
-0.000452
-0.000034
0.000738
0.000617
-0.000326
0.000136
-0.000315
-0.000078
0.000781
0.001676
0.000286
0.000021
0.000116
-0.001188
0.000810
0.000168
-0.001166
0.000131
-0.000334
-0.000652
0.000706
0.000071
0.000233
-0.001327
-0.000057
-0.001448
-0.000155
0.001042
-0.000299
0.000678
-0.000596
0.000099
0.000375
0.000031
-0.000036
0.000564
0.000341
0.001382
0.001100
-0.000331
0.001267
0.000710
0.000494
-0.001706
-0.001227
0.000702
0.000962
-0.000184
-0.000243
-0.000748
-0.000438
-0.000997
0.000293
0.001141
0.000217
-0.000249
-0.000116
0.001338
-0.000173
-0.000272
-0.000428
-0.001234
-0.000458
-0.001146
0.000041
0.000086
0.001333
0.000260
0.000200
-0.000675
-0.000310
-0.000160
-0.000280
-0.001222
0.001620
0.000574
-0.001689
0.001172
-0.000570
-0.000058
-0.000070
0.000386
0.001697
0.000475
0.000303
-0.000197
0.000505
0.000500
0.000179
0.000918
-0.000538
-0.000057
0.001322
-0.000335
-0.000977
-0.000040
0.000224
0.000671
-0.000033
0.000111
-0.000724
-0.000023
0.000772
-0.000047
0.000107
0.000349
0.000533
0.000569
-0.001073
-0.001487
0.001684
0.000433
0.000973
0.000099
-0.000061
0.000450
0.001171
0.000808
0.000154
0.001298
0.000646
0.000148
0.000416
0.000958
-0.000606
0.000340
0.001497
0.001141
0.000119
0.001192
0.000196
-0.000346
0.001286
-0.001282
0.000938
-0.000347
0.000582
-0.000816
-0.000800
-0.001638
0.001648
0.001573
0.001276
-0.000466
-0.000920
0.000223
-0.001043
0.001550
0.000371
0.000200
-0.000214
-0.001332
0.000170
0.001426
0.000090
-0.001267
-0.000308
-0.001340
-0.000460
-0.000514
0.001169
0.001650
-0.000631
-0.001544
0.000898
0.000325
-0.001331
-0.000552
-0.000931
-0.000287
-0.001282
0.001036
-0.000618
-0.001494
-0.000382
-0.000428
-0.000987
-0.001324
0.001248
-0.000495
-0.001378
-0.001295
0.001270
0.001181
0.001283
-0.000233
-0.001138
0.000483
-0.001078
-0.001197
-0.000468
-0.000734
-0.001401
-0.000196
-0.001394
0.000359
0.000032
0.000407
0.000956
0.000589
-0.000132
-0.000090
-0.000949
0.001029
-0.001675
-0.000372
0.000349
-0.000628
-0.000729
-0.000171
-0.001115
0.000474
-0.000379
-0.001227
0.000553
0.000071
-0.000679
-0.000956
-0.000034
-0.001081
0.000026
-0.000775
-0.000429
-0.000447
-0.001203
0.000291
-0.000225
0.001109
0.000113
0.001201
-0.000661
-0.000276
-0.000102
0.000369
0.000184
0.000527
0.001592
-0.000108
-0.000899
-0.000422
-0.000408
-0.000202
0.001511
-0.000626
-0.001077
-0.000260
-0.000505
0.000107
-0.000054
-0.001098
-0.000904
-0.001047
0.000249
-0.000233
-0.000472
0.000463
0.001222
-0.000645
0.000950
-0.000054
0.000089
0.000754
-0.000328
0.000897
0.001250
-0.000015
-0.000284
0.000169
0.000541
-0.000057
0.001136
0.000919
-0.000412
0.000596
0.000344
0.000002
-0.000258
-0.000219
0.001277
-0.000326
-0.000013
0.000925
0.000288
-0.000612
0.001144
-0.000017
-0.000182
-0.000245
0.000130
-0.000089
-0.000350
0.000062
-0.000010
-0.000064
-0.000642
0.001415
0.000070
0.000295
0.001356
0.000396
0.000422
0.001182
-0.000250
0.000228
0.000084
0.000218
-0.001207
0.000548
-0.000053
0.000103
0.000984
-0.000065
0.000283
0.000214
0.000376
-0.001124
0.000622
0.000138
0.000520
-0.001515
-0.000774
-0.000477
0.000425
-0.000311
0.001076
-0.000851
0.001618
0.000243
-0.000002
-0.000588
-0.000591
-0.001275
-0.000104
-0.001105
0.000172
-0.001148
-0.000578
0.000262
-0.001563
-0.000274
-0.000324
0.000035
-0.000962
0.000754
0.000184
-0.001563
0.001196
-0.001191
0.000421
0.000134
-0.000040
-0.001650
0.000188
-0.001066
-0.000892
-0.000035
-0.000348
0.000282
0.000136
0.000580
0.000014
-0.001014
0.001620
-0.001470
-0.001309
0.000814
0.000130
-0.000669
-0.000069
-0.000155
-0.000315
-0.001411
-0.000105
0.000208
0.000273
-0.000271
0.001299
0.000404
0.001315
0.000682
0.000175
0.001399
0.001630
0.000129
0.001216
0.000703
0.000441
-0.000070
0.001174
-0.001322
0.000932
-0.000361
-0.000387
0.000000
0.000813
-0.001009
0.000856
0.001332
0.000432
-0.000082
0.001170
0.000297
0.001151
0.000836
0.000507
0.000462
0.000233
-0.000134
-0.001045
0.000118
0.001234
-0.001061
-0.000227
0.000572
-0.000123
-0.001558
0.000096
-0.000109
-0.001496
0.000285
0.000034
-0.001511
0.000430
-0.001235
-0.000289
-0.000055
-0.000069
-0.000009
0.000241
-0.000103
-0.001567
-0.000855
-0.000009
0.000719
-0.000526
0.000229
0.000633
0.001196
0.000826
-0.000685
-0.000305
-0.000906
-0.001216
-0.001153
0.001305
-0.001023
-0.001175
-0.000519
0.001126
-0.000011
0.000515
-0.001350
-0.001096
0.001054
-0.000273
-0.001037
0.000024
-0.000052
0.000603
-0.000768
-0.000830
-0.000228
-0.000813
0.000391
-0.000215
-0.000961
-0.000282
-0.001176
-0.001149
-0.000297
-0.000935
-0.001503
0.000145
-0.000100
-0.000879
-0.000071
-0.001484
0.000331
0.000035
-0.000236
0.000748
-0.000198
-0.000059
-0.000020
-0.000754
0.000998
-0.000405
0.001305
-0.000796
0.000108
-0.000497
0.000935
-0.000273
-0.000278
-0.001068
-0.000213
-0.000013
0.001266
-0.000346
0.001456
-0.000199
-0.000211
0.000805
0.000845
0.000144
-0.000251
-0.000024
0.000070
0.000046
-0.000033
-0.000034
0.000583
-0.000430
0.000054
0.000829
-0.000251
0.001030
-0.000054
0.000388
-0.000937
0.000709
0.000088
0.000282
0.000735
0.000661
0.000157
0.000385
-0.000569
0.000188
-0.000090
-0.000610
-0.001477
0.000168
-0.000310
-0.000126
-0.000068
0.000285
0.000176
0.000891
-0.000615
-0.000023
-0.000016
0.001203
-0.000720
0.000023
0.000058
-0.001418
0.000417
0.001734
0.000688
-0.000729
-0.000172
0.001404
0.000417
-0.000665
0.000047
0.000099
-0.000584
0.000166
0.000018
-0.000430
-0.001276
-0.000630
0.000849
0.000869
-0.001407
-0.000711
-0.000077
0.000055
-0.000031
-0.000174
-0.000339
0.000309
-0.000030
0.000441
0.000177
-0.000760
0.000109
-0.000373
-0.000073
0.000005
-0.000120
-0.001357
0.000690
-0.000214
-0.000069
-0.000315
-0.000167
0.001115
-0.000513
-0.000960
0.001019
-0.000600
0.000660
0.000649
-0.000168
0.000525
0.000579
0.000492
0.000483
0.000169
-0.000216
-0.000667
-0.000593
-0.000013
-0.000218
0.001645
0.000229
-0.000008
-0.000357
-0.001547
0.001193
-0.001103
0.000078
0.001234
-0.001175
-0.000070
-0.000231
0.000777
-0.001088
0.000922
0.001553
-0.000664
0.001087
-0.000786
0.000504
-0.001735
-0.001217
-0.000993
0.000398
0.000105
-0.000373
0.000037
-0.000146
-0.000289
0.000392
0.001345
-0.000458
-0.000980
-0.000255
0.001584
-0.000046
0.000462
0.000122
-0.000841
-0.000129
0.000630
0.000053
-0.000138
0.000231
-0.000115
-0.000019
-0.001637
0.001436
-0.000220
-0.000716
-0.000546
-0.001222
-0.001234
-0.000171
-0.000592
-0.000094
-0.000528
-0.000060
0.000022
0.000009
-0.000839
-0.000099
-0.000222
0.000516
-0.000103
-0.000154
-0.000251
-0.000279
-0.000599
0.000444
0.000449
0.000035
-0.000265
0.000339
-0.000273
-0.000293
0.000155
0.000147
0.000627
-0.000269
0.000418
0.000735
-0.000020
-0.000332
0.000659
0.000408
0.000429
-0.000104
0.000713
-0.000283
0.000898
-0.000383
-0.000234
-0.000067
-0.000109
-0.000115
-0.000853
-0.000333
-0.000175
-0.000589
0.000329
0.000025
0.000052
0.000093
-0.001515
-0.000153
0.000430
0.000401
-0.000352
0.001594
0.000752
-0.000206
-0.001023
0.000582
-0.000048
-0.000162
-0.000019
-0.000294
-0.000367
-0.000406
-0.000184
0.000797
-0.000280
0.000594
0.000431
0.000111
-0.000010
-0.000136
-0.001273
-0.000343
-0.000052
-0.000242
-0.000072
-0.000270
-0.000348
-0.000262
-0.000341
0.000560
-0.000088
-0.000370
0.001539
0.001105
0.001146
-0.001112
-0.000738
0.000158
-0.000299
-0.000101
-0.000363
-0.001260
-0.000143
0.000037
-0.000357
0.001010
0.000571
0.000751
-0.000094
-0.001006
0.001283
0.000499
0.000475
-0.000000
0.000356
0.000272
-0.000075
-0.000105
-0.000468
-0.000587
-0.000400
0.000856
-0.000444
0.000353
0.001044
0.000371
0.000338
-0.000464
-0.000070
0.000840
0.000375
0.000135
0.000462
-0.000587
-0.000641
-0.000605
-0.001030
-0.000700
0.000848
0.000159
0.000180
0.000138
-0.000324
-0.000331
-0.000232
-0.000499
-0.000503
0.000322
0.000326
-0.000078
0.000360
-0.000219
-0.000390
0.000120
-0.001088
-0.000235
-0.000359
-0.000180
0.000529
0.000345
0.000054
0.000038
0.000713
0.000707
-0.000544
-0.000649
-0.000602
-0.000449
0.000566
-0.000163
-0.000497
-0.000572
0.000370
-0.000164
0.000150
0.000226
0.000945
-0.000297
-0.000702
-0.000145
-0.000619
-0.000620
0.000448
0.001021
0.000557
-0.000349
-0.000380
-0.000658
-0.000671
-0.000727
0.000316
-0.000304
0.000320
0.000254
0.000265
0.000283
0.000253
0.000073
0.000034
-0.001518
0.000754
0.000829
0.001086
0.000276
0.000760
-0.000831
-0.000799
-0.000654
-0.000685
-0.000586
-0.000509
0.000868
-0.000719
-0.000149
-0.000046
0.001129
0.000974
-0.001299
0.001058
0.001044
-0.000602
-0.000550
0.000220
-0.000768
0.000988
-0.000476
-0.000443
0.001363
-0.000855
0.000580
0.000023
0.000598
0.000281
0.000251
0.000311
-0.000062
0.001300
0.000991
0.000277
-0.001538
-0.000843
0.000970
0.000052
0.000290
0.000298
-0.000802
0.000246
-0.001384
-0.001698
-0.000869
-0.001391
-0.000629
-0.000641
-0.001471
0.000632
0.000628
0.001205
-0.000340
0.000292
0.001358
-0.000453
-0.000071
0.000090
0.000022
-0.000000
-0.000676
-0.000649
0.000071
-0.000748
-0.000769
0.000173
0.001224
0.000150
0.000096
0.000009
0.001646
-0.000345
-0.000610
0.000933
-0.000046
-0.000834
0.000843
-0.000256
0.000197
-0.000753
-0.001451
-0.000677
-0.000075
0.000028
0.000032
-0.000043
-0.001046
-0.000664
0.000035
0.000603
-0.000267
0.000630
-0.000927
0.000048
0.000219
0.001484
-0.000117
-0.000480
-0.000341
0.000028
-0.000683
-0.000474
-0.001532
-0.001399
-0.001007
0.000425
0.000069
0.001535
0.001348
0.001389
-0.000805
-0.000450
-0.000548
-0.000569
-0.000608
-0.000256
-0.000833
-0.000846
0.000065
-0.000245
-0.000197
-0.000997
-0.000189
-0.000222
0.001445
0.000759
-0.000535
-0.000298
-0.000302
-0.000419
-0.000485
-0.000084
-0.000441
-0.000176
0.000028
0.000060
0.000117
0.000108
0.000123
0.000166
0.000184
0.000152
0.000156
-0.000516
-0.000514
-0.000146
-0.000135
-0.000141
-0.000155
-0.001216
-0.000542
-0.000451
0.000124
0.000160
-0.000385
-0.000123
-0.000068
-0.001126
-0.001303
0.000092
-0.000965
-0.000807
-0.000493
-0.000570
-0.000263
-0.000251
-0.000410
0.000216
0.000799
0.001074
-0.000414
-0.000541
-0.000534
-0.001035
-0.001109
-0.001181
-0.001215
0.000163
-0.000488
0.000191
-0.000446
-0.001027
0.000223
0.000433
-0.000715
-0.000184
-0.000411
-0.000552
-0.000604
-0.000596
-0.000063
0.000085
-0.001380
0.000160
0.000223
0.000217
-0.001655
0.000412
0.001577
0.000090
-0.001465
-0.000401
-0.000618
0.000171
0.000220
-0.000681
-0.000318
0.000389
-0.000150
-0.000058
-0.000057
-0.000084
0.001543
-0.000762
-0.001582
-0.001387
0.001100
0.001245
-0.000435
-0.000624
-0.000059
-0.000086
-0.000068
-0.000372
-0.000633
0.001509
-0.000309
-0.000253
-0.000039
0.000130
0.000099
0.000060
0.000058
0.000049
0.000041
0.000005
0.000001
-0.000020
-0.000040
-0.000346
-0.000280
-0.000012
0.000052
-0.000048
-0.000158
0.000485
-0.000230
0.000193
0.000128
0.000096
-0.000361
-0.000974
-0.000967
0.000228
-0.001554
0.000211
-0.000196
-0.000809
-0.000712
0.000423
-0.000195
-0.000246
0.000022
0.000035
0.000033
0.000056
-0.000069
-0.000214
0.001185
-0.000847
0.000151
0.000615
0.001311
-0.001075
-0.001187
-0.001026
-0.000996
0.001150
-0.000084
-0.000164
-0.000271
0.000144
0.000153
0.000616
-0.000426
-0.000016
-0.000025
-0.000151
-0.000713
-0.000172
0.001283
0.001256
0.001024
0.001202
-0.000926
-0.001409
-0.000071
0.001154
0.000268
-0.000738
0.000122
-0.000755
-0.000653
0.000607
0.000138
0.001535
0.000160
0.000064
-0.000108
0.000058
-0.001276
-0.001043
0.000025
-0.000027
-0.000332
0.000211
0.001561
-0.001537
-0.001328
0.000254
0.000241
0.000244
-0.001159
0.001564
-0.000754
0.001549
-0.000234
-0.000918
-0.000176
-0.000401
0.001615
0.000641
-0.000834
0.000695
-0.000250
-0.000361
-0.000682
-0.000676
-0.000000
0.000168
0.000156
-0.000765
-0.000683
-0.000825
-0.001049
-0.000265
0.000110
-0.000939
-0.000892
-0.001299
-0.000342
-0.000355
-0.000320
0.001637
-0.000163
-0.000582
0.001010
-0.000690
-0.000556
-0.000580
-0.000708
-0.000269
0.000678
-0.000493
-0.000104
0.000043
0.000869
-0.000869
-0.000137
-0.000525
0.000163
-0.000146
0.000527
0.000823
-0.000132
-0.000622
-0.000444
-0.000008
-0.000002
-0.000001
-0.000143
0.001297
-0.000354
-0.000440
-0.000136
0.001713
-0.000027
0.000626
0.001271
0.000247
-0.000132
-0.001356
-0.000324
-0.000654
-0.001472
0.000582
-0.001004
-0.000847
-0.000838
-0.000829
0.001337
-0.000648
-0.001095
-0.000781
0.001092
-0.000855
0.001225
-0.000203
-0.001110
-0.000285
-0.000920
-0.000208
-0.001081
0.000342
0.000127
0.000834
-0.000211
0.000494
0.001162
-0.000639
-0.000135
-0.000148
-0.000011
0.001408
-0.001157
-0.001173
-0.000278
-0.000229
-0.000035
-0.001021
-0.000237
-0.000330
0.000557
-0.000748
-0.000074
-0.000122
-0.000276
0.000282
-0.000718
0.001452
-0.000745
0.001330
-0.000123
-0.000109
-0.001691
-0.000282
0.000368
0.001258
-0.000638
0.000441
0.000332
0.000104
0.000000
-0.000007
0.000300
0.001027
0.001567
0.000127
-0.000003
-0.000254
0.001163
0.001414
0.000048
0.001026
-0.000118
0.001072
-0.001062
-0.000163
0.000119
-0.000997
0.001327
-0.000024
-0.000476
-0.000343
-0.000020
-0.000699
-0.001224
-0.000703
0.000938
0.000012
-0.001504
0.000990
0.001371
0.001250
0.000901
-0.000121
-0.000302
0.000236
0.000684
0.000601
0.001375
0.001292
0.001323
0.000568
-0.000015
-0.000327
0.000196
0.000670
-0.000099
-0.000327
0.000131
0.000638
-0.000355
0.000408
0.000322
0.000000
-0.000404
0.000606
-0.000386
-0.001036
-0.000484
0.000973
0.000037
-0.000007
-0.000757
0.000938
0.000799
-0.000271
-0.000499
0.000519
0.000370
-0.000877
-0.000171
0.001525
-0.001184
-0.001153
0.000126
-0.000088
0.000842
0.000118
-0.000861
-0.000900
-0.000476
0.000039
-0.000859
-0.000321
-0.000106
-0.000202
-0.000323
-0.000000
-0.000818
-0.000674
0.000299
0.001562
0.001353
0.000817
0.000828
-0.000246
-0.000837
0.000617
0.000534
0.000450
-0.000600
-0.000057
0.000708
-0.000807
-0.000156
0.001017
-0.000012
0.000167
-0.000298
-0.000333
0.001263
0.000634
-0.000144
0.000375
0.000121
0.000802
-0.000085
-0.000260
0.000187
-0.001445
-0.001117
-0.000224
0.001380
-0.000237
0.000376
-0.000224
-0.000484
-0.000294
-0.000551
-0.000512
-0.001410
-0.001223
-0.000079
-0.000107
-0.000169
-0.001660
0.000061
-0.000670
-0.000319
-0.000051
-0.000370
-0.000143
-0.000191
0.000521
-0.000322
0.000042
-0.000886
-0.001126
-0.001260
-0.001263
-0.001454
-0.000907
-0.000035
-0.000388
-0.001004
-0.001111
0.000266
0.000286
-0.001485
-0.001592
-0.000405
0.000555
-0.000625
-0.001451
0.001482
0.000635
0.000000
0.000168
0.000004
0.000109
0.000595
-0.001631
-0.000377
-0.000773
0.000690
0.000268
0.000376
0.000002
-0.001742
0.000239
-0.000058
0.000263
0.001434
-0.000067
-0.000717
0.001289
-0.000125
0.000563
0.001166
-0.000714
0.001475
-0.000164
0.000309
-0.000339
0.000836
0.001630
-0.000030
-0.001455
0.000160
-0.000196
-0.000427
-0.001507
-0.000196
0.000558
-0.000484
0.000055
-0.000705
-0.000962
-0.000581
0.000244
0.000583
0.000100
0.000313
0.000762
-0.000750
0.000108
-0.001238
-0.000088
-0.000541
0.001650
-0.001135
-0.000001
-0.000138
-0.000497
0.000161
0.000582
0.000525
0.000996
-0.000150
-0.000251
0.000158
0.000357
-0.000135
-0.000557
0.000651
-0.000063
0.001442
0.001135
-0.000566
0.000686
0.000021
0.000076
0.000997
-0.000602
-0.001640
0.001451
0.000977
0.000772
0.000354
0.000285
0.000904
0.000648
0.000076
-0.001462
0.001454
0.001439
0.000639
0.001102
-0.000121
0.000230
0.000737
0.000872
0.000256
-0.000070
0.000039
0.001006
-0.000077
-0.001115
0.000520
-0.000049
-0.000025
-0.000234
0.001061
0.000195
-0.001635
0.000271
0.000128
0.001231
0.001466
-0.000069
-0.000488
0.001293
-0.000503
0.000621
-0.001061
-0.000853
-0.001155
-0.001155
-0.001256
0.000109
0.000350
-0.000088
-0.000595
0.001562
-0.001542
0.001553
-0.000326
0.000076
-0.001534
-0.001598
-0.000156
-0.001269
-0.000508
0.000468
-0.000730
0.000883
-0.000701
-0.000010
-0.000298
-0.001304
-0.000860
-0.000718
-0.000182
-0.001250
-0.000207
-0.000055
-0.001454
-0.000250
-0.001500
-0.000435
0.000144
0.000298
-0.000360
-0.001471
-0.000066
0.001484
0.001526
-0.000673
0.000503
0.000399
0.000033
0.000272
0.000611
0.000358
-0.000250
0.000023
0.000003
0.000072
0.000321
-0.000960
0.000255
0.000554
0.000233
-0.000001
0.000350
0.000016
-0.000190
0.000967
-0.001286
0.000364
-0.000613
0.001147
-0.000490
0.000290
-0.000961
0.000237
-0.000839
-0.000225
-0.000222
0.000344
0.000203
-0.001630
-0.001189
-0.000887
-0.000783
-0.000216
0.000000
-0.000554
-0.000270
-0.000169
0.001659
0.000518
-0.001220
0.000727
-0.000780
-0.000251
-0.001130
-0.001284
-0.000354
-0.000738
-0.001297
-0.000941
-0.000923
-0.000996
-0.001201
0.000845
0.001142
0.000709
0.001433
-0.000309
-0.000740
0.000483
-0.000919
-0.000183
-0.001152
0.001219
-0.000518
-0.000179
-0.000175
0.000072
0.000057
0.001637
0.001352
-0.001233
-0.000377
-0.000391
0.001030
0.001173
-0.000155
-0.000171
0.000006
-0.000408
-0.001293
-0.000814
0.000007
-0.001616
0.000099
-0.000734
-0.000801
-0.000263
0.001600
-0.000882
-0.000933
-0.000938
-0.000184
-0.000212
-0.000232
0.001347
-0.000286
-0.000353
-0.000357
-0.000453
-0.000408
0.000193
0.000170
0.000171
-0.000437
0.001014
-0.000517
-0.000666
-0.000083
-0.000478
-0.000627
-0.000317
-0.000520
0.000358
-0.000369
-0.000636
-0.001165
-0.001145
-0.000244
-0.000062
0.000056
0.000447
0.001588
0.001258
-0.000069
0.000322
-0.000931
-0.000696
-0.000024
0.000011
0.001203
0.001281
0.000276
-0.000977
0.000024
0.001081
0.000114
-0.000116
-0.000171
0.000639
0.000359
0.000030
0.000106
-0.000731
-0.001398
0.000865
-0.000785
0.000704
0.000342
-0.000239
-0.000246
-0.000162
0.000185
0.000281
-0.000026
-0.000156
0.001215
-0.000527
0.000869
-0.000481
-0.001280
0.000741
-0.001248
0.000780
0.001020
0.000202
-0.001486
-0.000474
0.000005
-0.001172
0.000138
0.001305
-0.000970
-0.000326
0.000201
0.000039
0.001206
-0.000192
-0.001415
-0.000019
0.000059
0.000045
0.000560
0.000334
0.000251
0.000195
0.001326
-0.000155
-0.000208
-0.000000
-0.000193
-0.000127
0.000033
-0.000291
0.000790
0.000525
0.000054
-0.000290
0.000500
0.000040
0.000032
-0.000003
0.000379
-0.000034
-0.000221
0.000554
0.000661
0.000056
-0.000071
0.001247
-0.000020
-0.000141
-0.000687
0.000587
-0.000094
-0.000678
0.000940
0.000263
0.000140
0.000415
-0.000219
-0.000193
-0.000252
-0.000281
-0.000309
0.000298
-0.000233
-0.000032
0.000113
0.000580
0.001228
0.000773
-0.000006
0.000314
-0.000088
-0.000172
-0.000023
0.000389
0.000371
0.000055
0.001061
0.000533
0.000524
-0.000551
-0.001030
0.000171
-0.000221
0.000052
-0.000194
0.000486
0.000278
0.000855
0.000318
0.000999
0.000161
0.001419
0.000151
0.000314
0.000768
0.000359
0.001575
0.001115
0.000262
0.000236
0.000093
0.000073
-0.000071
-0.000311
-0.000285
0.001270
-0.000068
0.000323
-0.000000
0.000810
-0.000067
0.000475
-0.000056
-0.000067
-0.000084
-0.000144
0.000643
0.000530
-0.000628
0.000041
0.000104
-0.000421
0.001206
-0.000013
0.000449
0.000240
-0.000490
-0.000462
-0.000401
0.000270
0.000436
0.000287
0.000165
-0.000350
0.000176
-0.000367
-0.000618
0.000756
0.000732
-0.000587
0.000633
0.000476
-0.001052
0.000784
0.000042
-0.000702
-0.000458
0.000303
-0.001562
-0.001281
0.000223
-0.001505
-0.000447
-0.000698
-0.000036
-0.000775
-0.000456
0.000130
-0.000344
-0.000044
-0.000679
0.000501
-0.000415
0.000000
0.000734
-0.000058
-0.000285
-0.000051
-0.000763
-0.000419
0.000691
-0.000171
-0.000422
-0.000828
-0.000387
-0.000587
0.000618
0.000671
0.000347
0.000698
-0.001374
-0.000757
0.000892
0.000237
-0.000720
-0.001034
-0.000415
-0.000486
0.000136
-0.000000
-0.000906
-0.000511
0.000341
-0.000091
-0.000022
-0.000064
-0.000382
-0.000482
0.000282
0.000168
0.000384
0.000456
-0.001084
0.001605
0.000197
-0.000447
0.000488
0.000196
0.000275
-0.000162
-0.000464
-0.000500
-0.000541
-0.000530
-0.000530
-0.000424
-0.000390
-0.000642
0.001399
-0.000668
-0.000876
-0.001086
-0.001145
-0.000164
-0.001278
-0.000973
0.000100
-0.001100
-0.000126
0.000306
-0.000026
-0.000011
0.000085
0.000112
-0.001095
0.001318
-0.001347
-0.001291
-0.000570
-0.000270
-0.001564
-0.000237
-0.001376
-0.001518
-0.001662
-0.000217
-0.000669
-0.000175
-0.001375
-0.001413
-0.001386
0.000370
0.000195
-0.000329
-0.001499
0.000864
0.000731
0.000088
0.000363
-0.000047
0.000149
-0.000919
-0.001089
-0.000370
-0.001210
0.000213
-0.000343
-0.000682
-0.000596
-0.000656
-0.000624
0.000765
-0.000228
-0.000255
-0.000154
-0.000304
-0.000438
-0.000425
-0.000937
-0.000611
-0.000203
-0.000274
0.000849
0.000628
0.000093
0.000702
0.000624
-0.000061
0.000548
0.000539
-0.001331
-0.000253
-0.000860
0.001087
0.000458
0.000224
0.001023
-0.000720
-0.001322
0.000520
0.000176
-0.000080
-0.000711
0.000122
0.000104
0.000060
-0.000138
-0.001010
-0.001102
0.000305
-0.000138
-0.000713
0.001153
0.001104
-0.000539
-0.000468
0.000746
-0.000754
0.001618
-0.000627
-0.000985
-0.001154
-0.000782
-0.000161
-0.000751
0.000162
-0.000390
-0.000509
0.000119
0.001235
-0.000629
0.000496
-0.001358
-0.000080
-0.000154
0.000566
-0.000626
-0.000045
0.000610
-0.001289
-0.001224
-0.001123
-0.001051
-0.001044
-0.000931
-0.000870
-0.000838
-0.000685
-0.000607
-0.000373
-0.000072
-0.000035
-0.000076
-0.000174
-0.000598
-0.000903
-0.001030
-0.001098
-0.001110
-0.000125
0.000738
0.000084
0.000717
-0.000388
0.000077
-0.000770
-0.000519
-0.001439
-0.000519
-0.000552
0.000603
0.000137
-0.001618
-0.000558
-0.000126
-0.001228
0.000397
-0.000845
0.000492
-0.000969
-0.000942
0.000838
-0.000413
0.000133
-0.000402
-0.000408
-0.000090
-0.001548
-0.001253
0.000497
0.000808
0.000019
0.000014
-0.000553
0.000775
-0.000268
0.001277
0.000464
0.000211
0.000147
0.001091
-0.000751
0.000234
-0.000053
0.000255
-0.000105
-0.000047
0.000431
0.001020
-0.000257
0.000445
-0.000036
-0.001127
-0.000005
-0.000048
-0.000205
-0.000195
0.000790
-0.000122
-0.000287
0.001314
-0.000253
-0.001492
-0.000247
-0.001381
0.000513
0.000532
-0.000196
0.000295
-0.000337
0.000440
0.000243
-0.000195
-0.000263
0.000018
-0.000326
0.000714
0.000202
0.000422
0.000091
0.000071
0.000172
0.000182
0.000111
0.000482
-0.001519
-0.001258
0.000228
-0.001523
0.001033
0.000036
-0.000828
0.000091
0.001042
0.000494
-0.000257
-0.000292
0.000189
-0.000213
-0.000145
-0.000316
-0.000370
0.000211
-0.000293
-0.000325
-0.000388
-0.000029
0.000546
0.000491
0.000397
-0.000813
-0.001279
-0.000774
-0.000942
0.000368
-0.000043
-0.000304
0.001038
0.001458
-0.000268
0.001343
-0.000078
-0.000044
0.000380
0.001247
-0.000650
0.000121
0.000968
0.000531
-0.000080
-0.000130
0.000970
0.000900
-0.000001
0.000444
-0.000319
-0.000315
-0.000329
0.001389
0.001464
-0.001090
-0.000196
0.000631
-0.000095
0.000048
0.000379
0.000367
0.000083
0.000424
0.000462
-0.000392
0.000599
-0.000245
-0.000037
-0.000317
0.000191
-0.000019
-0.000365
-0.000425
-0.001007
0.000045
0.000040
0.000171
0.000128
0.000047
0.000040
-0.000000
0.000317
0.000436
-0.000272
0.000618
0.000204
0.000161
0.001105
-0.000911
0.000026
0.000027
-0.000000
-0.000693
-0.000234
-0.001709
-0.000484
0.000321
0.000425
0.000494
-0.000054
-0.000051
0.001066
0.000669
-0.001124
0.000633
-0.000085
-0.001084
0.001034
-0.000976
0.000896
0.000873
0.001072
-0.000800
0.000446
0.000455
-0.000664
0.000706
0.001643
0.000546
-0.001128
-0.000484
0.001534
0.000764
0.000355
0.000497
-0.000281
0.000789
-0.000390
-0.000147
0.000349
-0.001472
-0.001447
0.001202
0.000346
0.000083
0.000032
0.001048
0.000250
0.001045
0.001016
-0.001598
-0.001741
0.000531
0.000303
0.000331
0.000352
0.000179
0.000285
0.000107
0.000177
-0.000438
-0.000441
-0.000509
-0.000546
-0.000439
-0.000595
-0.000579
-0.000617
-0.000308
0.000676
0.000952
0.001139
0.001558
0.001105
0.000820
0.000591
0.000892
0.001102
-0.000075
0.000860
-0.001361
-0.001323
0.001228
0.001014
0.001023
0.000862
0.000851
0.000843
-0.000691
0.001075
0.000271
-0.000516
0.000471
0.000842
0.000557
0.000114
0.000965
0.001027
0.000577
0.000615
-0.000333
-0.000663
0.000670
0.000537
0.000663
-0.000376
-0.001421
0.000784
-0.000139
0.000419
0.001111
0.001482
0.001244
0.000308
0.000765
0.000436
0.001007
0.001006
0.000528
0.000245
0.000897
0.000175
0.000141
0.000212
0.000143
0.000072
0.001282
0.001425
0.001552
-0.000139
0.001172
0.001171
0.001003
0.000010
0.000041
0.000075
0.000080
0.000097
0.000077
0.001527
0.000405
-0.000344
0.000472
0.001654
0.000244
0.000400
0.000074
0.000045
0.000836
-0.000714
0.000886
0.000102
0.000098
0.000531
-0.000174
0.000425
0.000685
0.000371
-0.000825
0.000899
0.000249
0.000562
0.001068
0.000086
0.000600
0.000366
0.000890
0.000194
0.000040
0.001178
0.000864
-0.000298
0.000200
0.001392
-0.000102
-0.000107
-0.000570
-0.000003
-0.001713
-0.001684
-0.001608
-0.001654
-0.001553
-0.001586
-0.001456
-0.001472
-0.001369
-0.001306
-0.001274
-0.001239
-0.001146
-0.001127
-0.001089
-0.001012
-0.000877
-0.000867
-0.000777
-0.000496
-0.000350
-0.000059
0.000187
0.000292
0.000358
0.000463
0.000499
0.000446
0.000332
0.000104
0.000070
0.000035
-0.000662
-0.000352
-0.000684
-0.000706
-0.000706
-0.000703
-0.000723
0.001356
0.001358
0.001432
0.001554
0.001578
0.001420
0.001339
0.001406
0.001528
0.001369
0.001286
0.000671
0.000713
-0.000105
-0.000702
0.000535
-0.001013
-0.000935
0.001395
0.001391
0.001339
-0.000947
0.000836
-0.001104
0.000571
0.000516
-0.000901
0.000609
-0.000870
0.000647
0.001395
-0.000999
-0.000995
0.001039
0.000342
0.000853
0.000499
0.000968
-0.000196
-0.001410
-0.001087
0.000783
-0.000809
-0.000774
-0.000697
0.000915
0.001044
0.000444
-0.000667
0.001437
-0.000489
0.000506
0.001127
0.001113
0.001159
-0.001153
-0.001203
-0.001295
-0.000614
-0.000729
-0.000621
-0.000568
-0.000473
-0.000281
0.000419
-0.001309
0.001007
-0.000420
-0.000457
-0.001100
0.000957
0.001005
-0.000558
-0.000543
-0.000463
-0.000059
-0.000628
-0.001267
-0.000458
0.000662
0.000868
0.001118
0.001101
-0.000775
-0.000796
-0.000601
-0.000656
-0.000487
0.000780
0.001027
0.000806
-0.001020
0.001058
0.001157
-0.001450
-0.001473
-0.001583
-0.000384
0.000969
-0.001356
0.000233
0.000238
-0.001315
-0.000442
-0.001275
0.000328
0.001713
0.001538
-0.000314
-0.000318
0.000781
0.000858
0.001303
-0.001469
0.001528
0.001491
0.001576
0.001655
0.001529
-0.001305
0.000043
-0.000410
-0.001484
-0.001558
0.000683
0.000859
0.001600
0.000685
0.001273
-0.000219
-0.000532
-0.000633
-0.001127
-0.001034
0.000161
0.000976
0.000756
0.001148
-0.001618
-0.000685
-0.001203
-0.000185
0.001095
0.000274
-0.001014
-0.000373
-0.000793
0.000924
0.000887
-0.000858
-0.001347
0.000263
0.000292
-0.001295
-0.000907
-0.000988
0.001152
0.001241
-0.001330
-0.001141
0.000283
0.000768
0.001633
0.001515
0.001462
0.000607
0.000438
0.000351
-0.001545
0.001010
0.001045
0.001055
0.000298
-0.001673
-0.001070
0.001405
-0.001176
-0.001194
-0.001380
-0.000141
-0.000531
0.000283
0.001273
0.000803
-0.000896
-0.000900
-0.000287
-0.000199
-0.000317
-0.000282
-0.001470
0.001154
-0.000426
-0.000847
-0.001574
0.000225
0.000347
0.000336
0.000959
-0.001439
-0.000397
-0.001246
0.000963
-0.000363
0.000489
-0.000472
-0.001345
0.001315
-0.000899
-0.001166
-0.001099
0.001568
-0.000237
-0.000663
-0.000700
0.000578
0.000629
-0.000952
0.000148
0.001239
-0.000606
-0.000423
-0.000240
-0.000201
-0.001579
-0.000543
-0.001145
-0.001447
-0.000239
-0.000480
0.001112
0.000453
0.000628
-0.000527
-0.000102
-0.000107
-0.000346
0.001189
0.001263
-0.000483
0.001624
0.001735
-0.001371
0.001008
-0.000714
0.000068
0.000354
0.000986
-0.000575
0.000030
0.000031
0.000218
-0.001216
-0.001193
-0.001161
-0.000935
-0.000563
-0.000167
-0.000157
-0.000765
0.001593
0.000360
-0.001033
-0.000993
0.000444
0.000364
0.000801
0.000065
-0.001248
0.000513
0.001197
0.000548
-0.001293
-0.000074
-0.000016
-0.000002
0.001640
0.000028
-0.000380
-0.000883
-0.000279
-0.000243
0.001557
-0.000634
-0.000554
-0.000288
0.000022
-0.000642
-0.000445
0.000004
-0.001692
-0.001643
-0.001621
-0.001607
-0.001582
-0.001283
-0.000626
-0.000397
-0.000412
-0.000337
-0.000277
-0.000150
-0.000087
0.000134
0.000283
-0.000096
-0.000165
-0.000065
-0.000102
0.000081
-0.000742
-0.000762
-0.000780
-0.000816
-0.000309
-0.000320
-0.000833
0.000773
-0.000754
0.000786
-0.000205
-0.000984
-0.000142
-0.000145
0.001402
-0.000128
-0.000113
-0.001311
-0.000260
-0.000397
-0.001363
0.000377
-0.001150
-0.000459
-0.001189
-0.000171
-0.000167
-0.000828
-0.000370
-0.001414
-0.000179
-0.000149
0.000136
0.000142
-0.000472
-0.000118
-0.000535
-0.001103
0.001155
-0.000615
-0.000648
-0.000412
-0.000377
-0.000347
-0.000891
-0.000387
-0.000603
-0.000314
-0.000307
-0.000271
-0.000458
-0.000723
-0.001041
-0.000053
-0.000233
0.000826
-0.000302
0.000155
0.000221
0.000216
-0.000187
0.000472
-0.000128
-0.000050
-0.000645
0.000336
-0.000081
-0.000142
-0.000122
-0.000275
-0.000597
-0.000220
-0.001689
-0.000990
0.000100
0.000377
-0.000718
-0.000053
-0.000007
0.000078
0.000172
-0.000000
-0.000181
-0.000740
-0.001281
-0.000515
-0.000096
-0.000748
0.000950
-0.000932
0.000081
-0.000608
0.000136
0.000183
0.000448
-0.000163
-0.000165
-0.001367
-0.000341
-0.000083
-0.000109
-0.001648
-0.000621
-0.000652
-0.000933
-0.000958
-0.000398
-0.000022
-0.001018
-0.001593
-0.001060
-0.001114
0.001191
-0.001496
-0.000061
-0.001497
-0.001613
-0.000013
-0.000633
-0.000864
-0.000765
-0.001578
-0.000068
0.000245
0.000457
0.000556
0.000073
-0.000686
-0.001705
0.000108
0.001253
-0.000423
0.000671
-0.000540
0.000803
0.001676
0.001152
-0.000918
-0.000985
0.000810
0.001101
-0.000951
-0.000678
-0.001089
-0.001064
0.000360
0.001049
-0.000905
-0.000872
-0.000805
-0.000772
-0.000752
-0.000716
-0.000685
-0.000687
-0.000652
-0.000652
-0.000580
-0.000515
-0.000447
-0.000440
-0.000285
-0.000272
-0.000087
-0.000067
-0.000022
-0.000527
-0.000179
0.000883
-0.000650
0.000973
0.000244
-0.000593
0.000140
0.001162
-0.000000
-0.000578
-0.000663
-0.000047
0.000962
0.001234
-0.001312
0.000793
0.000433
0.000241
-0.000483
0.000414
0.000959
-0.001368
-0.001076
-0.001095
0.000820
-0.000976
-0.000479
0.001709
0.000387
-0.000195
0.000054
-0.000618
-0.001003
-0.000165
0.000502
0.000353
0.000391
-0.000222
0.000302
-0.000980
-0.001066
-0.001164
0.000327
-0.000615
-0.000031
0.000041
-0.000466
0.000145
-0.000210
-0.000118
-0.000789
-0.001538
0.000141
-0.001411
0.000499
0.000529
0.000332
0.001118
0.000715
-0.001019
-0.000054
-0.000825
0.000378
-0.000057
0.000056
0.001439
0.000189
-0.000205
0.001461
-0.000034
0.000831
-0.000633
-0.000112
-0.000094
0.000471
0.000141
0.001016
-0.000374
-0.000117
0.001166
0.000334
-0.001204
-0.000973
-0.000939
0.000067
-0.000155
-0.000235
-0.000274
-0.000505
0.000336
-0.001023
-0.000212
-0.000194
-0.001205
0.000729
-0.001320
-0.000616
-0.000036
-0.000256
0.000088
-0.000516
0.000144
0.000210
-0.000708
-0.001319
0.000021
-0.000133
-0.000362
-0.000257
0.001700
0.000113
0.000032
-0.000329
-0.000239
0.000539
-0.000039
-0.000564
0.000617
-0.000346
-0.000933
-0.000716
-0.001535
-0.001518
-0.000873
-0.000843
-0.000574
-0.000862
-0.000070
0.000161
0.001210
-0.000150
0.000066
-0.000548
-0.000720
-0.000934
0.000098
-0.000867
-0.001467
-0.000918
-0.000983
-0.000678
0.000199
-0.000205
-0.001315
0.000367
0.000305
0.000309
0.000141
0.000109
0.001072
0.000146
0.000331
0.001084
0.000309
0.000280
0.000527
0.000269
0.000579
0.000077
0.000650
-0.000448
0.000274
-0.000648
-0.000138
-0.000616
0.000954
0.000899
0.000138
0.000139
0.000672
0.000800
-0.001551
0.001563
0.001218
0.000650
0.000358
0.000377
0.000752
-0.001338
0.000977
0.000640
0.000853
-0.000094
-0.000817
0.001110
-0.001349
0.001262
-0.001223
0.000999
-0.000104
-0.001082
0.000286
0.000511
0.000633
0.001232
0.001355
-0.000861
-0.000216
-0.000553
0.000015
0.000761
0.000075
0.000204
-0.000051
0.000248
0.001144
0.000494
-0.000339
0.000830
-0.000083
-0.000411
0.001111
0.000207
0.001366
-0.001010
0.000083
0.001508
0.000203
0.000185
0.000211
-0.000061
0.000074
0.000653
0.000025
0.000608
0.001143
0.000359
0.000391
0.000002
0.001419
0.000575
0.000055
0.000012
-0.000019
0.000067
0.000830
-0.000041
-0.000043
-0.000025
-0.000011
-0.001548
-0.001631
0.000164
0.000272
0.000377
-0.000000
0.000068
0.000034
0.001383
0.001367
0.000762
0.000344
0.000762
0.000407
-0.001172
0.000761
0.000448
-0.001196
0.000724
-0.000059
-0.000928
-0.001034
-0.001133
-0.000035
-0.000555
0.001455
0.001596
-0.000361
0.000118
0.000764
0.001151
0.001684
0.001447
0.000022
-0.000052
0.000561
0.000249
-0.000972
0.000335
0.000010
0.000107
-0.000884
0.000818
-0.000027
-0.000296
0.001510
-0.000153
-0.000144
-0.000108
-0.000106
0.000009
-0.000002
0.000001
0.000637
0.001021
0.001207
0.000892
0.000013
0.000869
0.000147
-0.000274
-0.000263
-0.000251
0.000616
0.000315
0.000288
0.000184
0.000145
0.000590
0.000376
-0.001286
-0.000248
-0.000355
0.000879
0.001539
0.000009
0.000389
0.000394
0.000219
0.000241
0.000245
0.000593
0.000298
0.000243
-0.000018
-0.001103
0.000310
0.000291
0.001087
0.000417
0.000468
0.000338
0.000226
0.001153
0.001130
-0.000407
0.000929
0.000026
0.000757
0.000092
-0.000065
0.000088
-0.000013
0.000094
0.000103
0.000120
-0.000363
-0.000695
0.000623
-0.000293
0.000030
0.001203
0.000783
-0.000102
0.000393
0.000587
-0.000105
-0.001719
0.000465
0.000465
0.000669
0.000328
0.001599
-0.000783
-0.001006
-0.000024
-0.001252
-0.001141
0.001126
-0.000731
-0.000200
-0.000539
-0.000314
0.000783
0.000633
0.001078
-0.000234
-0.000594
-0.000297
-0.001074
-0.000495
-0.000569
-0.000599
-0.000716
-0.000832
-0.000407
-0.000360
-0.000216
-0.000226
-0.000486
0.001484
-0.001312
-0.001265
0.000832
0.000794
-0.001361
0.001634
0.001403
0.000156
0.000293
0.000266
-0.000405
-0.001491
0.000692
0.000856
-0.000258
-0.000758
-0.000214
0.000287
-0.000161
0.000937
0.000377
-0.000245
-0.000292
0.001257
0.000812
0.000061
0.001476
-0.001395
-0.001310
-0.000392
-0.000170
-0.000244
-0.000163
0.000031
-0.000224
-0.000303
-0.000302
0.000496
0.000320
-0.000068
0.000121
0.000542
-0.000468
0.000757
0.000702
-0.001038
0.000013
0.000236
0.000131
-0.000134
-0.000012
0.000452
0.000244
0.001359
0.001545
0.001515
-0.000254
0.001356
0.000451
0.001607
-0.000231
0.000159
-0.000336
0.000389
-0.000137
-0.000085
-0.000063
-0.001374
-0.001589
0.001605
-0.000432
-0.000390
-0.000877
-0.001053
-0.001045
-0.001008
-0.001049
-0.000846
-0.000895
-0.000944
-0.000993
-0.000944
-0.001254
-0.001051
-0.000198
-0.001320
-0.001064
-0.000144
-0.001169
-0.000213
-0.000243
-0.000282
-0.000279
-0.000335
-0.000358
-0.000407
-0.000428
-0.000452
-0.000458
-0.000456
0.000088
0.000133
0.000197
0.000209
0.000197
0.000197
0.000183
0.000171
0.000190
-0.001204
-0.000139
-0.000124
-0.000126
0.001357
-0.000556
-0.000493
-0.000111
-0.001243
-0.000422
-0.000159
-0.000830
-0.000168
0.000084
0.000090
0.000099
0.000105
0.000114
0.000101
0.000187
0.000197
-0.000944
-0.000085
-0.000604
-0.000160
-0.000330
0.000104
0.001732
0.000261
-0.000361
-0.000112
-0.000425
-0.000674
0.001044
0.000058
-0.000591
-0.000331
0.000779
-0.000510
0.000182
-0.000760
0.000055
0.000095
-0.000159
-0.000275
-0.000550
0.000041
-0.000045
0.000226
0.000291
-0.000921
-0.000897
-0.001356
0.000702
-0.000211
-0.000100
-0.001342
-0.000007
-0.000694
0.000055
-0.001448
-0.000547
-0.001722
0.000976
0.000879
-0.001173
-0.000139
-0.001260
0.001036
0.000799
0.000456
0.000157
0.000259
0.000285
0.000161
-0.000066
-0.000068
-0.000851
0.000311
0.000927
0.000268
0.000398
0.001136
0.000679
0.000334
0.000010
-0.000004
-0.001713
-0.001288
-0.001234
-0.001197
-0.001161
-0.001118
-0.001014
-0.000962
-0.000770
-0.000663
-0.000574
-0.000550
-0.000517
-0.000492
-0.000036
-0.000104
0.000448
0.000515
0.001507
0.001386
0.001332
-0.000232
-0.000722
-0.000691
-0.000768
-0.000857
-0.000900
0.001280
0.001432
-0.001151
0.001311
-0.000928
-0.001074
0.000595
-0.000130
0.000770
0.000733
-0.001120
0.000775
-0.000113
-0.000736
-0.000836
-0.000868
-0.000834
-0.000799
-0.000726
0.000625
0.000572
0.000663
0.000543
-0.001194
0.000763
-0.000968
0.000428
-0.001547
-0.001076
-0.001049
0.000196
-0.000609
-0.001317
0.000206
0.001091
-0.000344
-0.000726
-0.000981
-0.001011
-0.001069
-0.001053
-0.001122
-0.001259
-0.001073
0.000796
-0.001278
-0.000347
-0.000312
0.000218
-0.001326
-0.001055
0.000430
0.001616
-0.000362
0.001075
-0.000525
-0.000807
0.000607
-0.000864
-0.000972
0.000752
-0.001200
0.000013
0.000391
-0.000635
-0.000175
-0.000567
-0.000530
-0.000499
-0.000139
-0.000209
0.000210
0.000962
-0.000465
-0.000335
-0.000313
-0.001257
0.000624
-0.000143
-0.000571
-0.000163
-0.000958
-0.001414
-0.001020
-0.000880
-0.001086
0.000461
0.000406
0.000384
0.000534
-0.001187
0.000937
-0.000094
-0.000044
0.000025
0.000002
0.000008
-0.000012
0.000392
0.000500
0.000360
-0.000124
0.000461
0.000145
0.000021
0.000044
0.000948
0.001234
0.000156
0.000174
0.000832
0.000063
0.000142
0.000165
0.000326
-0.000878
0.000133
-0.000118
0.000187
0.000066
0.000629
0.000121
-0.000753
0.000693
0.000813
-0.000237
0.001200
0.001527
-0.000002
-0.000128
0.000255
0.000314
-0.000444
0.000620
-0.001418
-0.000082
-0.000044
-0.000031
-0.000034
-0.000033
-0.000036
-0.000021
-0.000015
-0.000023
-0.000013
-0.000013
-0.000009
-0.000000
0.000008
0.000001
-0.000004
0.000017
-0.000002
0.000005
-0.000022
-0.000004
-0.000020
-0.000001
-0.000017
0.000001
-0.000008
-0.000008
-0.000011
0.000014
-0.000001
-0.000003
0.000003
0.000021
0.000009
0.000004
0.000003
0.000026
0.000006
-0.000001
0.000018
0.000021
0.000007
0.000003
0.000378
0.000312
0.000412
0.000897
0.001013
0.000763
0.000807
0.000914
0.000993
0.000877
0.001039
0.000257
-0.000169
0.000540
-0.000410
-0.000142
-0.001507
0.000432
0.000384
0.000014
-0.000101
-0.000361
-0.000245
-0.000009
-0.000025
-0.000220
-0.000539
0.001437
0.000654
0.000618
0.001610
-0.000231
0.000067
-0.000255
-0.000349
-0.000069
-0.000178
-0.000439
-0.000451
0.000852
0.000367
0.000107
0.001267
0.001618
0.000844
-0.000117
-0.000254
-0.000254
0.000395
0.000887
-0.000173
0.000287
0.000136
0.001003
0.001438
0.000099
-0.001206
0.001514
0.000255
0.000217
-0.000080
-0.000079
0.000260
-0.000713
-0.001337
-0.001165
0.000193
0.000953
0.000282
0.000807
-0.001032
-0.000026
-0.000806
0.000457
-0.000067
-0.000423
-0.000353
0.001230
0.000633
-0.000436
-0.000008
-0.000016
-0.000957
0.000271
0.000240
0.000324
0.000376
0.000343
0.000428
0.000446
0.000492
0.000067
0.000102
0.001319
0.001389
0.001379
0.001342
0.001260
0.001675
0.000482
0.001320
0.001411
0.000555
0.000592
0.001302
0.000500
0.001293
0.001435
0.000553
0.000421
-0.000334
0.000649
0.001068
0.000963
0.001171
0.000416
0.000855
0.000109
0.000977
0.001059
0.000493
0.000753
0.000356
-0.000286
0.000360
0.000491
0.000176
0.001666
-0.001446
-0.000934
0.001455
-0.000512
-0.001005
0.000009
0.000066
0.000103
0.000130
-0.000772
0.000455
0.000638
0.000831
-0.000111
0.001433
0.000884
0.000586
0.001517
0.000559
-0.000522
0.000137
-0.000077
0.000480
0.000013
0.000026
-0.000551
-0.001185
-0.001484
-0.001732
0.000276
0.001658
0.000299
0.001423
-0.000743
0.000648
0.001072
-0.000526
-0.001201
0.000170
0.000195
0.000172
-0.000959
-0.000471
0.000480
0.000647
0.000981
-0.000503
-0.000272
-0.000114
-0.000309
0.001041
-0.001238
-0.000291
-0.000537
-0.001209
0.000710
-0.000300
0.000087
-0.000357
-0.001355
-0.000015
0.000689
0.000150
-0.000059
0.000009
0.000594
-0.001071
0.001419
-0.000998
0.001478
0.000665
0.000748
-0.001109
-0.000002
0.000530
0.001119
0.000221
0.000232
0.000196
0.000730
0.000813
-0.000334
-0.000652
0.000651
-0.000136
-0.000711
-0.001618
-0.001732
0.000234
0.000134
-0.000664
0.000065
0.001618
0.001503
0.001520
0.001581
-0.000784
0.000030
0.000752
0.000803
0.000979
0.001089
0.000000
0.000953
0.001064
0.000957
0.001268
0.000736
0.001296
0.001356
0.000452
0.001450
0.001396
0.000260
0.001613
0.001086
0.000228
-0.000085
0.000390
0.000324
-0.000915
-0.001499
-0.000875
0.001357
0.000408
0.000425
-0.000563
0.001171
0.001428
0.000007
-0.000424
0.000532
0.000545
-0.000069
0.001191
-0.000857
0.000219
0.000751
0.000342
-0.000351
0.000118
-0.001058
0.000535
0.000604
-0.000323
-0.000318
0.001398
0.001333
0.001325
0.001293
0.001154
0.001700
0.000349
0.000398
0.000448
-0.000097
-0.000096
0.001504
0.000963
-0.000058
0.001076
-0.000262
0.001167
0.000236
-0.000698
0.000094
0.000625
-0.000296
-0.000303
0.001592
-0.000448
0.000449
0.000079
-0.000790
0.000716
0.000089
-0.001195
0.001049
0.000127
0.000770
0.000917
-0.000094
0.000225
0.000309
-0.000643
-0.000418
0.000701
0.000086
0.000463
-0.000433
0.001119
0.000210
0.000734
-0.001630
-0.000315
0.000459
-0.001641
0.000566
0.000522
0.000504
0.000463
-0.001710
0.000787
0.000271
0.000795
-0.000142
0.001541
0.001184
0.001260
-0.000376
0.000406
0.001275
-0.000202
-0.000007
-0.001033
-0.000137
-0.000015
-0.001518
-0.001642
0.000207
0.000163
0.000862
0.001636
0.001671
0.001689
0.001702
0.001635
-0.000149
-0.000209
-0.000269
-0.000387
-0.000681
-0.000836
0.001705
0.001714
-0.000902
0.001674
-0.000962
-0.000752
0.001652
-0.001021
0.001625
-0.001079
-0.000737
-0.001136
-0.000784
-0.000923
-0.000940
-0.000968
-0.001014
-0.001126
-0.001273
-0.001210
-0.001279
0.001325
-0.000543
0.000615
0.000970
-0.000084
0.000054
0.000085
0.000078
0.000500
0.000796
0.000045
0.000813
-0.000019
-0.000056
0.000794
0.000922
0.000897
-0.000034
-0.000167
0.001434
-0.000241
0.000945
-0.000517
0.001343
-0.001434
0.001419
-0.000702
0.001385
0.001076
-0.001527
-0.001291
-0.001283
-0.000622
-0.000528
-0.000281
-0.000309
-0.000616
0.001305
-0.001557
0.001133
-0.000514
-0.000394
-0.000395
-0.000455
0.000168
-0.000657
-0.000902
-0.001240
0.001243
0.000519
-0.000313
-0.000405
0.000086
-0.001249
-0.000411
0.000232
-0.001309
0.000899
-0.000462
-0.000182
-0.000623
-0.000200
-0.001449
0.000569
0.001568
-0.000574
-0.000658
0.000863
-0.000327
-0.000892
0.001646
0.001416
-0.000703
-0.000746
-0.000787
-0.000403
-0.000393
0.001647
0.000330
0.000438
-0.000499
0.000986
-0.001558
-0.001529
-0.001436
0.001651
-0.000081
-0.001472
0.000172
-0.001475
0.001644
0.001733
-0.001529
-0.000040
0.001368
-0.000564
0.000633
0.001718
0.000462
0.000200
-0.000220
0.001295
-0.001034
-0.000566
-0.000937
-0.000938
-0.000130
-0.000723
-0.000001
0.001593
0.000793
-0.001403
-0.001121
-0.001170
-0.000018
-0.000268
-0.000396
0.000858
0.000821
0.000636
-0.000770
-0.000286
-0.000325
-0.000535
-0.000280
-0.001274
0.000197
0.000284
0.000167
0.001593
-0.000531
0.000684
-0.000163
-0.000102
-0.000964
-0.000923
-0.000981
0.000545
-0.000168
-0.001643
0.000497
0.000528
0.000286
0.000319
0.000324
0.000326
0.000000
-0.000407
-0.000310
0.001631
0.001158
0.001136
0.000649
0.000675
0.000403
-0.000079
0.000072
0.000855
0.000872
0.000172
0.000069
-0.000069
0.001041
0.000824
0.000463
0.000334
0.000320
0.001591
-0.000102
-0.000318
-0.000330
0.000327
0.000752
-0.000553
0.000527
0.000517
0.000716
0.000745
0.000106
0.000412
0.000358
0.001007
0.000969
0.000212
0.000643
-0.000163
-0.000682
0.000249
-0.000508
-0.000121
0.000121
0.000994
0.000031
-0.001600
-0.001674
-0.001499
-0.001466
-0.001438
-0.001409
-0.000057
0.000536
0.000439
0.000327
0.000397
-0.000134
-0.000033
0.000033
0.000017
-0.000356
-0.000713
-0.000710
-0.000110
0.000199
0.001635
0.001136
-0.000164
-0.000998
-0.000949
0.000310
0.000319
-0.001274
0.000965
-0.000058
0.000314
0.001208
0.001089
0.000923
0.001090
0.000888
-0.000605
-0.000565
0.000312
-0.001481
0.001003
-0.000550
-0.000123
-0.001194
-0.001629
0.000080
-0.001017
-0.000512
-0.000490
-0.000468
-0.000455
-0.000015
-0.000740
-0.001089
0.001732
-0.000032
-0.000350
0.000237
-0.000664
0.000666
-0.000357
0.000682
0.000755
0.000808
0.000261
0.001058
0.000434
-0.000003
0.000002
0.000933
0.001706
0.000278
0.000497
0.000062
0.000292
0.000311
0.001655
-0.000218
-0.000013
0.000855
-0.000415
0.000178
0.001532
-0.001313
-0.001626
0.000081
0.000750
0.000270
-0.000174
0.001165
0.000907
-0.000210
0.000426
-0.000207
-0.000015
-0.000086
-0.000083
-0.001718
0.000549
0.000499
0.000066
-0.000716
-0.000299
-0.000154
-0.000183
-0.000197
-0.000228
0.001001
0.001074
0.000720
0.001078
0.001056
-0.001158
-0.000797
-0.000930
0.000785
0.000856
0.001443
0.001375
0.000000
0.000000
0.000706
0.001274
0.000276
0.001538
0.001579
0.001559
0.001167
-0.000045
0.001617
0.001627
-0.000647
0.000224
0.001308
0.001499
0.000373
-0.000496
-0.000032
0.001594
-0.001455
-0.000655
0.000016
0.000163
0.000569
0.000033
-0.000069
0.000759
0.000005
-0.000009
-0.000086
-0.000050
0.000987
-0.000012
0.000021
0.000031
-0.001647
-0.001523
-0.001511
-0.001416
-0.001452
-0.001354
-0.001333
-0.000029
-0.000114
-0.000163
-0.000033
-0.000067
-0.000089
-0.000767
-0.000751
-0.000804
-0.000785
-0.000821
-0.000320
-0.000281
-0.000247
-0.000895
-0.000219
-0.000237
-0.000867
-0.000907
0.000191
-0.000958
-0.000979
0.001074
-0.000690
-0.000224
-0.000925
-0.000216
-0.000140
-0.000124
-0.000108
-0.000303
-0.000354
-0.000383
-0.000432
-0.000088
-0.000475
0.001052
0.000142
0.000126
0.001081
0.000840
0.001278
-0.000133
-0.000156
0.000052
-0.001288
0.001078
0.000161
0.000155
0.000902
-0.000481
-0.000161
0.000216
-0.000072
-0.001196
-0.000116
-0.000542
0.000348
0.000994
-0.000512
-0.001206
0.000451
0.001132
0.000108
-0.001655
-0.000245
-0.000611
-0.000081
-0.000105
0.000214
0.000208
-0.000085
0.000271
0.000234
-0.000026
-0.000643
0.000537
0.001095
-0.001676
-0.001437
0.000331
-0.001544
-0.000345
-0.000633
-0.000261
-0.001603
-0.000517
0.000180
0.000210
-0.000042
0.000071
0.000283
-0.001619
0.000634
-0.000914
-0.001543
-0.000286
0.000653
-0.000123
-0.000828
0.000124
-0.001565
0.000996
-0.001059
-0.000138
0.000729
-0.000056
0.001461
-0.000154
-0.000196
0.001238
-0.000249
0.001269
0.001544
0.000065
-0.000164
-0.000145
0.000096
0.000049
0.000006
0.000435
0.000276
0.000164
0.000086
-0.000918
0.001533
-0.000178
0.001389
0.001097
0.000620
0.000629
0.000021
0.000419
0.000551
0.000151
0.000542
0.000526
0.000212
0.000449
0.000031
-0.000125
-0.000122
-0.000119
0.000129
0.000106
0.000663
-0.000115
0.000510
0.000262
-0.000519
-0.000826
-0.001463
-0.001533
0.000592
0.000604
0.000193
0.000460
0.000170
-0.000410
-0.000004
0.001082
0.001451
-0.001210
0.000144
0.001680
0.001680
0.000101
-0.000182
0.001659
0.000049
-0.000181
-0.000202
-0.000188
0.001470
0.000026
0.000167
0.000214
0.000262
0.000801
0.001544
0.000357
0.000397
0.000353
0.000011
0.000055
0.000075
0.000084
0.000104
-0.001151
-0.000695
0.000920
-0.001231
-0.001231
-0.000585
-0.000492
-0.000265
0.000028
-0.000304
0.000026
-0.000478
0.000216
0.000488
-0.000306
0.001428
-0.000400
-0.001322
-0.001155
-0.000448
0.000027
-0.001335
-0.000377
0.000411
-0.001371
-0.000621
0.000073
-0.000172
-0.001482
0.000510
-0.000040
-0.000855
-0.000861
-0.001502
-0.000080
-0.000040
0.000613
0.001655
-0.000337
-0.000600
0.000082
0.000071
0.000044
-0.000068
-0.000052
-0.000897
-0.000119
0.000185
-0.000002
-0.000328
-0.000445
-0.000057
-0.000255
0.000740
0.000193
0.000208
-0.000001
-0.000266
0.000296
-0.000530
-0.000995
0.000422
0.000813
0.000113
0.000042
-0.000169
-0.000121
-0.000034
-0.000019
0.000011
-0.000830
0.000526
0.000557
0.000310
0.000283
0.000315
0.000346
0.000490
0.000226
0.000219
0.000187
0.000526
0.001346
0.001347
0.001355
0.001308
-0.000125
-0.000159
-0.000203
0.000798
-0.000202
-0.000218
-0.000194
-0.000234
0.000341
0.001515
-0.001208
0.000084
0.000130
0.000413
0.000205
0.000038
0.000995
0.000915
0.001054
0.001179
0.000186
0.000200
0.000804
-0.000133
-0.000999
0.000166
0.001597
0.000680
0.000469
0.000447
-0.000495
-0.000083
0.000001
0.000445
0.000502
0.000834
0.001641
-0.000012
-0.000352
-0.000236
0.000417
-0.000153
0.000476
0.000424
0.000399
0.001205
-0.000456
0.001250
-0.000370
-0.000000
0.000347
-0.001003
0.001165
-0.000169
0.000503
0.001011
0.000371
0.000398
0.000670
0.000085
-0.000012
0.000018
-0.000006
0.000000
-0.000593
0.000467
0.000347
-0.000071
0.000760
-0.000251
-0.000217
-0.000231
-0.001332
-0.000270
-0.000294
-0.000311
0.001446
0.000963
-0.000369
-0.000487
-0.001234
0.001540
0.000571
0.000440
0.000757
-0.000809
0.000272
-0.000071
-0.001233
0.000630
0.000390
0.000539
-0.000403
0.000593
-0.000200
-0.000010
0.000010
-0.001206
0.000493
0.000515
0.000470
0.000412
0.000385
0.000359
0.000209
0.000142
0.000600
0.000318
0.000315
0.000267
0.000594
0.000854
0.000916
0.001047
0.001155
0.001254
0.001667
0.000043
0.000019
0.000557
0.000802
0.000016
0.000058
0.000704
0.001013
0.000613
0.001143
0.000446
0.000380
0.001037
0.001030
0.000963
0.000345
0.000681
0.001166
0.001033
-0.000026
0.000784
0.001315
0.000466
0.000387
0.000790
0.000523
0.000558
0.001287
-0.000124
0.000490
0.000787
0.001258
0.000581
0.000301
0.000274
-0.000056
-0.001109
-0.000446
0.000748
-0.000536
0.000198
0.000600
0.000466
0.000857
0.000651
0.001582
-0.000561
0.001224
0.001249
0.001227
0.000187
0.000031
-0.000000
0.000055
0.000084
0.000139
0.000304
0.000410
0.000428
0.000458
0.000505
0.000471
0.000483
0.000502
0.000509
0.000103
0.000035
0.000000
0.000508
-0.000295
-0.000296
-0.000458
-0.000477
-0.000494
-0.000518
-0.000522
-0.000534
-0.000544
-0.000557
-0.000552
-0.000522
0.000637
0.001380
0.001415
0.001400
0.001603
0.001276
0.001243
0.001210
0.000154
0.000169
-0.000093
0.001578
0.001267
0.000191
0.000480
0.000552
0.000140
-0.000458
-0.000223
0.000642
-0.001145
0.001225
-0.001195
-0.001185
-0.001140
-0.000467
0.000423
-0.000065
-0.000316
0.000138
0.000162
0.000190
-0.001165
0.001035
0.001182
-0.000378
-0.000539
-0.001164
0.001124
-0.000027
0.001036
-0.000780
0.001671
-0.000295
-0.000285
0.001500
0.000169
0.000201
0.000775
0.000537
0.001475
0.000355
0.000492
0.000751
0.001634
0.000103
0.000078
0.000074
0.001534
-0.000288
0.000933
0.000629
0.001480
0.000237
0.000215
0.000133
-0.000006
-0.000028
0.000949
-0.000093
-0.000286
0.000552
-0.000637
-0.000445
-0.000284
0.000175
-0.000278
-0.000416
0.000901
-0.000126
0.000222
-0.000055
-0.001275
0.001028
0.000755
-0.000000
0.000036
-0.001088
0.000171
0.000017
0.000016
0.001560
0.001573
0.001593
0.000349
-0.000028
0.000050
0.001397
0.000335
0.000459
0.000990
0.000998
0.001040
0.001082
0.001315
0.001388
-0.000041
-0.000034
0.000707
-0.000025
0.001736
0.000481
0.000512
0.000217
0.000711
-0.000499
-0.000350
0.000290
0.001115
0.000236
-0.000096
-0.000445
-0.000300
0.001681
0.000900
-0.000268
0.000278
0.000433
0.001268
0.000010
-0.000005
-0.001482
-0.001650
-0.001654
0.000138
0.000033
-0.000347
-0.000688
-0.000672
0.000581
0.000956
0.001069
0.000132
0.000054
0.000036
-0.000018
-0.000227
0.000548
0.000853
0.000967
0.000783
0.000094
-0.000231
-0.000158
-0.000044
0.001116
0.000182
0.000179
0.000083
0.000433
0.000804
0.000757
0.001326
0.000439
0.000082
0.000148
-0.000387
-0.000405
-0.000027
-0.000760
-0.000346
-0.000320
-0.000300
0.000000
0.000313
-0.000608
0.000034
-0.000412
-0.000357
0.000582
0.000226
0.000247
0.000063
-0.000820
0.000348
0.000122
-0.000255
0.000144
0.000761
-0.000382
-0.000373
-0.000409
0.000524
-0.000337
0.001525
0.001408
0.001391
0.000096
-0.000342
0.000030
0.000002
-0.001697
-0.001008
-0.000916
-0.000732
-0.000642
-0.000456
0.000171
0.000503
0.000511
0.000172
0.000070
0.000526
0.000543
0.000561
0.000578
0.000596
0.000000
-0.000435
-0.000470
-0.000754
0.001310
0.001444
0.001470
0.001518
0.001409
0.001518
0.001276
-0.001650
0.000152
0.000113
-0.000160
-0.000188
-0.000187
-0.000185
0.001397
-0.000182
-0.000178
-0.000188
-0.000190
-0.001146
0.000584
-0.000161
0.000356
0.001382
-0.001110
0.000260
0.000453
-0.000134
0.000853
0.000335
-0.000184
0.000669
0.000732
-0.001127
-0.000121
0.001326
0.000651
-0.000130
-0.000778
-0.000116
-0.000092
-0.000901
-0.000746
-0.000711
-0.000647
-0.000640
0.000593
0.000113
0.000423
0.000408
0.000610
-0.000716
-0.000575
-0.001461
0.000366
-0.000510
-0.000278
-0.000284
0.000549
0.000487
-0.000206
0.000745
0.001238
0.001040
-0.001072
-0.001184
-0.000630
-0.000443
0.000387
-0.000531
0.001128
-0.000049
0.000281
0.000271
-0.000423
-0.000511
-0.000861
-0.000963
0.000712
0.000140
0.001084
0.000435
-0.000376
-0.000618
-0.000884
-0.000852
-0.000959
-0.001087
-0.001125
-0.001162
-0.001197
-0.001294
-0.000186
-0.000210
0.000030
-0.001226
-0.001328
-0.000971
-0.000994
-0.000944
-0.001031
0.000814
0.000816
-0.001402
-0.000424
0.000369
0.000406
-0.000018
-0.000276
0.000433
0.000350
0.000288
0.000649
0.000658
0.000665
0.000260
0.000190
0.000409
0.001634
0.001548
0.001479
0.000517
0.000506
-0.000401
-0.001122
0.000469
0.000465
-0.000059
-0.000207
-0.000471
-0.000548
0.000530
0.000303
0.001538
0.001493
-0.000101
-0.000453
0.000209
0.000123
-0.000412
-0.000500
-0.000257
-0.000191
-0.000234
0.000777
-0.000278
-0.001504
-0.001088
0.001559
0.000463
0.000492
0.000071
-0.000043
0.000207
0.000000
0.001573
0.001574
-0.001203
0.000660
-0.000172
-0.000576
0.000177
0.000273
-0.000560
0.000286
-0.000716
0.000929
-0.000456
-0.000406
-0.001134
0.000556
-0.000357
0.001532
0.000121
0.001179
-0.000193
-0.000383
-0.001041
0.000093
-0.000000
-0.000266
-0.000270
-0.000333
0.001656
0.001414
0.001238
-0.000100
-0.001356
0.000231
-0.000559
-0.001147
-0.001371
-0.000553
0.000314
0.000013
0.000016
0.000228
-0.000831
-0.000777
-0.001111
0.000408
0.000387
0.000124
0.000024
-0.000087
0.000014
0.000022
0.000181
-0.001681
0.000473
0.000198
0.000508
0.000590
-0.000094
-0.000125
-0.000107
-0.000422
-0.000529
-0.000551
-0.000560
-0.000516
-0.000558
-0.000471
-0.000456
-0.000453
-0.000581
0.000613
0.000626
0.000630
0.001338
-0.000043
-0.000145
-0.000131
-0.000160
0.000572
-0.000216
0.001334
0.001344
0.001361
-0.000196
-0.000217
-0.000214
-0.000232
-0.000449
-0.000230
-0.000147
-0.001206
0.000401
0.000637
0.000488
-0.000130
0.001209
0.000446
0.001188
0.000869
0.000844
-0.000232
0.000174
-0.000035
0.000615
-0.000711
0.000900
-0.000214
0.000499
0.000474
-0.000557
0.001195
-0.000065
0.000447
0.000386
0.000029
-0.000342
-0.000229
0.000036
0.001021
-0.001260
-0.000283
-0.000631
-0.000606
-0.000286
0.000594
-0.000700
0.000517
0.000366
0.000574
0.000562
0.000581
0.000550
0.001072
0.001121
-0.000645
-0.000431
0.000213
-0.000245
0.000199
-0.000177
0.000140
-0.000423
0.000211
0.000152
0.000145
0.000119
0.000085
-0.000647
0.000646
0.001718
0.001613
0.000801
0.000816
-0.000026
-0.000129
-0.000758
-0.000754
-0.000204
0.001539
0.000130
-0.000152
0.000334
0.000645
0.000661
0.000612
-0.000159
0.000369
0.001243
0.001035
-0.001641
-0.000508
0.000128
-0.001447
0.001623
0.000989
0.000585
0.000458
0.000132
0.001266
0.000454
0.000014
0.000971
-0.000794
0.000257
0.000995
0.000854
0.001026
-0.000013
0.000026
-0.001594
-0.001732
-0.001734
-0.001733
-0.001729
0.000098
0.000185
0.000000
-0.000032
-0.000046
-0.000156
-0.000216
-0.000362
0.000662
0.000215
0.000183
-0.000143
0.000140
0.000089
0.000026
-0.000019
-0.000113
0.000065
-0.001031
-0.000211
-0.000955
-0.001039
-0.000204
-0.001052
0.000346
-0.001008
-0.000246
-0.000264
-0.001383
-0.001045
0.000497
0.000855
0.000911
0.000844
0.000904
0.000584
0.000830
0.000876
-0.001428
-0.001440
-0.000248
-0.000231
-0.001493
-0.000270
-0.000249
-0.000249
0.000585
0.000881
-0.000156
-0.000277
-0.000292
-0.000272
-0.000306
-0.000317
0.000057
-0.000248
0.000438
0.000920
-0.000228
-0.000208
-0.000187
-0.000165
-0.000654
-0.000576
0.000410
0.001401
-0.000117
-0.000561
-0.000547
-0.000717
-0.000919
-0.000434
-0.000421
0.000429
0.000629
-0.000147
-0.000932
-0.000257
0.000549
0.001239
-0.000866
0.000504
0.000244
0.000465
0.000455
0.000936
-0.001016
0.000523
-0.000844
0.000455
0.000442
0.000421
-0.000741
0.000407
-0.000052
-0.000409
0.001318
-0.000240
0.000603
-0.000430
0.000228
0.000447
-0.000743
0.000443
0.001254
-0.001633
-0.000203
-0.000389
-0.000173
-0.001118
-0.001130
0.000031
0.001434
0.000647
0.000797
-0.001361
-0.000169
-0.000187
-0.000738
0.000015
-0.000263
-0.000285
-0.000070
-0.000204
0.000228
-0.000502
-0.000433
-0.000101
-0.000059
0.001014
0.000387
-0.000062
0.000007
0.000014
-0.001153
-0.001004
-0.000917
-0.000821
0.000530
0.000561
0.000380
0.000318
0.000326
0.000453
0.000456
0.000138
0.000238
0.000249
0.000217
-0.000245
0.000597
0.000320
0.000678
0.001436
0.001462
0.001486
0.001387
0.001324
0.001637
0.000740
-0.000348
-0.000463
-0.000536
0.000138
0.000106
-0.000100
-0.000941
-0.000701
-0.000697
0.001357
0.001517
-0.000864
-0.000157
0.001394
0.000332
-0.000834
0.000676
0.000680
-0.000242
-0.000386
-0.000418
-0.000389
-0.001136
0.000663
0.000612
0.001384
-0.000152
-0.000898
-0.000763
-0.000689
0.000645
-0.000309
-0.000326
0.000096
0.000116
0.000828
-0.000137
-0.000651
-0.001408
-0.001162
-0.000420
0.000880
-0.000479
0.000482
0.000450
-0.000275
-0.000135
-0.000678
-0.001022
-0.000452
0.000383
-0.000512
0.001048
0.000700
-0.000412
0.001137
-0.000703
-0.001455
-0.001478
-0.000312
0.000864
0.000890
0.000716
-0.000665
-0.000787
-0.000870
-0.000903
-0.000958
-0.001033
-0.001105
-0.001139
-0.001211
-0.001267
-0.000201
-0.000225
-0.001027
-0.000451
-0.001023
-0.001020
-0.000996
-0.000037
0.000820
-0.000174
-0.001372
-0.001384
-0.000231
-0.001399
-0.001299
0.000364
-0.000253
0.000944
0.000015
0.001453
0.000412
0.000347
0.000314
0.000285
0.000252
-0.000243
-0.000277
-0.000300
0.000204
-0.000192
0.001637
0.001553
0.001517
0.001528
0.000444
-0.000696
-0.000049
-0.000176
0.001037
-0.000600
-0.000212
0.000495
0.000441
0.000127
0.000339
0.000317
-0.001268
0.000443
0.000438
0.001045
-0.000174
0.001608
0.000184
0.000122
-0.000563
-0.000422
-0.001100
-0.000295
0.000081
0.000931
-0.000347
0.000428
0.000525
0.000531
0.000115
0.000066
0.000069
-0.000034
0.001663
0.000151
0.000090
-0.000649
-0.000076
-0.001372
-0.000197
0.000727
-0.001280
0.000529
0.000509
0.000471
0.000609
-0.000462
-0.000364
-0.000184
-0.000209
-0.000489
-0.000400
-0.000268
-0.001195
0.000419
0.000768
0.000031
0.000119
-0.000131
0.000150
0.000257
-0.000036
-0.000566
0.000556
-0.000121
-0.000120
-0.000530
-0.000072
0.000993
0.000995
0.000373
-0.000591
-0.000597
-0.001124
-0.001041
0.000143
0.000059
0.000017
0.000440
0.000067
0.000049
-0.000226
-0.000273
-0.000300
0.000000
0.000546
0.000693
0.000722
0.000774
-0.000096
-0.000209
0.001089
0.000807
0.001500
0.000857
0.000498
-0.000039
-0.000109
-0.000102
0.001213
-0.000100
0.001360
-0.001362
0.000959
-0.000329
-0.000272
-0.000343
-0.000334
0.001133
-0.000057
-0.000130
-0.000142
-0.000159
-0.000119
-0.000096
-0.000309
0.000722
-0.000361
-0.000291
0.000831
-0.000286
-0.000368
-0.001379
0.000166
-0.000300
0.000524
-0.000386
-0.000102
0.001314
-0.000285
-0.000030
0.000667
0.000675
0.000642
0.000699
0.000681
0.000251
0.000475
-0.000039
0.000211
0.000880
-0.000306
0.000662
0.000625
0.000431
-0.000675
0.000479
0.000160
0.000992
-0.000987
-0.000692
-0.000054
0.000373
-0.000028
-0.000175
-0.000327
-0.000284
0.000858
-0.000281
0.000624
0.000628
0.000597
0.000748
-0.000936
-0.000652
-0.000041
-0.000068
-0.000094
-0.000147
-0.000172
-0.000207
-0.000309
0.000795
0.000603
0.000581
0.000560
0.000538
0.000551
0.000517
0.000564
0.000816
0.001207
0.000664
-0.000285
-0.000097
-0.000112
0.001624
0.000027
0.000283
0.000059
0.000484
-0.000323
0.000118
-0.000061
-0.000096
0.000036
0.000523
0.000474
0.000419
0.000393
0.000342
0.000436
0.000035
0.000138
0.000267
0.000254
0.000231
0.000647
0.000711
0.000836
0.001122
0.001222
0.001648
0.000255
0.000077
0.000017
0.000245
0.001612
-0.000217
0.000054
0.000648
0.001074
0.000644
0.000591
0.001165
0.000871
0.001162
0.001061
0.001278
-0.000329
-0.000909
0.000284
0.001261
-0.000055
0.000656
-0.000346
0.000064
0.000499
0.001194
0.000105
-0.000705
0.000321
-0.000256
0.001280
-0.000127
-0.000218
0.000316
-0.000340
-0.000052
0.001126
0.000576
0.000983
0.000575
0.000013
-0.000052
-0.000059
-0.000103
0.000020
0.000022
0.000056
0.000071
0.000085
0.000083
-0.000943
0.000543
0.000517
0.000427
0.000438
0.000386
0.000390
0.000587
0.000165
0.000133
0.000100
0.000113
-0.000326
-0.000342
-0.000376
-0.000353
-0.000397
-0.000436
0.000198
0.001055
0.000714
0.001594
0.001558
0.000782
0.000805
0.000083
0.000079
-0.000062
-0.000079
-0.000213
0.000325
0.000353
-0.000217
0.000633
0.000626
0.000357
0.000405
0.000667
0.000617
0.001100
-0.000100
-0.000091
0.000557
0.000369
0.001068
0.000387
0.000567
0.000532
0.000420
-0.000091
-0.000037
0.000507
0.000553
-0.000379
-0.000117
0.000135
0.000892
-0.000389
-0.000378
-0.000405
-0.001145
0.000598
0.000847
-0.000207
0.000000
-0.000075
-0.000305
-0.000309
-0.000312
-0.000288
0.001031
0.000598
-0.000088
-0.000049
-0.000062
-0.000347
-0.000232
-0.000671
0.001130
0.000477
0.000399
-0.000738
0.000996
0.001603
0.000906
0.000969
-0.000412
-0.000868
0.000100
-0.000223
0.000773
0.000774
0.000773
0.000870
0.000376
-0.000665
0.000837
0.000878
0.000882
-0.000367
-0.000743
0.000631
0.000453
0.000028
-0.000388
0.000833
0.000508
0.000497
0.000484
0.000465
0.000819
0.000792
0.001114
0.000470
-0.000266
-0.000359
-0.000339
-0.000417
-0.000424
-0.000369
-0.000251
-0.000042
-0.000076
-0.000092
-0.000373
0.000234
0.000269
0.000387
0.000746
0.000740
0.000781
0.000728
0.000700
0.000130
-0.000060
-0.000070
-0.000083
-0.000283
-0.000339
-0.001357
-0.000000
0.000055
0.000081
0.000164
0.000478
0.000458
0.000472
0.000412
0.000417
0.000137
0.000197
-0.000470
-0.000408
0.001350
0.001387
0.001508
0.001369
0.001357
0.001590
0.001335
0.001246
0.000174
0.001592
0.001725
0.001254
-0.000044
0.000795
0.001213
0.000548
0.000167
0.000621
0.000321
0.001521
0.000694
0.000697
0.000811
-0.000195
-0.001109
0.000853
0.000565
0.000899
0.000121
0.000140
0.000179
0.000928
0.001225
0.001501
0.000149
0.001172
-0.000046
-0.000024
0.001278
0.000369
0.000888
-0.000764
-0.001020
0.000539
0.000493
-0.000388
0.000518
0.000427
0.000200
0.000174
-0.000300
-0.000287
0.000158
0.000174
0.000160
0.000187
0.000199
0.000210
0.000210
-0.000096
-0.000050
-0.000098
0.000349
-0.000424
0.000815
0.000209
0.000065
0.000586
0.000291
0.000063
0.000081
0.000027
0.000057
0.001010
0.000161
0.000154
0.000418
0.000167
-0.000358
-0.000374
0.001472
0.000131
-0.000387
0.000378
0.000361
-0.000378
-0.000052
0.000720
0.000756
0.000733
0.000369
-0.000064
-0.000056
0.000241
0.000959
-0.000779
0.000186
0.000032
-0.000008
-0.000010
0.000138
-0.000029
-0.001230
-0.001402
-0.001291
-0.001347
-0.001397
-0.001671
-0.001572
-0.001610
0.000557
0.000471
0.000498
0.000313
0.000295
0.000259
0.000342
0.000345
0.000348
0.000588
0.000347
0.000364
0.000392
0.000398
0.000405
0.000439
-0.000034
0.000456
0.000417
0.000401
0.000207
0.000356
0.000229
0.000207
0.000207
-0.000420
-0.000441
-0.000463
-0.000459
-0.000477
-0.000493
-0.000507
-0.000533
-0.000519
-0.000529
-0.000538
-0.000566
-0.000510
-0.000566
-0.000495
-0.000465
-0.000449
-0.000438
-0.000433
-0.000491
-0.000416
-0.000589
-0.000612
-0.000608
-0.000383
-0.000634
0.000324
0.000322
0.000355
0.000479
0.000563
-0.000000
-0.000034
0.000770
0.000818
0.000745
-0.001534
0.000324
0.000331
0.000315
-0.001087
-0.001228
0.000618
0.000589
0.000649
0.000671
0.000598
0.000640
0.000629
-0.000183
0.001520
-0.001278
-0.001270
-0.000454
0.000344
-0.001258
-0.000497
-0.000500
-0.000530
-0.001219
0.000068
-0.001322
-0.001310
-0.001014
-0.000081
-0.000071
-0.000060
-0.000059
0.000412
-0.001275
-0.000502
0.000881
0.000939
-0.001391
-0.000144
0.000234
0.000873
0.000928
0.000441
0.000402
0.001117
-0.000474
-0.000532
-0.000435
0.000000
0.000915
0.000519
0.000013
0.000037
0.000062
0.000087
0.000077
0.000111
0.001109
0.000468
0.000485
0.000383
0.001074
0.000492
0.000409
-0.000446
-0.000407
0.000983
0.000853
0.000901
-0.000052
-0.000557
-0.000560
0.000841
0.000885
-0.000586
-0.000610
-0.000582
-0.000633
-0.000654
-0.000686
0.000869
0.000898
0.000888
0.000891
0.000892
0.000915
-0.000960
-0.001383
-0.001275
-0.000672
0.000894
0.000897
0.000513
0.001067
0.001021
0.000152
0.000326
0.000170
0.000534
-0.000030
0.000182
0.000118
0.000919
-0.000374
-0.000402
-0.001388
-0.001347
-0.000102
0.000163
-0.000734
0.000194
0.000188
0.000181
-0.000073
-0.000560
-0.000340
-0.000305
-0.000268
-0.000716
-0.000728
0.000961
0.000369
-0.000274
-0.000261
-0.000248
0.000600
0.000316
0.000343
0.000327
0.000165
0.000135
0.000156
0.000173
0.000129
-0.000328
-0.000345
-0.000619
-0.000669
0.000474
0.000522
0.000444
0.000207
0.000312
0.000154
-0.000072
-0.000698
0.000200
-0.000816
-0.000545
-0.000259
0.000475
0.000449
0.000377
-0.000048
0.000347
-0.000478
0.000477
-0.001038
0.000096
0.000079
0.000112
0.000170
-0.000723
0.000862
-0.000445
0.000686
-0.000205
-0.000746
0.000420
0.000422
0.000083
0.000549
0.000743
0.000332
0.000351
-0.000513
-0.000697
-0.000673
-0.000670
0.000040
0.001090
-0.000517
-0.000224
0.000499
-0.000564
-0.000572
-0.000644
-0.000624
-0.000618
-0.000600
0.000395
-0.000281
0.000187
0.000182
0.000207
0.000194
0.000198
0.000243
0.000279
-0.000424
-0.000433
0.000443
0.000399
0.000031
0.000328
-0.000448
-0.000449
-0.000475
0.000805
0.000812
0.000797
0.000736
0.000294
0.000621
-0.000455
-0.000500
-0.000523
-0.000545
0.000383
0.000592
0.000340
-0.000031
0.000305
-0.000146
0.000208
-0.000096
0.000776
0.001234
0.000331
0.000555
0.000226
0.000244
0.000261
0.000807
0.000799
0.000622
0.000315
-0.000000
-0.000042
0.000333
0.000996
0.000972
-0.000649
-0.000651
-0.000332
0.000449
-0.000426
0.000971
0.000967
0.000948
0.000930
0.000367
0.000392
0.000393
0.000532
0.000242
-0.000564
-0.000395
0.000819
0.000243
0.000073
0.000018
0.000004
-0.000001
-0.000007
-0.000013
-0.000027
-0.000033
-0.000039
-0.000046
-0.000066
-0.000077
-0.000089
-0.000119
-0.000130
-0.000143
-0.000159
-0.000244
-0.000005
-0.000009
-0.000018
-0.000020
-0.000006
-0.000010
0.000003
0.000000
0.000033
0.000033
0.000006
0.000042
0.000046
0.000036
0.000062
0.000055
0.000058
0.000083
0.000090
0.000082
0.000079
0.000103
0.000137
0.000134
0.000164
0.000138
0.000092
0.000384
-0.001633
-0.001644
0.000575
0.000547
0.000467
0.000415
0.000388
0.000363
0.000363
0.000309
0.000310
0.000311
0.000346
0.000344
0.000310
0.000361
0.000377
0.000214
0.000071
0.000000
0.000106
0.000141
0.000174
0.000100
0.000170
-0.000366
-0.000349
-0.000681
-0.000332
-0.000704
-0.000692
0.000094
-0.000031
-0.000690
-0.000686
-0.000662
-0.000724
-0.000315
0.000312
0.000309
0.000272
0.000254
0.000237
0.000220
0.000219
0.000231
0.000204
0.000215
0.000344
0.000697
0.000763
0.000891
0.000921
0.001012
0.001071
0.001181
-0.000090
0.001609
0.000265
0.000247
0.000300
0.000096
0.000067
0.000062
0.000027
0.000028
-0.000009
-0.000009
-0.000027
0.001123
0.000510
0.000090
0.000788
0.001468
0.000795
0.000713
0.000801
0.001442
0.000308
0.000805
0.001150
0.001120
0.000317
0.000844
0.001319
-0.000915
-0.000880
-0.000846
-0.000812
-0.000779
-0.000768
-0.000750
-0.000715
-0.000719
-0.000753
-0.000685
-0.000650
-0.000542
-0.000554
-0.000683
-0.000683
-0.000523
-0.000477
-0.000492
0.000963
-0.000438
-0.000419
-0.000398
0.000498
0.000548
0.000650
0.000758
0.000867
0.000923
0.001034
0.000796
0.000786
-0.000356
-0.000341
0.000089
0.000927
0.000931
0.001083
0.000727
-0.001286
-0.000314
-0.000271
-0.000259
0.000079
-0.000171
-0.000227
-0.000217
0.000892
-0.000721
0.001103
-0.000182
-0.000210
-0.000156
-0.000112
-0.000067
-0.000022
0.001099
0.000887
-0.000039
-0.000028
-0.000036
0.001074
0.001060
0.001042
0.001018
0.000956
0.000951
0.000833
0.001154
0.001044
0.001303
0.000071
0.000021
0.000938
0.001025
0.000942
0.000981
0.001018
0.001140
0.001575
-0.000637
-0.000588
-0.000563
0.000326
0.001267
0.001052
0.001199
0.001256
-0.000573
-0.000574
-0.001313
0.000141
0.001278
-0.000551
0.000108
0.000271
-0.000037
0.000180
0.001026
0.001429
0.001321
-0.000540
-0.000499
-0.000513
-0.000477
-0.000455
-0.000467
0.001279
0.001366
0.000474
-0.001493
0.000142
0.001248
0.000825
0.000825
0.000788
0.000753
0.000754
-0.000286
0.000286
-0.000245
0.000233
0.000285
0.000291
0.000300
0.000270
0.000260
-0.000581
0.000299
0.000259
-0.000699
0.000266
-0.000046
0.000686
0.000754
0.000687
0.000753
-0.000512
-0.000759
-0.000242
0.000262
0.000247
0.000264
0.000264
0.000297
0.000327
0.000287
-0.000427
0.000687
0.000966
0.000997
0.000261
0.001468
0.000668
-0.001546
-0.000088
-0.001586
-0.001497
-0.001593
-0.000885
-0.000656
-0.000399
0.001222
0.001345
0.000276
0.000789
0.000292
0.000904
0.000928
0.000778
0.000798
0.000714
0.000648
0.000664
0.001246
0.000277
0.000554
0.000550
0.000636
0.000483
0.000415
0.001614
0.000356
0.000368
0.000344
0.000358
0.000351
-0.000794
0.000309
0.001360
0.000918
0.000245
0.000688
0.000288
-0.000757
-0.000790
0.000278
0.000191
0.001267
-0.000838
0.000552
-0.000434
0.001296
0.001146
-0.000231
-0.000285
-0.000292
0.000208
0.001407
-0.000589
0.000822
-0.000799
-0.000827
-0.000222
0.000010
0.001390
-0.000015
-0.000900
-0.000756
0.000674
0.000716
0.000398
0.000796
-0.001520
0.000361
0.000424
0.000996
-0.000883
0.001369
0.000064
0.000271
-0.000755
-0.000471
0.000247
0.000249
0.000235
0.000225
-0.000028
-0.000034
0.001062
0.000128
-0.000708
0.000600
0.000274
0.001061
0.000382
0.000623
0.000039
0.000096
0.000177
-0.001656
-0.001642
0.000462
0.000542
0.000177
0.000108
0.000036
-0.000070
0.000105
0.000102
-0.000344
-0.000309
0.000188
0.001328
0.001545
0.001566
0.001303
0.001312
0.000184
-0.000030
0.000000
0.000077
0.000044
0.000051
0.001138
0.000057
0.000216
0.001118
0.001484
0.001630
0.001600
-0.000243
0.001362
0.000319
0.001394
0.001043
0.001374
-0.000613
-0.000575
0.000998
0.000071
0.000045
0.000136
0.000234
0.000249
0.000226
0.000299
0.000316
0.000391
0.000861
0.000832
0.000751
0.000343
0.001499
-0.000300
-0.000330
0.000362
-0.000000
0.000481
0.000551
-0.000137
0.000022
-0.000171
0.000107
-0.000193
-0.000074
-0.000006
0.000006
0.000006
0.001091
0.000049
0.000338
0.000125
0.000190
0.001147
0.000855
0.000816
0.000231
-0.000045
0.000146
0.001371
-0.000908
0.001040
0.000203
0.000183
0.000718
0.000714
0.001718
0.000070
-0.000349
0.000244
0.000253
0.000240
0.000277
0.001561
0.001551
-0.000539
0.000928
0.001058
0.000440
-0.000062
-0.000114
-0.000100
0.000683
0.000212
-0.001455
-0.001069
0.001200
0.000233
0.000249
0.000254
-0.000072
0.000232
0.000232
-0.000101
0.000555
-0.000024
-0.000045
-0.000196
-0.000161
0.000266
-0.000216
-0.000479
0.000100
-0.001545
0.000226
0.000035
0.000105
0.000216
0.000610
0.000676
-0.000158
-0.000249
0.000595
0.000980
0.000071
-0.000285
0.000738
-0.000694
0.000239
0.000933
-0.000198
0.000779
-0.001519
0.001525
0.000116
0.000267
-0.000419
-0.000600
-0.000757
-0.000087
0.000037
0.000254
0.000256
-0.000502
0.000282
-0.000493
0.000739
-0.000008
0.000014
-0.000006
-0.000008
-0.000005
0.000016
0.000002
0.000030
0.000030
-0.000307
-0.001630
-0.001666
-0.001610
-0.001559
-0.001482
-0.001503
-0.001428
-0.001441
-0.001408
-0.001375
-0.001270
-0.001215
-0.001202
-0.001181
-0.001164
-0.001110
-0.001052
-0.001051
-0.000970
-0.000929
-0.000924
-0.000963
-0.000842
-0.000828
-0.000723
-0.000762
-0.000669
-0.000707
-0.000613
-0.000589
-0.000555
-0.000593
-0.000477
-0.000436
-0.000474
-0.000376
-0.000361
-0.000314
-0.000252
-0.000243
-0.000190
-0.000161
-0.000209
-0.000091
-0.000145
-0.000114
-0.000029
-0.000084
-0.000055
0.000028
0.000027
0.000084
0.000140
0.000114
0.000195
0.000250
0.000227
0.000305
0.000338
0.000411
0.000394
0.000479
0.000410
0.000493
0.000505
-0.001263
0.000392
-0.000130
-0.000193
-0.000099
-0.000065
-0.000067
-0.000132
-0.000034
-0.000000
0.000035
-0.000000
0.000105
0.000175
-0.000035
-0.000071
-0.001415
-0.000320
-0.000757
-0.000809
-0.000081
-0.000774
-0.000828
-0.000790
0.001371
0.001411
0.001442
0.001448
0.001473
0.001502
0.001529
0.001441
0.001354
0.001599
0.001609
0.001619
0.001650
0.001662
0.001375
0.001376
0.001677
0.001372
0.001704
0.001265
0.001703
0.001362
0.001234
0.001698
-0.001657
-0.001539
-0.000301
-0.000291
-0.000274
0.001202
-0.001590
0.001346
0.000159
0.001689
-0.000328
-0.000505
-0.000564
-0.000623
-0.000727
-0.000817
-0.000820
-0.000265
0.000160
0.000142
0.000126
0.001171
0.001325
-0.000901
0.000109
-0.000860
-0.000752
0.000091
0.001283
0.001692
-0.000917
-0.000786
-0.000239
0.001340
-0.000858
-0.000932
0.001238
-0.000230
-0.000868
0.001354
-0.000135
0.000445
-0.000942
-0.000878
-0.000959
0.001366
-0.000209
0.000195
0.000181
0.001377
-0.001000
-0.001025
0.001085
-0.000942
-0.000191
0.001385
0.001069
0.001632
-0.001024
0.000161
0.000146
-0.000185
-0.000896
-0.001162
0.001395
0.000586
-0.001000
-0.000830
-0.000877
-0.000892
-0.001035
-0.001102
-0.001145
-0.001114
0.001396
-0.000826
0.000135
-0.001174
-0.000167
-0.001205
-0.000194
0.001463
-0.001214
-0.000209
0.000537
-0.001119
0.000140
0.001332
0.001447
-0.000150
-0.000154
0.000685
0.000762
0.000809
0.001457
0.001442
0.001033
-0.000988
-0.001173
-0.001226
-0.001229
-0.000133
0.000808
0.000033
-0.000800
-0.001081
-0.001095
-0.001085
-0.001072
-0.001091
-0.001019
-0.000994
-0.000961
-0.000928
-0.000568
0.000000
0.000028
0.000100
0.000149
0.000199
0.000805
-0.000118
0.000626
0.000723
0.001548
-0.001340
-0.001243
-0.001271
-0.000203
0.001423
0.001199
-0.000278
-0.000000
-0.000254
-0.000251
-0.000276
-0.000267
-0.000293
-0.000269
-0.000325
-0.000314
-0.000349
-0.000367
-0.000379
-0.000414
-0.000370
-0.000417
-0.000423
-0.000370
-0.000421
-0.000421
0.001409
-0.001105
0.000800
-0.000098
-0.000114
0.000098
-0.000089
-0.001396
0.001391
0.000707
0.000777
0.000607
-0.001272
-0.001294
0.000793
-0.000452
-0.000484
-0.000485
-0.000423
-0.000483
-0.000093
-0.000768
-0.001116
-0.001447
0.000067
0.000046
-0.000284
-0.001241
-0.000560
0.000092
-0.000171
-0.000167
-0.000335
0.001299
0.001511
0.001456
0.001411
-0.000845
-0.000875
-0.000843
-0.000769
-0.000733
-0.000701
-0.000703
-0.000623
0.001123
0.001044
0.000452
-0.001343
0.000112
-0.000519
-0.000150
-0.000017
0.000005
0.000017
0.000026
0.000039
0.000036
0.000050
0.000046
0.000071
0.000081
0.000081
0.000100
0.000092
0.000109
0.000125
0.000133
0.000140
0.000146
0.000143
0.000171
0.000159
0.000176
0.000179
0.000182
0.000193
0.000185
0.000171
0.000186
0.000198
0.000185
0.000171
0.000184
0.000182
0.001128
-0.000551
0.000179
0.001384
0.001388
0.001196
-0.000433
-0.000508
-0.000140
-0.000131
-0.000136
0.000566
-0.001123
-0.001180
-0.000667
-0.000557
-0.001390
0.000086
0.000101
0.000127
-0.000300
0.001279
0.000156
0.000137
0.000173
-0.000555
0.000815
0.000799
-0.000548
0.000709
0.000728
0.000588
0.000529
0.000525
0.000445
0.000746
-0.000248
0.001037
0.000190
0.000150
0.000144
0.000139
-0.000595
-0.000540
0.001347
-0.000121
-0.000106
-0.000438
-0.000524
0.000779
0.000080
-0.001187
-0.001533
-0.001540
0.001194
-0.001098
-0.001239
-0.001266
-0.001227
-0.001250
-0.001321
-0.000692
-0.001414
-0.001415
-0.000592
0.000164
0.000757
0.000690
-0.001224
-0.000996
-0.000375
0.000409
0.001124
0.001030
-0.000575
0.000201
-0.000316
-0.000267
-0.000300
-0.000559
-0.000607
-0.000271
0.000748
-0.001074
0.001117
-0.000640
-0.000716
-0.001434
0.000073
-0.000154
-0.001048
0.000253
0.000196
-0.000424
-0.000453
-0.000519
-0.000583
-0.000775
-0.000804
-0.000566
0.000731
0.000952
0.000842
0.000812
-0.000379
0.000422
0.000212
0.001340
0.000117
0.000191
0.000210
0.000984
-0.000163
0.000392
-0.001138
-0.000437
-0.000351
-0.000678
-0.000377
-0.001354
0.000073
0.000075
0.000075
-0.000602
-0.000833
-0.000890
-0.000944
-0.000907
-0.000997
-0.001072
-0.001119
-0.001154
-0.001145
-0.001188
-0.001235
-0.001282
-0.000299
-0.000244
0.000123
0.000111
-0.000217
0.000405
0.001148
0.001007
0.000113
0.000091
0.000079
-0.000056
0.000062
0.000090
0.000113
0.000129
0.000138
0.000138
0.000137
0.000117
0.000154
0.000151
0.000702
0.000855
-0.001349
-0.001333
0.000179
0.000787
-0.001264
-0.001278
-0.001583
-0.000433
0.000955
0.000820
-0.000972
-0.000993
-0.000947
-0.000870
-0.000087
0.000386
0.000120
-0.000190
0.000777
0.000828
-0.001402
-0.001429
-0.000207
-0.000254
-0.000184
-0.000162
-0.000422
0.000864
0.000191
-0.000928
0.001098
-0.001397
-0.001438
-0.001341
-0.001238
-0.000788
-0.000321
-0.000611
-0.000665
0.000096
-0.000027
-0.000105
-0.000053
-0.000157
-0.000129
0.000785
0.001640
-0.000483
-0.000378
0.000474
0.000373
0.000312
0.000337
0.000324
0.000250
-0.000380
-0.000248
0.000062
-0.000340
-0.000310
0.000216
0.000155
0.000182
-0.000154
-0.000378
0.001415
0.000182
0.000195
0.000207
0.000218
0.000229
0.000241
0.000269
0.000267
0.000178
0.000171
0.000202
-0.000405
0.001497
0.001551
0.001567
0.001541
0.001572
0.001521
0.001672
0.001500
0.000053
0.000085
-0.000648
-0.000708
-0.000749
-0.000783
-0.000788
-0.000826
-0.000164
-0.001511
-0.001492
-0.001528
-0.000412
-0.000358
-0.000101
-0.000026
-0.000637
-0.000536
0.000096
0.000238
-0.000653
-0.000673
0.000819
0.000079
0.000076
-0.000397
-0.000070
-0.000075
0.001084
0.000048
0.000581
-0.000189
-0.000076
-0.000076
-0.000105
-0.000081
-0.000103
-0.000063
0.000946
0.000194
0.000176
0.000210
-0.001613
-0.001680
-0.000155
0.001079
-0.000848
0.001320
-0.000664
-0.000241
-0.001091
-0.000374
-0.000825
-0.000863
0.000765
-0.001030
0.000809
-0.000350
0.000340
0.001494
0.001565
0.001456
-0.000869
-0.000822
-0.000821
-0.000398
-0.001462
-0.000693
-0.000100
0.000151
-0.001502
-0.000436
-0.000116
-0.000087
-0.000177
0.001627
0.001603
0.001502
-0.000291
0.000066
0.000244
0.000150
-0.000641
0.000076
-0.000338
-0.000669
-0.000658
-0.000679
0.000609
-0.000111
-0.000580
-0.000276
-0.000336
0.000074
0.000413
0.000508
0.000065
-0.000072
-0.000412
0.000877
-0.001194
-0.000401
-0.000336
-0.000291
-0.000307
-0.000209
-0.000278
0.000571
0.001158
0.001043
0.001020
0.000962
-0.000321
0.001262
-0.000062
-0.000670
-0.000703
-0.000637
-0.000598
0.001480
-0.001281
-0.001023
-0.001085
-0.001058
-0.001087
0.001237
0.000426
0.000456
-0.000284
0.000655
-0.001203
-0.001240
0.001688
0.001713
0.001503
0.000188
-0.001560
-0.000826
-0.000849
-0.000510
0.000174
0.000115
-0.001237
0.000103
0.000103
0.000118
0.000102
0.000096
0.000079
0.000081
0.000063
0.000075
0.000074
0.000073
0.000083
0.000068
0.000053
0.000063
0.000049
0.000043
0.000039
0.000032
0.000034
0.000030
0.000025
0.000017
0.000009
0.000005
-0.000007
-0.000012
-0.000018
-0.000023
-0.000027
-0.000040
-0.000390
0.000128
-0.000449
-0.000492
0.000128
0.000179
0.000200
-0.000761
0.000049
-0.000341
0.000690
0.000045
0.000078
0.000303
-0.000176
-0.000151
0.000437
0.000546
0.000400
0.001169
0.001103
-0.000185
-0.000676
0.000644
0.001633
0.001601
-0.000139
0.001055
0.001194
0.000143
-0.000205
-0.001352
-0.000240
-0.000564
-0.000585
-0.000497
0.000070
0.000102
0.000115
-0.000537
-0.000519
-0.000195
-0.000143
0.000227
-0.000714
-0.000279
-0.000518
-0.000612
-0.000335
0.000052
-0.001059
0.000090
0.000118
0.000094
0.001469
0.000134
0.000147
0.001427
0.001432
-0.000391
-0.001495
-0.000674
-0.000586
-0.000623
0.001103
0.000130
0.000168
-0.000632
-0.000351
-0.000074
-0.001529
0.000089
-0.000741
0.000020
-0.000141
0.000067
-0.000030
0.000008
0.000357
0.000626
0.000430
-0.000025
0.000053
-0.000050
0.000880
-0.000124
-0.000131
0.000045
0.000035
-0.000057
-0.000260
-0.000918
0.001025
-0.001030
-0.001325
0.000224
-0.001287
0.000969
0.000091
0.000092
0.000048
0.000630
0.000903
-0.000462
-0.001062
0.001492
-0.000105
-0.000510
-0.000435
-0.000482
-0.000369
-0.000340
0.000833
0.000941
-0.001079
-0.000076
0.000272
0.000330
-0.001037
0.000059
0.000550
-0.000273
-0.000309
0.000309
-0.001219
-0.001054
0.000081
-0.000419
0.000744
0.000770
-0.000241
0.001596
0.000585
-0.000425
-0.000286
-0.000250
0.000131
-0.000916
0.001577
0.001196
0.001226
0.001084
0.000667
-0.000155
0.000164
0.000154
0.000063
-0.000031
0.001158
-0.000858
0.000623
-0.001123
-0.000381
0.000195
-0.000533
-0.000497
-0.000571
-0.000767
0.000153
0.000320
0.000472
0.000550
-0.000297
-0.000106
-0.000174
0.000908
-0.001266
-0.000210
-0.000633
-0.000184
-0.000161
0.001212
-0.000145
-0.000109
-0.000237
-0.001387
-0.000070
-0.001322
0.001275
0.001186
0.000285
0.000361
0.000250
-0.000548
-0.000407
0.001511
0.000028
-0.000259
-0.000188
0.000933
-0.000087
0.000056
0.000188
0.000042
-0.000140
0.000055
0.000054
0.000053
0.000056
0.001195
0.000765
-0.000085
-0.000099
-0.001027
0.000109
-0.000890
-0.000862
0.000035
-0.000449
0.000066
0.000167
-0.000963
-0.000324
-0.000260
-0.001256
-0.001211
-0.001426
-0.000813
-0.000824
-0.000884
-0.000922
-0.000071
-0.000471
-0.000425
-0.000767
-0.000630
0.000971
0.000153
-0.001162
-0.001115
-0.001080
-0.000000
-0.000292
0.000371
0.000391
0.000350
0.000315
0.000202
0.000217
-0.000737
0.000158
0.000563
0.000746
-0.000293
0.000159
0.000008
0.000154
-0.001651
0.000382
0.000264
-0.000387
0.000289
0.001609
0.001721
0.000729
-0.000615
-0.000736
-0.000756
0.000759
-0.000920
-0.000184
-0.000963
-0.000881
-0.000859
-0.001155
0.001337
0.000421
0.000384
0.001478
0.000363
0.001189
-0.000528
-0.001179
-0.000102
0.000755
-0.000247
0.000730
0.000276
0.000256
0.000754
-0.000321
-0.000194
0.000272
0.000719
0.001056
0.000231
0.001071
-0.000575
0.000963
0.000937
0.000701
0.000236
0.000340
-0.000532
0.000950
0.001085
-0.000415
0.001567
0.000704
0.000398
-0.000885
0.001038
-0.000009
-0.000273
0.000444
0.001141
0.000929
0.001194
-0.000489
0.000895
-0.000494
-0.001244
0.000893
-0.001226
-0.000497
0.001115
0.000933
-0.000467
-0.000528
-0.000438
0.001080
-0.000439
-0.000410
0.001115
0.001174
0.000799
0.001231
0.001210
-0.000561
-0.000589
-0.000582
-0.000606
-0.000639
-0.000628
-0.000682
0.001287
-0.001229
0.001020
0.000789
-0.000527
0.000612
0.000456
0.000117
0.000743
0.000669
0.000612
0.001310
0.000089
0.001265
0.000567
0.000133
0.000061
0.000184
0.000039
0.000630
0.000219
0.000245
0.000281
0.000020
-0.000475
-0.000471
-0.001594
-0.000533
0.000635
0.000307
0.000884
0.000395
-0.001015
-0.000561
-0.000405
0.000098
-0.000076
-0.000065
-0.000025
-0.000037
-0.000029
-0.000025
-0.000028
-0.000029
-0.000009
-0.000012
-0.000006
-0.000003
0.000005
0.000002
0.000002
0.000013
0.000008
0.000007
0.000016
0.000005
0.000012
-0.000445
-0.001624
-0.001562
-0.001482
-0.001386
0.000425
0.000425
0.000433
0.000385
0.000031
-0.000799
0.001382
0.001512
0.001617
0.001256
-0.000886
-0.000227
0.001124
-0.000971
-0.000982
0.001130
0.001110
0.001104
-0.000991
0.001081
-0.001137
0.001356
0.001408
0.001038
0.001026
-0.001207
0.001491
-0.001354
0.001367
0.000301
-0.000362
-0.000387
-0.000391
-0.000425
-0.000398
-0.000397
0.001288
-0.000109
0.000367
-0.001540
-0.000269
-0.000120
0.001332
-0.000479
0.000433
0.000176
0.001089
-0.000329
-0.000594
0.001086
-0.000382
-0.000013
-0.000513
0.000993
0.000984
-0.000548
-0.000579
-0.000555
0.001111
-0.001282
0.001738
0.001642
0.000822
-0.000197
-0.000734
0.000777
0.000348
0.001100
0.000012
0.001719
0.000088
-0.000365
0.001189
0.000778
-0.000043
0.000050
0.000018
0.000008
-0.000127
-0.000176
-0.000271
0.000675
-0.000839
-0.001697
-0.000246
-0.001079
-0.001199
-0.001160
-0.001303
0.000732
0.000622
-0.000956
-0.000117
-0.000862
0.000909
0.001221
0.000042
-0.001692
0.000723
-0.000186
0.000053
0.000517
-0.000306
-0.000117
-0.001672
-0.001654
-0.001655
-0.001605
-0.001625
-0.001602
-0.001613
-0.001494
-0.001463
-0.001432
-0.001298
-0.000433
-0.000312
-0.000279
-0.000188
-0.000184
-0.000118
-0.000087
-0.000145
-0.000057
-0.000159
-0.000129
-0.000098
0.000034
0.000139
0.000070
0.000369
-0.000109
-0.000969
-0.000998
-0.000987
0.001075
-0.001022
0.000325
0.000338
-0.001256
0.001546
-0.000745
-0.000720
-0.000617
-0.000547
-0.000479
-0.000484
-0.000408
-0.000400
-0.000358
-0.000327
-0.000315
-0.000243
-0.000228
-0.000199
-0.000156
-0.000130
-0.000112
0.000000
-0.001204
0.001081
0.001448
-0.001517
0.000000
-0.000239
0.000806
-0.000528
0.000164
0.000205
0.000273
-0.000117
-0.000570
0.001335
-0.001092
0.000783
0.000818
0.000219
0.000257
-0.000187
-0.000763
0.000339
0.000329
-0.000378
0.001371
0.000135
0.001203
-0.000587
0.001007
0.000370
0.000315
0.000378
-0.001585
0.001000
0.000355
-0.000601
-0.000427
-0.000293
-0.001247
0.000630
0.000359
0.000340
-0.001298
-0.000105
0.001259
-0.000236
0.001327
0.000171
-0.000616
0.000978
0.000522
-0.000009
-0.000006
0.000415
0.000549
0.000320
-0.000032
-0.000520
0.001561
-0.000204
0.000338
0.001416
-0.000301
0.000022
0.000087
-0.001068
0.000920
-0.000018
0.000928
0.000025
0.000148
0.000049
0.000098
0.000382
-0.001269
0.000232
0.000162
0.000179
0.000162
-0.000026
0.000046
0.000325
0.000534
0.000151
0.000126
0.000173
0.000147
0.000585
0.000448
-0.000644
0.000111
-0.001082
0.000225
0.000722
0.000392
0.001414
0.000757
0.000024
-0.000165
-0.000361
-0.000406
0.000829
0.000237
0.000232
0.001043
0.001403
0.000790
0.000124
0.001500
0.001455
-0.001017
-0.000576
-0.000569
-0.000105
-0.000526
0.000701
0.000112
0.000130
0.001014
0.000030
0.000051
-0.000561
-0.000551
0.001121
0.000795
-0.001280
0.000138
0.000182
-0.000540
0.000688
-0.000444
-0.000394
0.000956
0.000164
0.000877
-0.000376
-0.000045
-0.000513
-0.000191
-0.000170
-0.000361
0.000397
0.001605
0.000553
-0.000657
-0.000709
-0.000750
-0.000785
-0.000824
0.000062
-0.000357
0.000192
0.000096
0.000847
0.001548
-0.001447
0.000123
0.000059
0.001717
0.000060
0.000007
0.000924
0.001382
-0.000043
0.000398
0.000103
0.000103
0.000080
0.000074
0.000003
-0.000036
0.000151
0.000101
0.000423
0.000227
0.000932
0.000624
0.000228
-0.000897
-0.000897
0.000682
0.000146
-0.000683
-0.000634
-0.000315
0.000301
-0.000415
0.001212
-0.000136
-0.000482
-0.000106
0.000331
0.000298
-0.000314
0.000230
-0.000815
0.000699
-0.000064
-0.000110
-0.000964
-0.000446
0.000976
-0.000001
0.000363
0.000378
0.001177
0.000256
0.001160
0.000220
0.001518
0.000857
-0.001130
0.001066
0.001003
0.001195
0.000658
-0.001074
-0.000050
0.000245
0.000287
0.000289
0.000649
0.001341
0.001314
0.000285
0.000321
-0.000063
-0.000083
-0.001338
0.000743
0.000723
0.000021
-0.000000
0.000290
0.000005
0.000483
0.001308
0.001322
0.000807
0.000588
0.000576
0.000593
0.001187
-0.000140
-0.000528
0.000484
0.000411
0.000817
0.000802
0.000739
0.000197
0.000069
-0.000557
-0.001150
-0.001099
0.000480
0.000406
-0.000462
0.000246
0.000277
0.001435
0.000742
0.000102
-0.000956
0.000265
0.000638
-0.000334
-0.000003
0.000481
0.001583
-0.000680
0.000233
-0.000021
-0.000040
-0.000503
0.000248
-0.000423
-0.001177
0.000032
-0.000929
-0.001546
-0.001664
0.000278
0.000069
0.000135
0.000809
0.000931
0.001247
0.000807
0.000863
0.000978
0.000203
0.000097
0.000988
0.000915
0.000986
0.000933
0.000149
0.000154
0.000180
0.000182
0.000169
0.000067
0.000129
0.000201
-0.000128
-0.000106
-0.001068
-0.000104
0.000760
0.000169
-0.000291
0.000244
0.000270
0.000012
-0.000059
-0.000302
0.001014
-0.000604
0.000185
0.000264
0.001511
0.001173
-0.000861
0.000437
0.000721
-0.001245
0.000317
0.001692
-0.000191
0.000601
-0.000564
0.000798
0.000000
-0.000210
0.001215
0.000292
0.000174
0.000139
0.000035
0.001299
0.001216
0.000785
0.001563
0.000114
-0.000881
-0.000470
-0.000370
0.001358
0.000064
0.001414
0.000423
-0.000081
-0.000111
0.000024
0.000035
0.000446
0.000465
0.000007
-0.001499
0.000088
0.000080
0.001536
-0.000807
0.000356
0.000848
0.001184
-0.000075
0.000629
-0.000189
-0.000209
-0.000062
0.000164
-0.000277
-0.000410
-0.000876
-0.000803
0.000066
-0.000094
0.000293
0.000020
0.000028
0.000110
0.000195
0.000218
0.000250
0.000325
0.000462
0.000034
0.000105
0.001378
0.001416
0.001414
0.001408
0.001388
0.001374
0.001574
0.001358
0.001307
0.001346
0.000497
0.001310
0.000533
0.000846
0.000569
0.001360
0.000623
0.000605
0.001449
0.000339
0.000497
0.000367
0.000997
0.000795
0.001165
0.001282
0.001247
0.000886
0.000130
0.000824
0.000337
0.000332
0.000279
0.001579
-0.000950
0.001622
0.001505
0.001667
0.000116
0.000099
-0.000388
-0.000634
0.000434
0.001013
-0.000200
0.000112
0.000652
0.000616
0.000490
0.001416
0.000102
0.000533
-0.000722
0.000011
-0.001442
-0.001654
-0.001713
0.000408
0.000250
0.000343
0.000797
-0.001151
0.001019
0.000311
0.001051
0.000988
0.000368
0.000937
0.000518
-0.000472
-0.000134
0.001428
-0.000177
0.000335
-0.001463
0.000309
0.000434
-0.000100
0.001379
-0.000003
-0.000378
0.000138
-0.000979
-0.000672
0.000414
-0.000208
-0.000049
-0.000164
0.000863
0.000168
0.000437
0.000985
-0.000526
-0.000129
-0.000184
0.001506
-0.000562
-0.000322
0.000838
0.000482
0.000370
-0.000592
0.000332
0.000113
-0.000938
-0.001003
-0.001185
-0.000435
0.000210
0.000143
0.001551
0.000762
0.000560
-0.001192
-0.000204
-0.000171
-0.000143
0.000442
0.001372
0.000309
-0.000367
-0.000687
-0.001061
0.000021
0.000159
-0.001121
0.000903
0.000751
0.000444
-0.000061
0.000560
0.000463
-0.000756
0.000325
-0.000582
0.000174
-0.000013
0.000118
-0.001351
0.001547
0.000215
-0.000593
-0.000528
0.000120
0.000012
-0.001673
-0.001719
-0.001151
-0.001115
-0.001079
-0.001044
-0.001007
-0.000967
-0.000832
-0.000651
-0.000514
-0.000533
-0.000534
-0.000420
0.000218
0.000035
0.000072
-0.000184
-0.000309
-0.000370
-0.000493
-0.000628
-0.000212
0.001352
-0.000747
-0.000202
-0.001204
0.000329
0.000805
-0.000179
0.001497
-0.001155
-0.001069
0.001275
0.001263
0.001453
0.000382
-0.000748
-0.000813
0.001133
-0.000603
-0.000318
-0.000209
0.000145
-0.000380
0.000318
-0.000571
-0.000225
-0.000420
-0.001232
0.000960
0.001054
-0.001676
-0.001019
0.001623
-0.000126
-0.001078
0.000309
0.000023
0.000250
-0.001541
-0.001308
0.001173
-0.000596
-0.000550
0.001435
0.000121
-0.000260
0.000581
-0.000037
-0.000709
0.001231
-0.000479
0.001073
-0.000261
-0.001447
-0.000599
-0.000139
-0.000462
0.000738
0.001448
0.000373
0.000574
0.001322
-0.000488
-0.000124
0.000144
0.000060
-0.001727
0.000203
0.001259
0.001004
-0.000553
-0.001279
-0.000572
0.000661
0.000846
0.000559
0.000045
0.000286
0.000017
0.000616
0.000256
0.000178
-0.000000
0.000392
0.000830
-0.000143
0.001223
-0.000183
-0.000019
0.000174
0.000068
0.000657
0.000706
-0.000095
-0.001602
-0.000058
0.000740
-0.000844
-0.000945
-0.000993
-0.000959
-0.001042
-0.001171
-0.001062
-0.000157
-0.000208
0.001335
0.000739
-0.000222
-0.000274
-0.000264
-0.000289
-0.000311
-0.000364
-0.000459
-0.000491
-0.000448
-0.000488
-0.000151
-0.001252
-0.000503
-0.000491
-0.000103
-0.000053
-0.001458
-0.000094
-0.000096
-0.001606
-0.000414
-0.000679
-0.001228
0.000304
-0.000170
-0.001166
-0.000590
-0.000018
0.001643
0.000711
0.000742
0.000647
-0.000359
0.000458
0.000145
0.000051
-0.000087
0.000249
-0.000651
-0.000321
-0.000635
0.000365
-0.000238
0.001131
-0.000406
-0.000179
0.000650
-0.000306
0.000753
0.000604
0.000927
0.000225
0.000665
-0.000939
-0.000267
-0.000180
-0.000198
-0.000685
-0.000029
-0.000187
0.000152
0.000424
0.000408
0.000392
0.000376
0.001583
-0.000701
0.001299
-0.001222
-0.001042
0.000648
0.000000
0.000026
0.000339
-0.001109
-0.001435
0.000426
-0.000678
-0.001391
-0.000239
-0.000586
-0.001225
0.000380
0.000875
0.000789
-0.001102
-0.001179
-0.001461
0.000823
-0.000307
-0.000358
-0.001245
-0.001651
0.000767
-0.000470
-0.000666
0.000124
0.000181
-0.001124
0.000135
-0.000338
0.000257
0.000388
-0.000367
0.000059
0.000821
-0.001360
-0.001359
-0.001361
0.000282
-0.000282
0.000436
-0.000365
0.001608
-0.000612
0.000341
-0.000079
-0.000587
-0.001405
-0.001056
-0.001026
0.000496
0.000660
0.000596
-0.000996
-0.000524
0.000469
-0.001169
-0.000546
-0.000357
-0.001051
0.000061
0.001551
-0.000588
0.000278
0.001651
0.001657
-0.000429
-0.001052
-0.000172
-0.000319
0.000710
-0.000170
0.000638
-0.000120
-0.001354
-0.001017
-0.000066
-0.001254
0.001012
0.000195
-0.000818
0.000304
0.000425
0.000482
0.000517
-0.000093
0.000644
-0.000140
-0.000196
-0.000819
-0.000220
0.000619
0.001299
0.000138
0.000155
0.000438
0.000176
0.000191
0.000318
0.000498
0.000148
-0.001038
0.000156
-0.000326
0.000325
0.000310
0.000814
0.000422
0.000230
0.000177
-0.000037
0.000070
0.000000
-0.000062
-0.000113
0.001226
0.000092
0.001002
-0.000309
0.001202
0.001205
-0.000353
0.000082
0.000064
0.001272
0.000861
0.000774
-0.000391
0.000060
-0.000015
0.000585
-0.000209
-0.000147
0.000077
0.000063
-0.000039
0.000329
0.001581
-0.000414
0.000102
0.000278
-0.000940
0.001176
0.000220
0.000121
-0.000026
0.000088
0.000384
-0.000016
-0.000031
-0.000145
-0.000154
-0.000176
-0.000207
-0.000213
0.000628
0.000314
0.000299
0.000311
0.000245
-0.000109
0.001571
0.000227
0.001452
-0.000232
0.000390
0.000420
-0.001055
-0.000254
0.001061
0.000975
0.000121
0.000138
0.000146
0.001087
-0.000983
0.000824
0.000641
0.000285
0.000300
0.000275
-0.000254
0.001214
0.000797
0.000258
0.000274
-0.000198
0.000286
-0.000819
-0.000163
0.000333
-0.000669
0.000512
-0.000156
0.000825
0.000314
-0.000272
0.001216
0.000551
0.000360
-0.000200
0.000265
-0.000073
-0.000303
-0.000769
0.000036
0.000000
0.001528
-0.001200
0.001086
0.001348
-0.001156
0.001243
0.001088
0.001194
0.000679
-0.001129
0.001228
-0.000318
-0.000349
-0.000415
-0.000729
-0.001210
0.000911
0.000045
-0.000291
-0.000245
-0.000209
0.000749
0.000717
0.000059
0.001522
0.000254
0.001695
-0.001498
0.000213
0.000603
-0.000165
0.000588
-0.000422
-0.001358
-0.000951
0.000576
0.000769
-0.000913
-0.000945
0.000096
-0.001518
-0.001592
-0.000267
0.000672
0.001565
0.000744
0.000209
0.000751
0.001116
0.001095
-0.000209
0.000578
-0.000462
-0.000524
0.000395
0.000968
0.000944
0.001034
0.000760
-0.000318
0.000113
0.000181
0.000184
0.000155
0.000141
-0.000443
-0.000470
-0.000557
-0.000585
-0.000611
-0.000635
-0.000657
-0.000677
-0.000695
-0.000706
-0.000419
-0.000383
0.000085
-0.000311
0.001104
-0.000316
-0.000281
-0.000735
0.000708
0.000682
0.000159
0.001195
0.000002
0.000134
-0.001190
-0.000331
-0.000195
0.000285
0.000900
0.001140
0.000552
0.000935
-0.000244
0.001525
0.001644
0.000219
0.000370
0.000061
-0.000020
-0.000932
-0.000014
-0.000043
-0.000264
-0.000752
0.000060
0.000050
0.001218
0.000629
-0.000655
0.000425
-0.000001
0.000185
0.000734
0.000595
-0.000650
-0.000598
0.000268
0.000041
0.000020
-0.000471
0.000608
-0.000084
-0.000497
-0.000474
-0.000522
-0.000545
-0.000046
-0.001502
0.000259
-0.000141
0.001291
-0.000591
-0.000649
0.000552
0.000569
0.000033
0.000220
0.000000
0.001533
0.001597
-0.000873
-0.000840
-0.000807
-0.000814
-0.000797
-0.000748
-0.000718
-0.000687
-0.000686
-0.000720
-0.000654
-0.000619
-0.000648
-0.000549
-0.000517
-0.000429
0.000495
0.000913
-0.000329
0.000317
0.000817
-0.000287
-0.000300
-0.000244
-0.000255
-0.000200
-0.000183
-0.000174
-0.000131
-0.000088
-0.000107
-0.000000
0.001249
-0.000033
0.000920
0.001355
0.000136
-0.000723
-0.000324
-0.001472
0.000328
0.001496
0.000312
0.001525
0.000314
-0.000703
-0.001491
0.000606
0.000675
0.000623
-0.000054
0.001354
0.000302
-0.001575
-0.000790
-0.001593
0.000154
0.000468
-0.000040
0.001499
0.000582
0.001145
-0.000206
-0.000271
0.000379
-0.000426
0.000021
-0.000823
0.000964
0.000390
0.001397
-0.000198
0.001136
-0.000682
0.001019
-0.000460
0.000423
0.000131
-0.000349
-0.000371
-0.000399
0.001564
0.001281
0.000734
-0.000150
-0.000060
0.000340
0.000805
-0.000939
-0.000582
-0.000609
0.000090
0.000000
0.001063
0.001124
-0.000603
0.000786
0.000602
0.001022
0.000876
0.001322
0.000133
0.000122
-0.000069
0.000165
0.000022
-0.000363
-0.000538
0.000246
0.000468
-0.000396
0.000860
0.000370
-0.000037
-0.000324
-0.000276
-0.000494
0.000890
-0.000238
0.000513
-0.000844
-0.000341
0.000269
0.000694
-0.000087
0.001620
-0.000370
0.000037
0.000174
0.000447
-0.000250
-0.001592
0.001170
-0.000010
0.000048
0.001619
-0.001618
0.000649
-0.000375
-0.000450
-0.000116
-0.000347
0.000013
-0.000004
0.000004
0.000035
-0.001650
-0.001075
0.001585
-0.000301
0.000700
-0.000446
-0.000772
-0.000055
0.001728
0.001682
-0.000697
-0.001058
-0.001136
-0.001124
-0.000961
-0.000536
0.000664
-0.000028
0.000050
0.000024
0.000119
0.000024
0.000000
-0.000040
0.001405
-0.000235
0.000088
-0.000527
0.001369
0.000131
-0.000918
0.000044
0.000065
0.000061
-0.001492
-0.001156
-0.001369
-0.000526
0.000720
-0.000586
-0.000505
0.001164
-0.001531
-0.001212
-0.001239
-0.000741
0.000117
-0.000546
-0.001048
-0.000458
0.000224
0.000851
-0.000540
-0.000745
0.001327
-0.001560
0.001279
0.000144
0.000210
-0.001584
-0.000271
-0.001538
-0.000224
-0.001334
-0.000244
-0.001318
-0.000290
-0.000277
0.001732
-0.001087
-0.000178
0.001651
0.000082
0.000123
-0.000717
-0.000046
-0.000152
-0.000869
-0.000452
0.000093
0.001645
-0.001609
0.000267
0.001017
-0.000085
-0.001146
0.000350
-0.001357
0.000117
0.000087
-0.000035
-0.000329
-0.000136
-0.000062
-0.001403
-0.000392
-0.000603
0.000200
-0.000291
-0.000534
-0.000339
-0.000234
-0.001562
-0.000422
-0.000113
0.000695
0.000077
-0.000126
-0.001335
0.000612
-0.000268
0.000345
0.000539
-0.000346
-0.000148
-0.000468
-0.000892
0.001728
-0.000209
-0.001640
-0.000398
-0.001338
-0.001339
0.000280
-0.000331
-0.000622
-0.000633
-0.000964
0.000140
-0.000982
-0.000678
-0.000081
0.000001
-0.001707
0.000524
0.000349
0.000322
0.000353
-0.000444
-0.000516
-0.000500
-0.000603
-0.000625
-0.000247
-0.000270
-0.000675
-0.000746
-0.001025
-0.000171
-0.001224
-0.001385
-0.000275
-0.000064
0.000915
-0.001233
0.000905
-0.000035
0.000895
0.000916
0.000883
0.000869
-0.001640
0.000873
0.001026
0.000171
-0.000468
0.000324
-0.000005
0.000214
0.000351
-0.000637
-0.000103
0.000151
0.001233
0.000523
-0.001025
0.000781
-0.000676
0.000683
0.000166
-0.000298
0.000024
-0.000675
0.000676
-0.000486
0.000970
0.000750
0.000442
0.000326
0.000325
0.000324
0.000103
0.000304
0.000383
0.000563
-0.000669
-0.000339
-0.000691
-0.000679
-0.000322
0.000285
0.000682
0.000726
0.000086
-0.000195
-0.000192
0.001629
-0.001230
0.000303
0.000758
0.001090
-0.000630
-0.000541
-0.000534
0.000870
0.000451
0.001089
-0.000730
-0.000754
0.001410
0.001380
-0.000287
0.000498
0.000719
0.000720
-0.000523
0.000719
0.000685
-0.000888
-0.000826
0.001468
0.000736
-0.001022
0.000842
-0.000810
-0.000903
-0.001480
-0.001479
-0.000671
0.000353
-0.000063
0.000422
0.000582
0.000067
0.000022
-0.000112
-0.000730
0.000000
-0.000168
-0.000194
-0.000797
-0.000767
-0.001207
-0.000244
0.000615
-0.000183
0.001117
-0.001576
-0.000821
-0.001059
0.000884
0.000675
0.001147
0.000189
0.000274
-0.001350
-0.001303
-0.000622
-0.000562
-0.000733
-0.000739
0.000102
-0.000722
-0.001021
0.000640
-0.001308
-0.000584
-0.001433
0.000043
0.001000
0.000643
-0.001720
0.000001
-0.001006
-0.001041
-0.001110
-0.000321
-0.000098
-0.001330
-0.000635
-0.000108
-0.000541
0.001494
0.000703
0.000014
-0.000062
-0.001702
-0.001688
-0.000717
-0.000630
-0.000459
-0.000400
-0.000340
-0.000250
-0.000218
-0.000151
-0.000028
-0.000055
-0.000222
-0.000066
-0.000033
0.000036
-0.000143
-0.000131
-0.000137
-0.000174
-0.000749
-0.000786
0.000301
-0.000837
0.000293
-0.000411
-0.000816
-0.000853
-0.000868
-0.000698
-0.000245
0.000238
-0.000236
-0.000198
-0.001038
-0.000203
-0.000210
-0.000174
-0.001185
-0.000955
0.000338
0.000330
-0.000261
-0.001174
0.000033
0.000561
-0.001287
-0.001231
-0.000237
-0.000291
-0.000391
-0.000391
-0.000390
-0.000103
-0.000237
-0.001314
-0.000261
-0.000179
-0.000267
-0.000190
-0.000261
-0.000316
0.001115
0.000162
0.000157
0.001328
-0.000544
-0.000286
-0.001171
-0.000334
-0.000593
-0.000050
0.000970
-0.001514
-0.000301
-0.000967
-0.000915
-0.000888
0.000819
0.000160
-0.000157
-0.001604
0.000699
0.001500
0.000256
-0.000077
-0.000528
-0.000717
-0.000136
-0.000201
-0.001704
0.001507
0.000496
-0.000626
-0.000101
-0.000050
-0.001549
-0.001275
-0.001307
-0.001048
-0.001225
-0.001223
0.000100
-0.000042
0.001644
-0.000762
-0.000218
-0.000684
0.000298
0.000064
0.000162
0.000463
-0.000003
0.000204
0.000555
-0.001634
0.000740
0.001173
-0.000195
0.001020
0.000942
0.000335
0.000019
0.000070
0.000051
-0.000015
-0.000234
0.000237
0.000799
-0.000106
0.000540
-0.000113
0.000650
0.000576
-0.000148
0.000189
-0.000989
-0.000045
-0.000278
0.000222
0.001219
0.000780
0.000000
-0.001291
0.000041
-0.000249
0.000857
-0.000232
-0.000059
0.000066
0.000168
-0.000000
-0.000021
-0.000000
-0.000309
-0.000335
0.001228
0.000700
-0.000351
-0.000305
-0.000428
-0.001433
0.000448
-0.000666
0.000483
-0.000744
-0.000882
-0.001530
0.000235
0.000440
0.000647
0.000635
-0.000781
-0.000646
-0.001232
-0.000760
0.000703
-0.000037
0.000253
-0.001193
-0.000371
-0.000428
-0.000188
-0.000303
-0.000178
0.000133
-0.000934
-0.000720
-0.000317
-0.000581
0.000355
0.000098
0.000577
0.000572
0.000024
0.000174
-0.000199
-0.000004
0.000257
0.000712
0.000334
-0.000831
0.000630
0.000053
0.000469
0.001061
0.000758
0.000945
0.000726
0.000497
-0.001120
0.000450
-0.000074
0.000277
0.000243
0.001594
0.001519
-0.000450
0.000056
-0.000111
-0.000362
-0.000640
0.001038
0.000879
-0.000240
0.000041
0.000037
-0.000021
-0.000266
0.001135
-0.000380
0.000064
0.000704
0.000328
0.001111
0.000479
0.000142
0.000236
0.000285
0.000050
-0.000317
0.000546
-0.000109
-0.000007
-0.000345
-0.000394
-0.000376
-0.000418
0.000457
-0.000089
-0.000170
0.000635
-0.001088
0.001014
-0.000377
-0.000408
0.000822
-0.000057
-0.000311
-0.000315
-0.000298
-0.000093
0.000005
-0.000344
0.000216
0.000240
-0.000248
0.000222
0.000512
-0.000014
0.000484
-0.000386
-0.000324
0.000673
0.000519
-0.000323
0.000222
0.000669
-0.001616
0.000034
0.000167
0.000132
0.000064
-0.000417
0.000249
0.000232
0.000168
0.000071
0.000009
0.001127
0.000079
0.001480
-0.000010
0.001259
-0.000897
-0.001350
-0.001343
0.000155
0.001336
0.000441
-0.000044
0.000411
0.001109
0.000072
0.000384
0.000785
0.000747
0.000692
0.000415
0.000651
0.000644
0.001614
0.000100
0.001494
0.000846
-0.001569
0.001207
-0.000136
0.000747
0.001059
0.000957
0.000010
-0.000013
0.000019
0.000106
0.000357
0.000444
0.000394
0.000280
0.000323
0.000237
-0.000573
-0.000476
-0.000473
-0.000447
-0.000432
-0.000574
-0.000640
0.000380
0.001409
0.001478
0.000157
0.000293
0.000589
0.000619
0.000094
0.000374
0.000129
0.000216
0.000784
0.000511
-0.000285
0.000641
0.000519
0.000852
-0.001218
0.000376
0.000155
0.000214
0.001575
-0.000087
-0.000332
-0.001075
0.000005
-0.000683
0.000100
0.000056
-0.000108
-0.000387
-0.000480
-0.000688
0.000044
-0.000535
-0.000582
-0.000296
0.000419
0.000379
-0.000479
-0.000347
0.000204
0.000929
-0.000577
-0.000616
0.000036
-0.000439
0.000477
-0.000003
0.000079
0.000527
0.000435
0.000844
-0.000055
-0.000436
0.000521
0.000909
-0.001243
-0.000405
0.000598
-0.000339
0.000219
0.000032
0.000221
0.000697
0.000054
-0.000128
0.000011
-0.000370
0.000685
0.000204
0.000774
0.001173
0.000009
0.000489
0.000701
0.000754
0.000421
-0.001203
-0.000644
-0.000565
-0.000748
-0.001474
-0.001148
-0.000587
-0.000760
-0.000281
-0.000916
-0.000772
0.000716
-0.001295
0.000246
-0.000353
-0.000013
-0.000000
-0.001374
-0.001428
-0.001633
-0.001671
-0.001594
-0.001587
-0.001541
-0.001492
-0.001250
-0.001221
-0.001186
-0.000924
-0.000879
-0.000680
-0.000570
-0.000302
-0.000182
-0.000244
-0.000118
-0.000059
-0.000084
-0.000027
0.000057
0.000109
0.000393
0.000410
0.000483
-0.000195
-0.001309
-0.000000
-0.000068
-0.000107
0.000167
0.001416
0.001622
-0.001588
0.000769
-0.000255
0.000119
0.000068
-0.001040
-0.000179
0.000634
-0.001002
0.000353
-0.001189
-0.000000
-0.001220
-0.000395
-0.001312
-0.000172
-0.000153
-0.000932
-0.000863
0.001074
0.000095
0.000129
-0.000995
-0.000257
-0.000287
-0.000328
0.000349
-0.001648
-0.000338
0.000066
-0.000442
-0.001291
0.000108
-0.001591
0.000993
-0.001613
-0.000412
-0.000997
0.000101
-0.000431
-0.000134
-0.000077
-0.000194
0.000466
-0.001617
-0.001493
-0.000093
-0.000082
-0.000374
-0.000202
-0.000288
-0.000074
-0.000060
0.000565
-0.000418
-0.001231
-0.001188
-0.001277
0.000056
-0.001183
0.001101
-0.000016
-0.000437
0.000972
-0.000164
-0.000132
0.001330
-0.000299
0.000981
0.000785
0.001239
-0.001312
0.001216
-0.000066
-0.000665
0.000025
-0.000520
0.000157
-0.000285
-0.000717
0.000459
-0.000487
-0.000452
0.000651
-0.000634
-0.001580
-0.001616
-0.001494
-0.000615
-0.000442
-0.000579
0.000440
0.000866
-0.001366
0.000012
0.000802
-0.000618
-0.000502
-0.000495
-0.000659
0.000006
-0.000076
0.000075
-0.001400
0.000432
-0.000185
-0.000806
-0.000909
0.000662
0.000654
0.001003
0.000167
0.000402
0.001164
-0.001458
-0.001232
-0.001631
-0.000216
-0.001533
-0.001618
-0.000611
0.000446
-0.001382
0.001403
0.000244
0.001083
-0.001142
-0.000119
-0.000071
-0.000077
0.000654
0.000748
0.001074
-0.000041
0.001373
-0.001414
0.000514
-0.000072
-0.001547
0.000459
0.001367
0.000652
0.000557
0.000030
0.000790
-0.000104
-0.000261
-0.000822
-0.000021
0.001204
-0.000004
0.000011
-0.001685
-0.001081
-0.000974
0.000329
0.000352
0.000353
0.000286
-0.000813
0.000227
0.000782
-0.001008
-0.000994
0.000053
0.000078
-0.000074
0.000074
0.000083
-0.000166
-0.000257
-0.001074
-0.000662
0.000858
0.000334
0.000084
0.000113
0.000165
0.000163
0.000970
-0.000970
-0.001492
-0.001411
0.000157
0.000311
0.000541
0.000206
0.000981
-0.001329
-0.001284
0.000479
0.000553
-0.000163
-0.000481
-0.000012
-0.000148
0.000036
-0.000696
-0.000139
-0.000966
0.000163
0.000157
0.000579
0.000234
0.000037
-0.000674
-0.000479
-0.001360
-0.000123
-0.000155
-0.000094
0.000034
-0.000118
0.000067
0.000757
-0.000170
-0.000168
-0.000748
-0.000558
0.000755
-0.000075
0.000157
-0.000157
0.001176
0.000193
0.000076
0.001110
0.000156
0.000826
0.000750
-0.000443
-0.000144
0.000291
0.000788
0.000085
-0.000627
0.001301
0.000132
0.000047
-0.001023
0.000008
0.000995
0.000324
0.000456
0.000447
0.000752
0.000564
0.000861
-0.001155
-0.000267
0.001043
-0.000126
-0.000286
-0.001172
-0.000111
-0.000850
0.000803
0.000600
0.000147
-0.000130
-0.000181
-0.000213
-0.000233
0.000595
0.000209
0.000288
0.001056
0.001380
-0.000346
0.000586
-0.000006
-0.000085
0.000046
0.000079
-0.000035
0.001618
0.001297
0.000202
-0.000104
0.000864
0.000172
-0.000108
-0.000518
-0.000958
-0.001293
0.000317
0.000869
0.000821
0.000015
-0.000070
-0.000095
0.000678
0.000667
0.001188
-0.000856
0.000192
0.000476
0.000023
0.001011
0.000590
0.001370
-0.000043
0.000383
-0.000011
0.000025
0.000013
-0.001575
0.000034
0.000674
0.000343
0.001049
0.001079
-0.000016
-0.000036
0.001350
0.000127
-0.001382
-0.001121
0.001133
0.001316
-0.000291
0.001417
-0.001341
0.000300
0.001183
-0.000667
0.000919
-0.000571
-0.000863
0.000767
-0.000207
0.000275
0.001027
-0.000137
0.000003
0.000036
0.000058
0.000127
0.000405
0.000337
0.000130
0.000630
0.000733
0.000828
0.001034
0.001127
0.001106
0.001232
0.001278
-0.000062
0.000282
0.000264
0.001127
0.000645
0.000545
0.000306
-0.001339
0.000044
0.001300
0.000906
0.000896
-0.001053
-0.000012
0.000884
0.000121
0.000872
0.000903
0.001220
0.001311
0.000154
0.000952
0.000376
-0.000261
0.000862
0.001117
0.000716
0.001118
-0.001457
-0.001451
-0.000887
-0.000535
0.000992
0.000875
0.000748
0.000582
0.000495
0.000748
0.000985
-0.000361
-0.001435
-0.000348
-0.001624
-0.000952
0.000683
0.000652
0.000892
0.001481
-0.001626
-0.000299
0.000104
0.000357
0.000009
0.001358
-0.000118
-0.000904
0.000031
0.000374
0.000086
0.000062
0.001307
-0.000762
0.001138
0.000051
0.000126
0.001129
-0.000150
0.000133
0.000050
0.000513
0.001072
-0.000204
0.000898
-0.000035
0.000256
0.000315
-0.000038
0.000159
0.000618
0.000001
-0.000015
-0.000010
0.000061
0.000071
0.000117
-0.001700
-0.001591
-0.001633
-0.001573
-0.001531
-0.001241
-0.001090
-0.000970
-0.000816
-0.000288
-0.000000
0.000331
0.000329
0.000347
-0.000000
-0.000100
0.000070
0.000104
-0.000369
-0.000316
0.001492
0.001446
0.001450
0.001586
0.001295
0.001402
-0.000210
0.000274
-0.000877
0.001239
-0.000982
-0.000189
0.001095
-0.001036
0.000174
-0.001045
-0.001101
-0.001148
-0.000999
0.001477
-0.000174
0.001065
0.001434
-0.000798
-0.000842
-0.001130
-0.001061
-0.001051
-0.001065
-0.001039
-0.001054
-0.001059
0.000310
0.000300
-0.000244
-0.000812
-0.000170
-0.000781
-0.000803
-0.000937
0.000690
0.000588
-0.001322
0.001127
0.000771
0.000670
0.000683
-0.000321
0.000152
-0.000343
0.000962
-0.001100
-0.001434
-0.000620
-0.000351
-0.000630
0.000027
-0.000527
-0.001049
-0.000479
-0.000428
0.000112
-0.000382
0.001023
0.000499
-0.000388
-0.000648
-0.001047
-0.000000
-0.000615
0.000678
-0.000481
-0.000464
-0.001185
-0.000727
0.000861
-0.001375
-0.001421
-0.001476
-0.000211
-0.001620
0.000720
-0.000994
-0.000285
-0.001636
0.001650
0.001559
0.001539
0.001573
-0.001099
-0.000673
-0.001436
-0.000656
-0.000691
-0.000757
0.000082
0.000935
0.000721
0.000720
0.000748
0.001494
-0.000863
0.000510
-0.000400
0.000242
-0.001222
-0.000122
0.001058
0.001697
-0.000688
-0.000391
0.000385
0.000937
-0.001232
-0.001432
0.000925
0.001692
0.001258
-0.001084
0.001006
0.000665
-0.000582
-0.001259
0.001578
0.001702
0.000294
0.001558
0.000537
-0.000272
0.000412
0.000401
-0.001566
0.001100
-0.000237
0.001674
0.001587
0.001095
0.000575
-0.000402
-0.000860
0.001492
-0.000603
-0.001630
-0.000730
-0.001184
-0.000252
-0.000364
-0.001453
-0.000810
-0.000382
0.001619
0.000519
0.001010
-0.000651
-0.000282
-0.001128
-0.001135
0.000030
0.000570
0.000701
-0.001195
0.000602
0.000666
-0.001266
0.001203
0.001227
0.001208
0.000962
0.001548
-0.000212
0.001407
0.001472
-0.000445
-0.001553
0.000580
-0.000250
-0.000550
-0.000775
-0.001157
0.001298
-0.000100
-0.000704
-0.001037
-0.000064
0.001496
0.001527
0.001616
-0.000198
0.000163
-0.000995
0.000327
0.000292
0.000420
-0.000563
0.000302
-0.000855
0.000626
0.000062
0.000011
0.000388
-0.000281
0.000074
0.000269
0.000246
-0.000354
-0.000385
0.000619
0.001410
0.001008
-0.001638
0.001445
0.000212
0.000995
-0.000482
0.001091
-0.000273
0.000310
-0.000850
-0.000866
-0.000247
-0.000237
-0.000758
-0.000894
-0.000856
-0.000216
-0.000907
-0.000919
-0.000192
-0.000180
-0.000210
-0.000406
-0.000308
-0.000282
-0.000450
-0.000490
-0.000443
0.001051
-0.000525
-0.001293
0.000841
0.000183
0.000199
0.000164
-0.000144
-0.000531
-0.000149
0.000599
-0.000480
-0.000498
-0.000298
0.001080
-0.000509
-0.000246
-0.000494
-0.000186
-0.000579
0.000861
0.000108
-0.000469
0.000192
0.000855
-0.001360
0.000932
-0.000588
0.000210
-0.000653
0.000427
-0.000491
0.001625
-0.000244
0.000286
0.000674
0.000744
-0.000635
-0.001112
-0.000550
-0.000539
-0.000571
0.000057
0.000151
0.000015
-0.000068
0.000084
0.001463
-0.001006
-0.000033
0.001337
0.000204
-0.000812
-0.001574
-0.001342
-0.000629
0.000857
0.000421
0.000448
-0.000078
-0.001013
0.000852
-0.000905
-0.000359
0.000533
0.000042
0.000001
-0.000004
-0.000010
-0.000060
-0.000002
-0.000007
-0.000009
0.000003
-0.000003
0.000002
0.000010
0.000006
0.000034
0.000044
0.000047
0.000058
-0.001467
-0.001568
0.000068
0.001185
-0.001021
-0.000892
-0.000215
-0.000780
-0.000552
-0.000368
-0.000686
-0.001340
-0.000743
-0.000803
0.000679
-0.001424
-0.001680
0.000918
0.000573
0.000299
-0.000900
-0.000619
-0.000549
-0.000641
-0.001575
-0.000123
-0.001037
0.000193
0.001197
-0.000789
-0.000578
0.000035
-0.000471
-0.001137
0.000069
0.000036
-0.001180
-0.001250
0.001161
-0.001234
-0.000030
0.000306
0.000089
-0.000460
-0.000726
0.000604
0.000361
0.000108
-0.000298
-0.000474
0.000408
-0.000462
-0.000109
0.000051
-0.000603
-0.000215
-0.000157
-0.001256
0.000191
-0.000224
-0.000458
-0.001322
-0.000112
-0.000135
0.001537
-0.000701
0.000401
-0.000108
-0.000069
0.001427
-0.001115
-0.001371
-0.000393
0.000158
-0.000249
0.000793
-0.000380
0.000149
-0.000365
-0.000174
-0.000577
0.000051
0.000132
-0.000002
0.000011
-0.000643
-0.000151
-0.000963
0.000092
-0.000385
0.000251
0.000122
0.000669
0.000482
-0.000004
-0.000007
0.000042
-0.000619
-0.000109
0.000099
0.000065
0.000386
0.000209
-0.000129
-0.001058
0.001070
0.000046
0.000424
0.001582
0.000570
-0.000202
0.000078
-0.000430
0.000007
-0.000717
0.000746
-0.000030
-0.000380
0.000184
0.001123
0.001263
0.000223
0.000225
0.000768
0.000828
0.001463
0.000210
0.000316
-0.000680
0.000068
-0.000393
-0.000621
-0.000449
-0.000241
0.000226
0.000367
-0.000092
0.000949
-0.000357
0.001073
-0.000370
0.000738
0.001007
-0.000071
-0.000736
0.001503
0.000101
0.001172
0.000825
0.001302
0.000479
0.000841
-0.000819
-0.000015
-0.001144
0.000552
0.000605
-0.000517
0.000245
0.000505
0.000351
0.000002
-0.000017
-0.000131
0.000366
0.000589
0.000327
0.000666
0.000823
-0.000505
-0.001134
-0.000264
0.000263
-0.001497
-0.000341
0.000456
-0.000350
0.000092
-0.001138
-0.000465
0.000544
-0.000284
0.000818
-0.000318
0.000014
-0.000007
-0.000008
0.000060
0.000071
0.000934
-0.000451
-0.000444
-0.000361
-0.000362
-0.000499
-0.000936
0.000787
-0.000483
-0.000610
-0.000714
-0.000824
0.000080
0.000323
0.000132
-0.000017
0.001631
-0.000188
-0.000861
-0.000408
0.001627
0.000292
-0.000079
-0.000264
-0.000756
-0.000865
0.001148
0.001599
-0.000463
-0.000518
-0.000815
-0.000041
-0.000010
0.000440
0.000010
-0.000257
-0.000049
-0.000460
-0.001476
-0.001520
-0.001559
-0.001517
-0.001379
-0.001348
-0.000028
-0.000036
-0.000124
-0.000648
0.001638
-0.001156
-0.000580
-0.000271
-0.000055
0.001145
-0.001552
0.001230
-0.001382
-0.001393
-0.000249
0.000361
0.000859
0.000265
-0.001639
0.000656
-0.001023
0.000047
0.000203
0.001088
-0.001038
-0.001512
-0.000825
-0.000249
-0.000009
0.001291
0.000447
0.000167
0.000235
-0.001096
-0.000169
0.000004
0.000031
-0.001618
-0.001706
0.001438
-0.000120
0.000194
0.000278
-0.000231
-0.000746
0.001339
0.001246
0.001191
0.000059
0.000132
-0.000090
-0.000144
-0.000114
-0.000001
-0.000075
0.000154
-0.001367
-0.001443
0.000283
-0.000856
-0.001159
-0.001073
-0.000202
0.000134
-0.001061
-0.000099
-0.000094
0.000330
-0.000358
-0.000489
-0.000159
0.000176
-0.000468
-0.000323
-0.001101
-0.000109
-0.000525
-0.000577
-0.001240
0.000379
-0.000330
0.000062
0.000918
0.000642
0.000093
-0.000639
0.000134
-0.000296
-0.000073
0.000194
-0.000600
-0.000631
-0.000238
-0.001374
-0.000827
0.000259
0.000076
0.000018
-0.001408
0.000149
-0.000140
-0.001248
-0.001619
0.000027
-0.001012
0.000591
-0.001076
-0.000653
-0.001198
0.000127
-0.000002
-0.000175
-0.001075
0.000180
0.000380
0.000718
0.000157
0.001499
-0.000493
0.000573
0.000248
0.000006
-0.000010
-0.001263
-0.000529
-0.000577
0.000657
-0.001278
-0.000299
-0.001108
0.001091
-0.001062
0.000340
0.000363
0.000222
0.000560
-0.001548
0.000858
0.001633
-0.001227
-0.001722
-0.001674
-0.000732
-0.000584
-0.001055
0.001465
-0.000303
-0.001218
0.000300
-0.000165
0.000041
0.000060
0.000580
0.000013
-0.000015
0.000021
0.000417
-0.000278
0.000145
0.000621
-0.000078
0.000024
0.000149
0.000846
0.000183
0.000089
0.000096
0.000896
0.000224
0.000101
0.000611
0.000247
0.000114
0.000089
0.000438
-0.000055
0.000397
0.000190
-0.000003
-0.000237
0.000901
0.000006
-0.000016
-0.000011
-0.000001
0.000013
0.001146
-0.001194
-0.000214
0.000301
-0.001572
0.000007
-0.000020
-0.001180
-0.000730
-0.000505
-0.000601
-0.000417
-0.001257
0.000204
0.000002
-0.000752
-0.000399
0.000869
-0.001386
-0.000008
0.000500
0.001125
-0.000085
0.000706
0.001495
-0.000184
0.000410
-0.000203
-0.000328
0.000263
0.001204
0.000017
-0.000242
0.001346
-0.000304
0.000674
0.000637
0.000005
0.000573
0.001507
-0.000397
0.000146
0.000007
-0.000803
0.000366
0.000141
0.000000
-0.000269
-0.000028
0.000184
0.001391
-0.000360
-0.000554
0.001589
0.001616
-0.001502
-0.000088
0.000048
0.000631
0.001235
0.001164
0.000221
0.000619
-0.000612
-0.000022
0.000396
0.000066
-0.000334
-0.000706
0.001048
0.001411
0.001104
0.000881
-0.000597
0.001324
0.000367
0.000029
0.000348
0.000712
0.000622
0.000004
-0.000448
0.001331
-0.000225
0.001362
-0.001206
-0.000322
0.000151
-0.000207
0.000124
0.000267
-0.001486
-0.001410
-0.000643
0.000523
0.000435
-0.000434
0.000477
-0.001641
0.000412
-0.000000
-0.000185
-0.000245
-0.000747
-0.000841
-0.000754
-0.000235
0.000820
-0.000162
-0.000807
0.000641
-0.000398
-0.000714
-0.000749
-0.000086
-0.001532
-0.000655
-0.001503
-0.001410
-0.000474
-0.001363
0.001146
-0.001100
-0.001126
-0.001056
-0.000995
-0.000106
0.000171
-0.001254
-0.000309
-0.000140
0.000077
0.000271
0.000945
-0.000480
-0.001593
-0.000225
0.000117
0.000054
0.001535
-0.000636
-0.000450
-0.000327
-0.000463
-0.000003
-0.000380
-0.001258
0.000605
0.000996
0.000490
-0.000446
0.000174
-0.000272
-0.000708
-0.001325
-0.000259
-0.000502
0.000095
-0.000915
-0.000296
-0.001074
-0.001030
0.000451
-0.000141
0.000042
-0.000502
-0.000440
0.000587
-0.000172
-0.001535
0.000872
0.000961
-0.001090
-0.000580
0.000772
-0.000572
0.000394
-0.001296
0.000063
0.000109
-0.000011
0.000199
-0.000151
-0.000555
-0.001117
-0.000549
0.000306
0.000743
-0.001412
-0.000481
0.000822
0.000008
0.000052
0.000068
0.001402
-0.001010
0.001498
0.000599
0.000932
-0.000509
-0.001069
-0.000545
-0.000880
-0.000005
-0.001527
0.001112
0.000063
-0.000175
0.001206
-0.000213
0.001673
0.000237
-0.000003
-0.001650
-0.000096
0.000052
-0.000869
-0.001101
-0.000427
0.000328
0.000088
-0.000129
-0.000544
-0.000152
-0.000720
-0.001366
-0.000134
0.000181
-0.000100
-0.000114
-0.001043
0.001357
-0.000129
0.000270
-0.000332
-0.000282
-0.000896
-0.000846
-0.000020
0.000069
0.000303
0.001477
-0.000022
0.000482
-0.001600
-0.000135
0.000070
0.000683
-0.000178
0.000215
-0.000591
0.000246
0.000299
-0.000000
0.000517
-0.000421
0.000118
0.000360
0.000022
0.000139
-0.001272
0.000105
0.001194
0.001518
0.000468
-0.001700
0.000210
-0.001395
-0.000713
-0.000266
0.001238
0.001438
-0.001591
0.000008
0.000082
0.000334
0.000033
-0.000128
-0.000023
-0.000005
0.000116
-0.000109
-0.000162
0.001531
0.000292
0.001312
0.001142
0.000015
0.000220
0.000490
-0.000622
-0.000056
0.000807
0.000695
0.000222
0.000581
0.001102
0.001294
0.001473
0.000966
-0.000140
0.000238
0.000101
0.000225
-0.000119
-0.000272
-0.000352
0.000668
0.000346
0.000011
0.000359
0.000085
0.000237
0.000719
0.000519
0.000762
0.001157
-0.000310
0.000415
0.000521
-0.001079
-0.001171
-0.001021
-0.000965
-0.000042
-0.000009
0.000001
0.000003
-0.000845
0.000414
0.000197
0.000192
0.000489
-0.000070
0.000321
-0.000237
-0.000133
-0.000340
0.000268
-0.000517
0.000419
-0.000039
-0.000025
-0.000337
-0.000488
-0.000019
-0.000172
-0.000142
0.001019
-0.000872
0.000543
-0.001477
-0.000130
0.000044
0.000519
0.000058
-0.000138
0.000235
-0.001652
0.000474
-0.000362
-0.000021
-0.000275
-0.000777
-0.001080
-0.000751
-0.000307
-0.000966
0.000003
0.000038
-0.000174
-0.000196
-0.000161
-0.000199
-0.000147
0.000044
-0.000019
0.000714
0.000479
0.000477
-0.000760
-0.001403
-0.000654
-0.000049
-0.000164
-0.001035
-0.001176
-0.000444
-0.000018
0.000136
-0.000309
-0.000510
0.000601
0.000485
-0.000000
0.000207
-0.000162
-0.000003
0.000081
-0.001316
0.000491
0.000553
-0.000063
-0.000522
-0.000880
-0.000201
-0.000168
-0.001184
-0.000206
-0.001049
-0.000329
-0.000627
-0.000103
-0.000098
-0.000170
-0.000511
-0.000140
-0.001166
0.000693
-0.001297
-0.000053
-0.000539
0.000199
-0.000525
-0.000072
-0.000631
-0.000238
-0.001326
0.000075
-0.000566
-0.000484
0.000776
0.000507
0.000216
0.000525
0.000483
0.000150
-0.000249
-0.000391
0.000491
0.000584
-0.000234
0.000271
0.000551
0.000538
0.000223
0.000525
0.001413
-0.000256
0.000005
-0.000003
0.000078
0.001268
0.001182
0.001634
-0.000168
0.001722
0.001691
0.000225
0.001011
-0.000001
-0.000063
-0.001577
-0.001551
-0.001523
0.000033
-0.000016
-0.000186
-0.000166
0.000662
0.001235
-0.001449
-0.000030
-0.000217
-0.000178
-0.000402
-0.000498
-0.000713
0.000635
-0.000256
0.000584
0.000449
-0.001514
-0.000416
0.000486
-0.000048
-0.000330
0.000621
-0.000283
-0.000532
0.000246
0.000723
-0.000150
0.000215
-0.000010
-0.000164
0.000679
0.000664
0.000752
-0.000286
-0.000006
-0.000546
-0.000211
-0.001072
-0.000669
-0.000927
-0.000515
-0.000043
0.000127
0.001393
0.000185
-0.000588
0.000771
-0.000395
-0.000106
-0.000618
0.000010
-0.000174
0.000040
-0.000967
-0.000107
0.000188
-0.000154
0.000177
-0.000113
-0.000105
-0.000225
-0.001454
-0.000493
0.000039
-0.000066
-0.000286
0.000738
0.000754
0.000768
0.000713
0.000708
0.000362
-0.000242
-0.000193
0.000373
-0.000318
0.000612
0.000430
-0.000310
-0.000306
-0.000014
0.000724
0.000748
0.000205
0.000775
0.000222
-0.000308
-0.000270
-0.000314
0.000268
-0.000121
-0.000241
0.000596
-0.000227
-0.000207
-0.000246
-0.000074
-0.000088
0.000809
-0.000351
-0.000227
0.000656
-0.000198
-0.000041
-0.000524
0.000145
-0.000069
0.000772
0.000505
-0.000568
-0.000206
0.000790
-0.000275
-0.000016
0.000437
0.000416
0.000373
-0.000304
-0.000399
-0.000068
0.000320
0.000844
-0.000220
0.000608
-0.000072
0.000513
-0.000397
-0.000244
0.000605
0.000887
-0.000039
0.000458
0.000084
0.000068
0.000802
-0.000471
-0.000236
-0.000417
0.000766
0.000639
0.000103
-0.000644
0.000130
0.000370
-0.000256
-0.000287
-0.000073
0.001322
0.000545
0.000094
0.001455
-0.000181
0.000577
-0.000598
0.000066
-0.000072
-0.000331
0.000046
-0.000066
0.000005
0.000500
0.000337
0.000339
0.000289
0.000267
0.000300
0.000304
0.000347
0.000348
-0.000524
-0.000480
-0.000466
0.000339
-0.000314
-0.000047
0.000807
0.000833
0.000330
0.000347
0.000298
0.000645
-0.001202
0.001419
-0.000651
-0.001136
-0.000081
0.000480
0.000864
0.000847
0.000106
0.000413
-0.000114
-0.000531
0.000880
0.000129
0.000101
0.000947
0.000468
0.000472
0.000200
0.000822
-0.000314
-0.000260
-0.000787
0.000318
0.000305
0.000338
0.000868
0.000213
0.000330
0.000750
-0.000088
0.000367
0.000257
-0.000751
0.000779
0.000918
0.000238
0.000654
0.000392
0.000399
0.000300
-0.000549
-0.000539
0.000785
-0.000508
-0.000010
0.000830
0.000729
0.000309
0.001544
-0.000035
-0.000780
-0.000030
0.000967
0.000554
-0.000588
0.000423
0.000424
0.000273
-0.000529
-0.000151
-0.000038
0.000051
0.000040
0.000076
0.000535
0.000443
0.000415
-0.000650
-0.000704
-0.000699
0.000308
0.000301
0.000291
0.000739
0.001266
0.000214
0.000291
0.000272
0.000235
0.000761
0.000914
-0.000387
0.001126
-0.000887
-0.000923
-0.000050
-0.000024
-0.001125
-0.000613
-0.000536
-0.000557
-0.000521
-0.000734
-0.000742
0.000283
-0.000898
0.000863
-0.000301
-0.000943
-0.000543
-0.000740
0.001236
0.000241
-0.000099
-0.000428
0.000060
0.000287
-0.000630
0.000277
0.000237
0.000286
-0.000052
0.000518
0.000281
0.000158
0.000030
-0.000901
-0.000814
0.000979
-0.000558
-0.000379
0.000480
-0.000235
0.000020
-0.000852
-0.000818
0.000300
-0.000822
0.000585
-0.000810
0.000240
-0.000269
-0.000788
-0.000735
0.000703
-0.000458
0.000400
0.000014
-0.000014
0.000491
-0.000190
0.000234
-0.000787
0.000516
0.000486
-0.001728
0.000327
0.001591
0.001584
-0.000288
0.001118
0.000119
-0.000144
-0.001316
-0.000927
0.000437
0.000315
-0.000088
0.000991
-0.000089
-0.000095
0.000479
-0.000005
0.000673
-0.000283
-0.001515
-0.000594
-0.000857
0.001179
0.000251
0.000249
-0.000208
-0.000830
0.000539
0.000934
-0.000053
-0.000006
-0.001620
-0.001307
-0.001043
-0.000746
-0.000156
-0.000000
-0.000722
-0.000847
0.001447
0.001493
-0.000328
-0.000866
-0.000884
-0.000220
-0.000935
0.000178
-0.001108
-0.001001
0.000808
-0.001199
-0.001170
-0.001100
-0.000770
-0.000984
-0.000950
0.000104
-0.000233
-0.000404
-0.000368
0.000748
-0.000094
0.000113
-0.000103
-0.000419
-0.001498
-0.000170
-0.000164
-0.000661
-0.000012
0.000012
0.000091
0.000135
0.000152
0.000147
-0.000534
-0.000311
0.000135
-0.000114
-0.001178
-0.000277
0.000149
-0.000466
-0.000582
-0.000663
-0.000656
-0.000091
0.000025
-0.001174
-0.001133
-0.000175
-0.000572
-0.000864
-0.001247
-0.000208
0.000121
0.000135
-0.000619
-0.000637
-0.001310
-0.000996
-0.001021
-0.000965
-0.000921
0.000207
0.000780
-0.000199
-0.000152
-0.000177
0.000154
0.001134
-0.001344
-0.000234
-0.000327
0.000081
-0.000191
0.000512
0.001540
-0.001445
0.000338
-0.000046
-0.000130
0.001041
-0.000090
-0.000104
-0.000957
-0.001016
-0.000617
0.001146
-0.001286
0.001476
-0.001464
-0.001325
-0.001416
0.001643
0.000088
-0.000123
-0.000333
0.000361
0.000460
0.000061
-0.000085
-0.000245
-0.000224
-0.000213
-0.001578
-0.001342
0.000216
0.001240
-0.000638
-0.001044
-0.000247
-0.000624
0.000128
-0.000046
0.000102
0.000103
0.000101
0.000063
-0.000006
-0.000033
-0.000287
-0.000170
-0.001165
-0.000025
0.000114
-0.000296
-0.000584
0.000066
-0.000347
0.000128
-0.000677
-0.000039
-0.000155
0.000031
0.000033
0.000179
-0.001614
-0.000670
-0.000356
-0.001047
0.001569
0.001182
-0.001126
0.000133
0.000582
0.000115
0.000658
-0.000979
-0.000254
0.000135
-0.000263
-0.000044
-0.001293
-0.000445
-0.000126
-0.000143
-0.000303
-0.000331
0.001426
0.000146
0.000121
-0.000897
-0.001191
0.000210
0.000167
-0.000171
-0.000558
-0.000461
-0.000550
-0.001231
-0.000082
0.001280
-0.000978
0.000099
-0.000202
0.001507
0.000217
0.000097
-0.000383
0.000581
-0.001118
0.001365
-0.000826
0.001295
-0.000240
-0.000646
0.000002
0.000048
-0.000729
-0.000174
0.000773
-0.001253
-0.000108
0.001421
-0.001703
-0.000643
-0.001528
0.000559
0.000674
-0.000491
0.000163
0.000316
0.001123
0.001099
-0.000555
-0.000662
-0.000430
-0.000709
-0.000756
0.001378
-0.000476
0.001482
-0.000591
-0.000012
-0.000056
-0.000020
-0.000008
-0.000000
0.000009
0.000005
-0.001162
-0.001466
-0.000348
-0.001059
-0.001236
-0.000144
-0.000382
-0.000479
-0.000501
-0.001580
-0.000088
-0.000440
-0.000579
-0.000338
-0.000532
-0.000629
-0.000118
-0.000138
-0.001348
-0.001347
-0.000916
0.001419
0.000313
-0.001089
-0.001076
-0.000875
-0.001127
-0.000383
-0.000859
-0.000682
0.000013
0.000075
-0.000403
0.001007
0.000033
-0.000578
0.001257
-0.001089
-0.000903
0.001004
-0.000094
-0.001405
0.000143
-0.000414
-0.000184
0.001360
0.001048
-0.000191
0.000125
-0.001088
0.001069
-0.000068
0.000929
-0.000756
0.000896
-0.000011
-0.001695
-0.000237
-0.000537
-0.000405
0.000056
-0.000257
0.000244
-0.000785
-0.000671
-0.000525
0.000061
0.000291
-0.000237
-0.000166
-0.000343
0.001608
0.001613
-0.000072
0.000681
0.000492
-0.000040
0.000157
-0.000225
-0.000655
0.000037
0.001218
0.000220
-0.000486
-0.000520
-0.000410
0.001308
-0.000492
0.000400
-0.000095
0.000329
0.000059
-0.000248
0.000202
0.000007
0.000454
0.000309
0.000997
0.001077
0.000254
-0.000716
-0.000000
-0.000131
-0.001155
0.001252
0.000395
-0.001484
-0.001262
0.000132
-0.001337
-0.001385
0.000717
-0.001118
-0.001277
-0.000026
-0.000017
-0.000233
0.001030
0.000241
0.000309
-0.000995
0.000393
0.000328
0.000956
0.000042
-0.000732
-0.000018
0.000035
-0.000509
0.000021
0.000001
-0.000042
-0.000062
0.000025
0.000035
0.000078
0.000063
0.000107
-0.000173
-0.001010
0.000837
0.001384
0.000559
-0.001582
0.000508
-0.000869
0.000600
0.000464
-0.000103
-0.000051
0.000229
-0.000085
0.000685
0.000230
-0.000853
-0.000076
-0.000082
0.001069
-0.000238
0.000821
-0.001092
-0.000236
-0.000524
0.000878
-0.000304
-0.000496
-0.000144
-0.000795
-0.000206
-0.001429
0.000181
-0.000684
-0.001086
-0.000169
-0.000192
-0.000355
-0.000819
-0.000397
0.000304
0.000005
-0.000079
-0.000844
-0.001067
0.000427
-0.000070
-0.000352
0.000119
0.000189
-0.000222
-0.000289
0.000175
-0.000082
-0.000173
-0.000465
-0.000045
-0.000034
-0.000033
-0.000016
-0.000035
-0.000019
-0.000003
-0.000004
-0.000014
0.000007
-0.000005
0.000006
0.000014
0.000007
0.000005
0.000124
0.001322
-0.000068
0.000249
-0.000006
0.001578
-0.000280
-0.000380
-0.000197
0.000984
0.000048
0.001341
0.000859
0.000678
-0.000269
0.000757
0.000069
-0.000234
0.000011
0.000477
-0.001076
-0.001265
0.001038
0.000420
0.000149
-0.000385
0.000216
-0.000068
0.000243
-0.000044
-0.000464
0.001312
-0.000455
0.000045
0.000007
-0.000858
0.001655
0.000858
0.001288
0.000756
0.000936
0.000988
-0.000064
0.000812
-0.001491
0.000003
0.001139
0.001199
-0.000783
-0.000983
0.000434
-0.000089
-0.000077
-0.000385
-0.001444
-0.001499
0.000319
-0.001634
-0.000427
-0.000739
-0.000750
-0.000878
-0.000137
-0.000054
0.000000
-0.000160
-0.000138
0.001316
0.000539
0.000113
-0.000288
0.001258
-0.000620
-0.000493
-0.001324
0.001652
-0.000340
-0.001500
0.001648
0.000997
-0.000058
0.001642
-0.001443
-0.000340
0.001503
0.001612
-0.000008
0.001167
-0.000135
0.000294
0.000353
-0.000449
-0.000166
-0.000075
-0.000098
0.000665
-0.000096
-0.000729
0.001667
-0.000015
-0.000713
-0.000683
0.000248
0.001630
-0.000000
0.000920
-0.000628
-0.000581
0.000982
-0.000901
-0.000552
-0.000965
-0.000224
0.000029
0.000476
-0.001495
-0.000152
-0.001660
-0.000901
-0.000045
0.000260
0.000857
0.000047
-0.001684
0.000130
0.000296
-0.000283
-0.000227
-0.000089
-0.000157
-0.000560
-0.000450
-0.000211
0.000908
0.000609
0.000466
-0.000073
-0.000707
0.001089
-0.000092
-0.000134
-0.001004
0.000213
0.001224
0.000942
0.000754
-0.001206
-0.000419
-0.000091
-0.001395
0.000063
-0.000180
0.001241
-0.000050
0.000197
-0.000173
-0.000593
-0.000059
0.000240
-0.000728
-0.001278
-0.000004
-0.000030
-0.000036
0.000014
0.000055
0.000057
-0.000210
0.000779
-0.000064
-0.000664
0.000250
-0.001615
-0.000311
-0.000217
-0.000210
0.000062
-0.001185
0.000286
0.001027
0.000120
-0.000375
-0.001138
0.000005
-0.000199
0.001008
0.000019
0.000068
0.000351
0.000050
0.000878
0.001227
0.000010
0.000334
0.001473
0.000122
0.001482
-0.001245
0.000125
0.001023
0.000734
-0.000040
0.000664
-0.000099
0.001074
0.000797
0.000222
-0.000235
0.000901
0.000292
0.000012
-0.000351
0.001479
-0.000182
0.000075
-0.001044
-0.000154
0.000318
0.001184
-0.000008
-0.000009
-0.000375
0.001293
-0.000573
0.000149
-0.000387
0.000945
0.001447
0.000116
0.001706
-0.001469
-0.001019
0.000027
-0.000453
-0.000918
0.000021
0.001455
0.001096
0.000064
-0.000235
0.000144
-0.001164
-0.001154
-0.001117
0.000145
0.000877
-0.000184
-0.000297
0.001295
-0.000260
-0.000963
-0.000037
-0.000810
0.000304
0.001048
-0.000194
-0.001484
-0.000137
-0.000329
-0.000236
0.000202
-0.000000
-0.000010
-0.000035
-0.000036
-0.000029
-0.000043
-0.000149
0.000712
0.000913
-0.000038
-0.000821
-0.000609
-0.000230
0.000033
0.000264
0.000991
0.001076
0.001110
0.000018
0.000070
-0.000753
0.000097
0.000278
-0.000299
-0.000665
-0.001104
0.001372
0.000872
-0.001106
0.000296
-0.000706
0.000118
-0.000122
0.000079
-0.000670
0.000948
0.000830
0.000027
-0.000780
0.001223
0.000021
-0.000264
-0.000929
0.000559
0.000969
0.000545
-0.000417
-0.000200
0.000130
0.000277
-0.000416
-0.000247
-0.000358
0.001528
-0.000626
-0.000016
-0.000583
-0.000017
0.000059
0.001590
0.000082
0.001450
-0.000124
0.000564
-0.000200
-0.001403
-0.001547
-0.001136
0.001200
-0.000168
0.001504
-0.000591
-0.001073
0.000808
0.000650
-0.001162
0.000958
-0.000887
0.001452
0.000516
0.001340
0.001226
0.000201
-0.000831
0.000844
0.001217
0.000902
-0.000055
-0.001322
0.000070
-0.000367
-0.000510
0.000000
0.000449
-0.001074
-0.000000
0.000106
0.001275
-0.000276
0.000381
-0.000690
-0.000027
0.000029
-0.001335
-0.000328
0.000870
0.000678
-0.000892
0.000103
-0.000680
-0.001102
-0.000922
-0.001026
-0.001339
-0.000127
0.001327
-0.000706
0.001632
0.001361
-0.000795
0.000137
0.001391
0.001322
0.000739
0.000830
-0.000313
-0.000593
0.001058
-0.000760
-0.001508
0.000087
-0.000530
-0.000906
0.001591
-0.000236
-0.000973
0.001045
0.000515
-0.001435
-0.001259
0.000372
-0.000979
-0.000421
0.000590
0.001523
0.000959
-0.001299
-0.001013
0.000998
0.001203
0.001267
0.000029
-0.001273
-0.001437
-0.000069
-0.000585
0.001253
-0.000683
0.000442
-0.000277
0.001602
-0.001091
-0.000215
0.001129
-0.000325
-0.000739
0.000273
-0.000697
-0.001216
0.001559
-0.001302
-0.000140
0.001542
0.001440
-0.000029
0.000642
-0.000520
0.000362
-0.001434
-0.001116
0.000724
-0.000135
0.001117
-0.000200
-0.000081
0.001593
-0.000750
-0.000527
0.000183
-0.000339
-0.000185
0.001021
0.000390
-0.000181
0.000010
0.000082
-0.000080
0.001416
0.000145
0.000104
0.000092
0.000141
0.001508
0.001374
-0.000072
0.000397
0.000093
-0.000004
0.001166
-0.000252
0.000040
-0.000162
-0.000454
0.000654
0.000368
0.000573
0.000705
0.000778
-0.000456
0.000708
0.001715
-0.001643
0.000660
-0.001428
-0.000915
-0.000362
-0.000201
-0.001120
0.000222
0.000072
0.000689
-0.000128
0.000370
0.001426
-0.001340
0.000176
0.001195
-0.001656
0.000554
0.000291
0.001524
0.000650
0.000740
-0.000466
-0.000010
-0.000969
-0.001569
0.000131
0.001130
-0.000263
0.000058
0.000911
0.001344
0.000114
0.000057
0.000343
-0.000441
0.001051
0.000855
-0.000041
0.001164
-0.000285
0.000910
-0.000155
0.001383
-0.000869
-0.000181
-0.000257
0.000102
-0.001411
-0.000263
-0.001104
0.000260
0.000015
-0.000006
0.000166
-0.000120
-0.000391
-0.000833
-0.000805
-0.000309
-0.000407
-0.000327
-0.000241
0.000940
0.000550
0.000897
0.001528
-0.001552
-0.000969
-0.000901
-0.000266
-0.000893
-0.000049
-0.000081
-0.001295
0.000421
-0.000084
-0.000412
-0.000422
0.000481
0.000937
0.000558
-0.000168
-0.001140
0.000019
-0.000018
-0.000011
0.001325
0.001222
0.000140
0.000939
0.001393
-0.000036
-0.000059
0.000435
0.001250
-0.001094
0.000205
-0.001138
0.000097
-0.000908
-0.000487
-0.000154
0.000644
0.000467
0.000066
0.000232
0.000208
-0.000792
-0.001062
-0.000011
0.000008
0.000016
-0.000544
-0.000458
0.001252
-0.000193
-0.000366
0.000200
0.000477
0.000001
0.000088
0.000306
-0.000084
-0.000036
0.001293
-0.000003
0.000444
0.000979
-0.001316
0.000203
0.000281
-0.000135
0.000137
0.000509
-0.000658
0.000251
-0.000014
-0.000012
-0.001109
0.000982
0.001405
-0.000504
0.000344
0.000475
-0.000267
0.000530
-0.000134
-0.000067
0.000958
0.001304
0.001382
-0.001002
0.000657
0.001087
-0.000349
0.000536
0.000303
0.000117
0.000165
0.000236
-0.001066
-0.001320
-0.000085
-0.000432
-0.000697
-0.001191
-0.000236
-0.001407
0.000884
-0.000467
-0.001452
-0.000627
-0.000589
-0.000183
-0.000579
-0.000009
0.001418
-0.000229
-0.000313
-0.001267
-0.000157
-0.001565
0.000119
0.000838
-0.000707
-0.001012
-0.000452
0.000015
0.000743
-0.000184
-0.000129
-0.000106
-0.000270
-0.000031
0.000971
-0.000641
-0.001063
-0.001071
0.000819
-0.000329
0.000087
0.000033
-0.001139
-0.000203
-0.000259
-0.000155
-0.000611
0.000149
-0.000228
-0.000112
-0.000919
-0.001406
-0.001114
0.000027
-0.000372
-0.000380
0.000308
-0.000643
0.000001
-0.000915
-0.000395
-0.000338
0.001059
0.000025
0.000024
0.001339
0.000618
0.001122
-0.001260
0.000020
-0.000409
-0.001314
-0.000895
0.001659
-0.000393
0.000003
0.001473
0.001503
0.000570
-0.000765
0.000090
-0.000065
0.000865
-0.000007
-0.000258
0.000915
0.000854
-0.001039
-0.000331
-0.000099
0.000269
0.000370
0.001488
0.000115
-0.001019
0.000255
-0.000005
-0.000695
-0.000709
0.000532
0.000135
0.000024
-0.000174
0.001341
-0.000712
0.000170
0.000148
0.000915
0.000309
0.001180
0.000409
0.000964
0.000388
-0.000181
0.001198
0.000945
-0.000450
0.000782
0.000560
0.000098
-0.000423
-0.000174
-0.000160
-0.000238
-0.000037
0.000684
-0.000274
0.000254
-0.000140
0.000535
-0.000423
0.000216
-0.000803
0.000126
-0.000416
-0.001165
0.000509
0.000052
0.000272
0.001454
-0.000014
-0.000248
-0.000134
0.000478
0.000181
0.000000
0.000366
0.000443
-0.000231
0.000464
-0.000267
-0.001622
0.000579
-0.000984
-0.000200
-0.000189
0.000002
-0.000738
-0.000223
0.000696
-0.000474
-0.000222
0.000056
-0.000605
0.001465
-0.000812
0.000119
-0.000192
0.000054
-0.000108
0.000592
-0.001584
0.000197
-0.000070
-0.000785
0.001348
0.000357
0.000041
-0.000351
0.000190
0.000066
-0.000265
0.000703
0.000675
0.001650
-0.000363
-0.000011
-0.000028
-0.000129
0.000240
0.000447
0.000426
0.000593
-0.000070
0.000592
-0.000343
-0.000116
0.000352
-0.001517
-0.000392
0.000413
0.001661
0.000509
0.000766
-0.000050
-0.000066
-0.000313
0.000385
0.000400
-0.000330
0.000728
0.000854
0.000094
0.000756
-0.000052
-0.001423
0.000555
0.000306
0.000414
-0.000545
-0.000496
-0.000498
-0.000727
0.000941
0.000403
0.000116
0.000951
0.000932
0.000278
0.000130
0.000334
-0.000231
0.000164
0.000360
-0.000118
-0.000117
0.000076
-0.000330
0.000640
0.001494
0.001385
0.000453
-0.000371
-0.000040
0.000840
-0.000507
0.000810
-0.000261
-0.000000
0.000944
0.000964
0.000916
-0.000569
0.000278
0.000694
0.000667
0.000526
0.000311
0.000298
0.000801
0.000321
0.000252
0.001145
-0.000021
-0.000158
0.000873
-0.000654
-0.000589
-0.000974
0.000395
0.000584
0.000854
0.000261
-0.000860
0.000493
-0.000578
0.000276
0.000248
-0.001445
0.001203
0.001452
0.000304
-0.000210
0.000041
-0.000341
0.000316
-0.000526
0.000198
0.000613
0.000443
-0.000798
-0.000843
0.000548
-0.001095
-0.000773
-0.000316
-0.001458
0.001630
0.000269
-0.000227
0.000237
-0.001033
-0.000317
-0.000127
-0.000966
0.000004
-0.000123
-0.001537
-0.000789
-0.001446
0.001361
0.001395
0.001218
0.000129
-0.000230
-0.000212
0.001410
0.000119
-0.001118
-0.000204
-0.000366
0.000059
0.000102
0.000164
-0.000353
-0.001176
0.000874
0.000175
-0.001210
-0.000590
-0.000596
0.001294
-0.001435
-0.000553
-0.000712
-0.000980
-0.001083
0.000075
-0.001245
-0.000896
-0.001573
-0.000177
-0.000339
-0.001478
-0.001029
0.001316
0.000222
0.000159
0.000196
0.000206
0.000089
-0.001614
0.001154
0.001161
0.000841
0.000251
-0.000762
-0.000709
0.000091
-0.000073
-0.001040
-0.000674
-0.001054
0.000085
0.000117
0.000010
-0.001055
0.000500
0.000544
-0.000136
0.001482
0.001547
0.000118
-0.001358
-0.001166
-0.000390
-0.000000
0.000222
-0.000324
0.001186
-0.000000
-0.000943
-0.000060
0.000278
-0.000716
0.000571
0.001306
0.000083
-0.000103
-0.000360
0.000121
0.000177
-0.000203
0.000563
-0.000223
-0.000308
-0.000287
-0.000120
0.000214
-0.001594
-0.000264
0.001419
-0.000524
-0.000790
0.000145
-0.000572
0.000145
-0.000411
-0.000408
0.000259
0.000172
0.000997
0.000460
-0.000138
0.000130
0.001418
-0.000362
-0.000833
-0.000041
0.000036
0.000619
-0.000230
-0.000197
0.001363
0.000075
0.000132
-0.001388
0.001294
-0.001081
0.000209
0.000539
-0.001505
0.000349
-0.001473
-0.000354
-0.000686
-0.000151
0.000236
-0.000813
-0.000192
0.000603
0.001449
-0.000230
-0.001210
0.000936
-0.000205
-0.000493
0.000192
0.000160
-0.000098
-0.000897
-0.000226
0.000274
0.001671
0.001288
-0.000301
0.001500
-0.000776
0.000251
-0.000087
-0.000077
-0.001643
0.000550
0.001035
0.000857
0.000058
-0.000361
-0.000959
0.000123
0.001330
0.000887
0.000119
0.001095
-0.001060
-0.001310
-0.000419
0.001483
0.000669
-0.000012
-0.001007
-0.000264
0.000917
0.000761
0.000237
-0.000291
0.000181
-0.000195
0.000189
-0.000171
0.000094
0.001475
0.000419
-0.000971
-0.000279
0.000282
-0.001498
-0.000112
-0.001311
0.000400
-0.001039
0.000513
-0.000184
0.000738
0.001304
-0.000046
0.001252
-0.000014
-0.000595
0.000575
-0.000519
-0.000121
-0.000000
-0.000067
-0.001462
-0.001038
0.000261
0.001365
0.000143
-0.001175
-0.001346
-0.000147
-0.001135
-0.000205
-0.000894
0.001342
0.000170
0.000109
0.000189
0.000659
-0.000108
-0.000360
0.000010
0.001227
0.000827
0.000070
-0.000917
0.000744
-0.000962
-0.000045
0.000015
0.001206
0.000493
-0.000935
-0.000054
-0.000040
-0.000235
-0.000850
0.001424
-0.001481
0.000027
-0.000844
-0.001584
0.000599
0.000703
0.001066
0.000288
-0.000190
0.000597
0.001175
-0.000126
0.000781
-0.000396
0.000209
0.000677
0.000574
-0.000786
-0.000223
0.001349
0.000193
0.001623
0.000842
-0.000370
-0.001136
0.001210
-0.001078
-0.000675
0.000031
-0.000643
-0.000000
-0.000841
-0.000999
0.000129
-0.000166
0.000698
0.000965
-0.001283
-0.001253
-0.001321
0.000059
0.000688
0.000081
0.000100
0.000299
-0.000314
-0.000409
0.000895
-0.000038
-0.000201
-0.000936
0.000109
0.001128
0.000274
0.001184
0.000483
-0.000299
-0.000085
0.001160
0.000655
0.000200
-0.000011
0.000730
-0.001074
-0.000265
-0.000761
0.001594
-0.000158
0.000501
-0.001114
-0.000430
0.000341
-0.000286
-0.000811
-0.000203
0.000134
-0.000018
0.000085
0.000167
-0.001182
0.000195
0.001241
0.000011
0.000069
0.000231
-0.000186
-0.000040
0.000212
0.001658
-0.000930
0.000332
-0.000236
-0.001619
-0.000963
-0.001430
0.000509
0.000172
-0.000707
-0.000344
0.000084
0.000422
-0.000359
-0.000469
-0.000775
-0.000830
-0.000847
0.000054
0.000343
0.001483
-0.000288
-0.000771
0.001151
0.000073
-0.000440
0.000205
0.001204
0.000447
-0.001596
0.001151
-0.000704
0.001641
0.000062
0.000185
0.000282
0.000158
-0.000040
-0.000928
0.000923
0.000780
-0.000970
0.000957
0.001070
-0.000991
-0.001594
0.000154
0.000956
-0.001295
0.000420
-0.000646
-0.000238
0.000863
0.001215
0.000819
-0.001497
-0.000305
-0.000500
0.000600
0.000143
0.000477
0.001156
-0.000491
-0.000305
0.001120
-0.001563
-0.000582
0.000251
0.001574
-0.000688
-0.001724
-0.001564
0.001317
0.001326
-0.001118
0.000932
0.001229
-0.000612
-0.000578
-0.000358
-0.001010
-0.001357
0.000855
-0.000463
0.000277
-0.000442
0.000847
0.001057
-0.001173
0.000693
0.001153
-0.000211
0.001211
0.001443
0.000237
-0.000797
-0.000271
-0.000167
0.000193
-0.000078
-0.001609
-0.001129
-0.000998
0.000849
-0.001119
-0.000955
-0.001475
0.000130
0.000099
-0.001364
0.000265
-0.000934
-0.000377
0.000969
-0.000147
0.000703
0.000500
0.001401
0.000741
0.000463
0.000292
0.000834
0.000909
-0.000424
-0.001031
0.000036
0.001245
0.001293
-0.001658
0.000527
-0.001211
-0.001237
-0.000294
0.000767
-0.000320
-0.000389
0.000079
-0.000822
0.000498
0.000145
0.000579
0.000129
-0.000362
0.000098
0.001363
0.000892
0.000277
0.000017
0.001519
-0.000105
0.000618
0.000510
0.000159
0.000542
-0.000304
-0.000050
-0.000246
-0.000901
0.000094
0.001206
0.000190
0.000488
0.001364
0.000323
-0.000582
0.000499
-0.001392
0.000293
0.000743
-0.001022
0.000868
0.001175
-0.000615
0.000356
0.000812
-0.001083
0.000969
0.001271
0.001232
-0.000176
-0.000380
0.000106
-0.000438
0.001625
0.001406
0.001502
0.001243
-0.000492
0.001469
-0.001483
0.000972
0.000615
-0.000055
0.001560
0.001138
-0.000413
0.001123
-0.000115
-0.000319
0.000379
0.000075
-0.000007
0.000593
0.001466
-0.000157
-0.000260
-0.000984
-0.000290
-0.000409
-0.000103
0.000143
-0.000855
0.000935
-0.000119
0.001360
-0.000371
-0.000471
-0.000439
0.000017
0.000004
0.000939
-0.000545
0.000306
0.000566
-0.000991
0.000492
-0.000360
-0.000938
0.001350
-0.000761
-0.000748
0.000730
-0.000205
0.000071
-0.001129
0.001073
0.000598
0.001360
-0.000989
0.000578
0.000029
0.001268
0.001371
-0.000629
-0.001110
-0.000219
0.000252
-0.001082
-0.000456
0.000185
0.001176
-0.000282
0.001446
-0.000388
0.001375
-0.001573
-0.000184
-0.000440
-0.000379
0.001602
-0.000370
-0.000113
0.000013
-0.001134
-0.000324
-0.000477
0.000839
0.001030
0.000589
0.000946
0.001438
-0.000234
0.000152
-0.000259
-0.000410
-0.000597
-0.000998
-0.000456
-0.000808
-0.000209
-0.000137
-0.001637
-0.000307
0.000143
-0.000069
0.000870
0.000017
0.000915
0.000185
-0.001706
-0.001480
0.001482
0.000165
0.001346
0.000861
0.000064
-0.001358
0.001590
0.000033
0.000990
-0.001660
-0.000667
0.000791
-0.000218
-0.000023
-0.000864
0.000019
0.000032
0.000731
-0.000509
0.000428
0.000040
0.000821
0.000527
-0.000946
0.001474
0.000637
-0.000151
0.001560
0.000046
-0.000056
-0.000680
-0.000783
-0.000102
-0.000701
0.000637
-0.000233
-0.001056
-0.000100
-0.000651
-0.001252
-0.000142
-0.000154
-0.000658
0.000795
-0.000844
0.000605
-0.000150
0.000489
0.000157
0.000542
0.000576
-0.000002
0.000498
0.000635
-0.000195
-0.000849
0.000151
0.000391
0.000589
0.000610
0.000558
-0.000778
0.000619
0.001569
-0.000203
-0.000292
-0.000031
-0.000549
0.001149
0.000993
-0.000013
0.000120
-0.000092
0.000330
0.001295
-0.000261
-0.001428
0.000479
-0.001667
0.000495
0.000572
0.001448
-0.000994
-0.000098
0.000724
0.000686
0.000070
0.000557
-0.000406
0.000508
-0.001225
-0.000338
-0.000400
-0.000468
0.000406
-0.000377
-0.000200
-0.000074
-0.000342
0.000819
-0.000448
-0.000308
0.000202
-0.000376
0.000346
-0.000327
0.000080
0.000828
-0.000356
-0.000276
0.000589
0.000248
0.000970
0.000228
-0.000314
0.000787
0.000388
0.000369
-0.000460
-0.000961
0.001012
0.000947
0.000939
0.000552
0.000385
0.000377
0.000230
0.000296
-0.001092
0.000860
-0.000660
0.000493
0.001470
0.000291
0.000302
-0.000561
-0.000818
-0.000507
-0.000650
0.000895
0.000564
-0.000253
0.000116
0.000468
0.001562
0.000231
-0.001567
0.001267
-0.000130
0.000337
-0.000330
0.001472
-0.000152
-0.000321
-0.000338
-0.000373
-0.000157
0.000185
-0.000517
-0.000030
-0.000030
-0.000450
-0.001201
0.000063
0.000032
0.000065
-0.001385
-0.001055
0.000162
-0.000142
-0.000416
-0.000093
-0.000068
-0.001045
-0.000319
-0.000151
0.000312
-0.000067
-0.000098
-0.000546
-0.000500
0.001593
0.000039
-0.000106
-0.001157
0.000128
0.000136
-0.000058
0.000096
-0.000869
-0.000166
-0.000138
-0.000937
0.001537
0.001466
-0.000028
-0.000498
-0.000175
-0.000116
0.001313
-0.001194
-0.000660
0.000892
-0.000370
0.001312
-0.000161
-0.000156
0.000105
0.000130
-0.000932
-0.000272
-0.001243
-0.001234
0.001573
0.000145
-0.000242
0.000715
0.001189
-0.000064
-0.000001
-0.000191
0.000200
-0.000020
-0.000148
-0.000000
-0.000517
0.000237
0.001453
0.000186
0.000174
0.000268
0.001226
-0.000083
-0.000219
0.000952
-0.000127
-0.000162
0.001558
0.000934
0.000859
0.000346
-0.000671
0.001014
0.001318
-0.000861
0.000550
0.001051
0.001354
0.000261
0.000750
-0.001311
0.000033
0.001274
0.001437
0.000545
0.001120
-0.000871
-0.000436
0.000594
0.001117
0.001097
0.000030
0.000054
-0.001041
-0.001267
-0.000892
-0.000201
-0.000274
-0.001072
0.000002
-0.001117
0.000900
0.000259
0.000603
-0.000021
0.001265
-0.000282
0.001103
-0.000701
0.000517
-0.000504
0.000553
-0.000241
-0.001036
0.000471
-0.000243
-0.000799
0.001538
-0.000008
0.001479
0.000594
-0.000310
-0.000887
0.000450
-0.000202
-0.001117
0.000103
-0.000147
-0.000309
-0.000594
0.001398
0.001231
0.000125
0.000127
-0.000754
-0.000342
-0.001722
-0.001271
0.000587
-0.001504
0.001547
0.000032
0.000698
-0.000573
-0.000212
0.000149
-0.000569
0.000965
0.000436
-0.001600
-0.000750
-0.000043
0.000137
0.000043
-0.000794
0.000204
-0.000014
0.000166
-0.000598
0.001724
-0.000197
-0.000920
-0.000949
-0.000360
0.000484
0.000739
0.000028
-0.001501
0.000372
-0.000070
0.000917
-0.001049
0.000455
0.000100
0.000480
0.000196
-0.000235
0.001191
-0.000823
0.000587
-0.000261
-0.000624
-0.000062
-0.000847
0.000314
0.001445
0.001088
0.001557
-0.001344
-0.000239
-0.000479
-0.000363
0.000847
0.000117
0.000344
0.001102
-0.000998
0.001341
0.001197
0.000351
0.001168
0.000812
-0.000134
-0.000430
0.000186
-0.000247
-0.001044
-0.000191
0.001428
0.000287
0.000396
-0.000073
-0.000091
-0.000067
0.000288
0.000507
0.000477
-0.000089
-0.001023
-0.000278
0.000083
-0.000831
-0.000141
0.000323
-0.000483
0.000759
0.000602
0.001697
0.000756
0.000060
0.000963
-0.001309
0.001052
0.000288
-0.001303
-0.000645
-0.000859
0.000654
0.000299
-0.000249
0.001137
-0.000433
-0.000348
-0.000339
-0.000785
0.000503
-0.000069
0.000790
0.000131
-0.000166
0.000008
0.000156
0.000165
0.000215
0.000182
-0.000623
0.001263
0.000382
0.001385
-0.000770
-0.000166
-0.001738
0.000904
0.001109
0.000923
0.000902
0.000943
-0.001239
-0.000460
0.000128
0.000780
0.000027
-0.001480
-0.000386
0.000900
-0.000261
-0.000171
0.000250
0.000514
0.001157
0.000355
0.000679
0.001380
-0.001017
0.001054
0.001668
0.001155
0.001738
0.000233
-0.001043
-0.000231
-0.001524
0.000019
-0.001448
-0.000217
-0.000292
-0.000905
0.001257
-0.001191
0.000901
-0.000963
0.000134
0.000804
-0.000566
-0.001383
0.000128
0.000125
-0.000182
0.001211
0.000170
0.000706
0.001492
-0.001228
-0.000673
0.000656
-0.000044
-0.000935
-0.001218
0.000473
-0.000071
-0.000490
0.000898
0.000186
0.000396
0.000038
-0.000857
0.000131
-0.000249
0.000218
0.000926
0.000922
-0.000351
-0.000799
0.000140
0.000107
-0.000521
-0.000164
0.001303
0.001320
0.001174
0.000723
0.000720
0.000431
-0.001246
-0.000482
-0.000061
-0.001178
-0.000157
0.000524
0.000555
0.000134
0.000213
-0.001011
0.000110
0.000238
-0.000915
-0.000819
0.000008
0.001335
0.001384
0.000122
0.000650
-0.000440
0.001079
-0.000450
-0.000302
-0.000837
-0.000794
0.000103
-0.000841
0.000342
0.000300
-0.000276
-0.000093
0.001154
-0.001110
-0.001548
0.001099
-0.001392
-0.001632
-0.000487
0.001223
0.001729
0.001707
-0.000624
0.000690
-0.000229
-0.000538
0.001156
-0.000158
-0.000348
0.000582
0.001386
0.000450
-0.000006
0.001191
0.000065
0.000017
0.000041
0.000672
0.000232
0.000300
0.000124
-0.000553
-0.000042
-0.000975
0.000487
-0.000946
-0.001659
-0.001001
-0.000090
0.000512
-0.000080
0.000077
-0.000094
0.000984
-0.000012
-0.000304
0.000558
-0.000251
0.000628
0.000271
0.000522
0.000500
0.000104
0.000133
0.000472
-0.001215
-0.000166
-0.000933
0.000608
0.000250
0.000548
-0.000690
0.000602
0.001403
-0.000115
0.000394
0.000610
0.000647
-0.000398
-0.000875
0.001097
-0.000149
0.001351
-0.000177
0.000699
0.000049
-0.000296
-0.000446
-0.001468
0.000502
0.000901
0.001417
0.000722
0.000476
0.001524
0.000936
0.000475
-0.000023
0.000386
0.000544
-0.001081
0.000441
0.000980
0.000156
0.000918
-0.000320
0.000139
-0.000057
-0.001242
0.000157
-0.000090
-0.000400
0.000400
-0.000681
0.000708
0.000113
-0.001283
0.000352
-0.000037
0.000673
-0.000301
-0.000328
-0.000464
0.000347
-0.000020
0.000359
0.000349
-0.000656
0.000795
0.000362
0.000067
0.000980
0.000010
0.000359
0.000994
0.001327
0.000950
0.001043
0.001062
0.000336
-0.001483
-0.001069
0.001406
0.000946
0.000654
-0.000000
-0.000368
0.000236
0.000904
0.000064
-0.000063
0.000131
0.000044
-0.000005
-0.000211
-0.001092
-0.000640
0.000306
-0.000997
0.000715
-0.000368
-0.000451
0.000121
0.000168
-0.000160
-0.000462
-0.000224
-0.000165
0.000378
-0.001199
0.001148
-0.000100
0.000146
-0.001559
-0.000987
-0.000449
0.001240
-0.000597
-0.000673
0.000204
0.000052
0.000046
-0.000019
-0.000441
-0.001164
0.000031
0.000275
-0.001388
0.001409
0.000181
0.000141
0.000147
0.000146
0.000242
0.000583
0.001311
-0.000591
-0.000601
-0.000948
-0.001007
0.000069
-0.000061
0.000712
-0.000519
0.000115
-0.000970
-0.001056
0.001252
-0.000246
0.000085
-0.001419
0.000172
0.000114
-0.000476
0.000395
-0.000009
0.000135
-0.000291
0.000111
-0.000518
-0.000010
0.000853
-0.000703
0.000797
-0.000309
-0.000205
-0.000145
-0.000610
0.000119
-0.001341
-0.000633
0.000276
-0.001223
-0.000366
0.001214
-0.001125
0.000337
0.000201
0.000205
0.001236
-0.000081
-0.000252
0.000049
-0.001366
0.000457
0.000213
0.000040
-0.000804
0.000034
-0.000274
-0.000992
-0.001007
-0.000988
-0.000210
-0.000746
-0.001501
0.000420
-0.001651
-0.000779
0.000611
0.000202
0.001523
-0.001186
-0.001438
-0.000149
0.000452
0.000458
0.000885
0.000309
0.000428
-0.000738
-0.000795
-0.000142
-0.000199
0.000936
-0.001636
0.001389
-0.000323
0.000612
0.000642
0.000005
0.000520
0.000322
0.000021
0.001003
-0.001111
-0.001247
0.001656
0.001451
-0.000163
0.000163
0.000199
0.000423
0.000959
0.000008
-0.000857
-0.000159
-0.000038
-0.000221
-0.001451
-0.000594
0.000266
0.001630
-0.000404
-0.001395
-0.000322
0.000487
0.000629
-0.000608
-0.001028
0.000001
0.000691
-0.000262
-0.000126
0.000347
-0.000353
0.000460
-0.000093
-0.001192
-0.001437
-0.000177
0.001010
0.000056
0.000626
0.000798
0.001245
0.000145
0.000307
0.000333
0.000641
0.000758
-0.000448
0.001623
-0.000350
0.001517
0.001440
-0.000115
0.000992
0.000202
0.000136
-0.001528
-0.001241
-0.000734
0.000180
0.000129
-0.001167
0.000788
0.000111
0.001309
-0.000759
-0.001052
-0.000423
-0.001312
-0.000796
0.000333
-0.000844
0.000086
0.000818
-0.001126
-0.001154
-0.001352
-0.001338
0.000994
-0.000000
-0.000010
-0.000113
-0.001593
-0.001551
0.000875
0.001023
-0.000332
0.000772
0.000039
-0.001470
0.001101
0.000598
-0.000001
-0.000695
-0.000511
-0.001414
0.001361
-0.000236
0.000826
0.001205
0.000886
0.001452
0.001437
-0.001125
-0.001228
0.001326
0.001324
0.001620
0.000530
-0.000375
-0.000712
0.000037
0.001476
0.001310
-0.001006
0.000133
-0.001525
0.001053
0.000823
0.000471
-0.000237
0.000139
-0.000050
0.001542
-0.000344
0.001742
-0.000976
-0.000755
0.000718
-0.000131
0.000526
0.000524
-0.000820
0.000908
0.000674
0.000785
-0.001320
0.000123
-0.000002
0.000100
-0.000136
0.001340
-0.000999
0.000097
0.000669
-0.000292
0.000775
0.000891
-0.000024
-0.000162
-0.000147
-0.000018
-0.000506
0.000761
-0.000349
0.000341
0.000998
-0.000398
-0.000766
0.000085
0.000673
-0.000098
0.000864
0.000070
0.001383
-0.000391
-0.001007
0.000676
0.001421
-0.000892
-0.000771
-0.001212
-0.001425
0.000357
0.000072
0.000729
-0.001475
-0.000165
-0.000395
-0.001203
0.000330
0.001046
0.000716
0.000720
-0.000676
-0.000251
-0.000029
0.001449
-0.001560
-0.000091
-0.000027
-0.000622
0.000144
0.000108
-0.001484
0.000233
0.001542
0.000219
-0.000360
-0.001296
-0.001130
-0.000035
-0.000361
0.001180
0.001740
-0.000952
0.000994
-0.000523
-0.000045
0.000946
-0.000110
-0.000832
-0.001379
-0.000483
-0.000782
-0.000353
-0.000190
-0.000654
-0.000081
-0.001491
-0.000155
-0.001054
-0.001299
0.000519
0.000257
-0.000029
-0.000140
0.001176
0.000587
0.000118
0.000418
0.000023
0.000391
-0.000233
-0.001176
0.000062
0.000083
-0.000021
-0.001281
0.001741
-0.000355
0.000276
0.000034
-0.000369
-0.000697
-0.001620
-0.001262
0.000309
-0.000277
0.000634
-0.000312
-0.000188
-0.000499
0.000303
0.000915
-0.000501
-0.000819
0.000124
0.000683
-0.000035
0.000015
-0.000170
0.001696
0.000371
-0.000425
-0.000638
-0.000383
0.000783
0.000066
0.001081
0.001291
0.000387
-0.001692
-0.000300
-0.001174
-0.000289
-0.000475
0.000318
0.000298
-0.001258
0.001201
-0.000186
0.000108
-0.001562
0.000243
0.001486
0.000333
0.001402
0.000016
-0.000610
0.000716
0.000024
-0.000029
0.000230
0.001289
0.000479
0.000198
0.001410
-0.000341
-0.000409
-0.000109
0.000146
0.000073
0.000166
0.000340
-0.000249
0.000238
-0.001150
0.000093
-0.000049
-0.000056
0.001478
0.000094
0.000074
-0.000055
0.001634
0.000081
-0.000322
-0.000313
-0.001169
-0.001389
-0.000588
0.001288
-0.000123
0.001555
0.000247
-0.000436
0.001565
0.001658
-0.000397
0.000643
0.000575
0.000405
0.000825
0.000695
-0.001618
-0.000413
-0.000154
0.001011
0.000230
0.000453
-0.000177
0.000057
-0.000141
-0.001168
0.000861
0.001492
0.000386
0.001164
0.001492
0.001174
-0.000190
-0.000251
-0.000416
-0.000904
0.000334
0.000844
-0.000270
-0.000179
-0.000030
0.000000
-0.000394
-0.000035
0.000613
-0.000287
-0.000462
0.000750
-0.001382
0.000598
0.000456
0.000722
-0.000243
-0.000941
0.000018
-0.000011
0.000158
0.000227
-0.000392
0.001467
-0.000105
-0.000904
-0.000276
0.001090
0.000489
-0.001537
0.000797
-0.001607
0.001225
0.000167
-0.000394
-0.001028
0.001348
0.001317
-0.001556
0.000048
0.000667
0.000451
-0.000482
-0.000833
-0.000215
-0.000161
0.000799
0.000106
0.001283
-0.000192
0.001572
-0.000090
-0.000064
0.000085
-0.000056
0.000118
-0.000744
0.000550
0.000411
0.000303
-0.000616
0.000564
0.001584
0.000779
-0.000441
0.000373
0.000735
0.000897
-0.000657
-0.000785
-0.000456
0.001429
0.000544
0.000961
-0.000503
-0.001063
0.000538
0.000081
0.000351
0.000490
-0.000160
-0.000167
-0.000330
-0.000258
-0.000316
0.000132
0.000202
-0.000219
0.000393
0.000484
0.000050
0.001187
0.000579
0.000994
0.000424
0.000586
0.000160
-0.001650
0.001295
-0.000024
0.001175
-0.001147
-0.000127
0.000997
0.000945
-0.000599
-0.000130
-0.000469
-0.000157
-0.000483
-0.000217
-0.001263
-0.000823
0.001741
-0.000793
0.001382
0.000029
-0.000037
-0.001566
0.000055
0.000253
0.000685
0.000966
0.000494
0.000131
0.001415
-0.000292
-0.000167
-0.000397
-0.000298
0.000140
-0.000015
0.000007
-0.001568
0.000443
0.000705
0.000005
-0.000076
-0.000608
0.000113
-0.001102
-0.001404
0.000358
-0.001358
-0.001601
-0.000519
0.000705
-0.000870
-0.000475
-0.000074
-0.000334
0.000185
0.000221
0.000831
-0.001647
0.000594
-0.001213
-0.000079
-0.000399
-0.000349
0.000385
0.000531
-0.000286
0.000627
0.001150
-0.001700
-0.000559
0.000028
-0.000394
-0.001226
-0.000312
0.000620
0.000317
-0.000089
-0.000760
0.000770
0.000239
0.000139
-0.000189
0.000105
0.001458
0.000687
-0.001674
-0.000213
0.000391
-0.000155
0.000041
-0.000473
-0.000166
0.000108
0.000571
0.000586
0.000949
-0.000048
-0.000049
-0.000769
0.000963
0.001166
-0.000140
0.001059
0.000617
0.000344
-0.000027
0.000046
-0.000647
-0.000812
0.000311
-0.000073
-0.000117
0.000723
0.000404
0.000361
-0.000016
0.000708
-0.001011
0.000898
-0.000040
0.000530
0.000626
-0.000778
-0.000317
-0.000083
-0.000463
-0.000444
-0.000401
0.001188
0.001423
0.000718
0.000304
0.000423
0.000260
0.000244
0.001095
0.000367
-0.000185
0.000174
-0.000048
-0.000307
-0.000756
-0.000441
0.000589
0.000692
-0.000917
-0.001221
-0.000517
-0.000276
0.001719
-0.000076
-0.000146
-0.000175
0.000059
-0.000307
-0.000302
0.000757
0.000086
-0.000400
-0.001571
0.000152
-0.000016
-0.001213
0.000956
0.000610
0.000202
-0.000444
-0.001419
-0.000266
0.000140
0.000196
0.000212
0.001120
-0.000793
-0.000223
0.001341
0.000641
0.000466
-0.000215
-0.001539
-0.000343
0.001049
0.000284
-0.001527
0.001458
-0.000920
0.001138
-0.000422
0.000727
-0.000441
0.000462
0.000068
-0.000342
0.000147
-0.000317
0.000358
0.000871
0.001145
-0.000304
0.001051
-0.000045
0.000240
-0.001145
-0.000755
-0.001318
0.000159
0.000475
0.000313
-0.000830
0.000024
-0.000612
-0.000126
-0.000255
0.000488
-0.000015
-0.000116
0.000691
-0.000170
-0.000557
0.001290
0.000918
0.000064
0.000266
0.000495
-0.000693
-0.000801
0.000205
-0.000854
-0.000453
0.000725
-0.000519
-0.001027
-0.000706
-0.000840
0.000281
0.000161
-0.000304
-0.000043
-0.001291
-0.001554
-0.001155
0.000304
-0.000316
-0.001302
-0.001692
0.000438
-0.000210
0.000038
-0.000180
0.000026
0.000243
0.000462
-0.000192
-0.000062
0.000047
0.000093
-0.001059
-0.000236
-0.000605
0.000209
-0.000166
-0.000094
0.001145
0.000329
0.000513
-0.000066
-0.000359
-0.000539
-0.000175
-0.000013
0.000062
-0.001267
0.000116
-0.000270
-0.001558
0.000294
0.000714
0.001005
-0.000945
-0.001509
-0.000004
0.000261
0.000803
0.001673
0.001540
0.000144
-0.000360
0.000089
0.001151
0.001155
0.000335
0.000098
-0.001475
-0.001324
0.000936
-0.000585
-0.000122
-0.001590
-0.000032
-0.001131
0.000652
-0.000046
0.001185
-0.000189
0.000501
0.000409
0.000179
0.000311
-0.000806
0.000384
-0.000371
-0.000116
-0.000070
-0.001171
0.000005
0.000743
0.000183
-0.001084
-0.000134
0.000741
0.000419
-0.000735
-0.000899
-0.001043
-0.000087
-0.000757
-0.000594
-0.001254
0.000496
0.000846
0.000892
-0.001327
0.001449
-0.001118
0.000596
-0.000929
0.000173
0.000081
-0.000199
-0.000097
-0.000326
-0.000864
-0.000069
-0.000247
-0.000767
-0.001042
0.000213
-0.001035
0.000398
-0.001239
-0.000220
-0.000147
-0.000092
0.000147
0.000732
-0.000000
0.000162
0.000449
0.001412
-0.000215
-0.000035
-0.000154
-0.000200
-0.000888
-0.001599
0.001099
0.000169
-0.000375
-0.000101
0.000749
0.000314
-0.000358
-0.001538
-0.000708
-0.000037
0.000866
0.000510
-0.001164
0.000258
-0.001205
-0.000060
-0.000623
0.000224
0.000340
0.000827
0.000354
0.000574
-0.000026
-0.001448
0.000351
0.000548
-0.000008
0.000256
0.000277
0.001462
0.000277
0.000112
0.000451
0.000419
0.000187
-0.000441
0.000170
0.000157
0.000885
-0.000145
-0.000898
-0.001590
-0.000716
0.000163
0.001064
-0.000018
-0.000211
-0.001618
0.001068
-0.000051
0.000146
-0.001500
-0.001416
-0.000808
0.000112
0.000893
-0.000032
-0.000346
0.000209
-0.000678
-0.001111
-0.000543
0.000072
-0.000209
0.000480
-0.000096
-0.001326
-0.000497
-0.000595
0.000024
-0.000325
-0.001259
0.000320
-0.000202
-0.000129
-0.000081
-0.000238
0.000317
0.000155
0.000999
-0.001539
0.000166
-0.000142
0.000470
-0.000014
0.001569
0.000156
-0.000135
0.000361
0.000057
-0.000086
-0.001581
-0.000247
0.000547
-0.000064
0.000519
-0.000177
-0.001123
-0.000891
-0.000158
0.000533
-0.000210
0.000176
-0.000857
0.000940
-0.001308
-0.000328
0.000201
-0.000287
-0.000870
-0.000892
-0.001225
0.000196
0.000593
-0.000121
0.000123
0.000900
0.000594
0.001660
-0.000136
-0.000483
0.000760
-0.001397
0.000071
-0.001632
0.000144
-0.001577
-0.000294
0.000528
0.001397
0.000442
0.000289
0.001386
-0.000140
-0.000134
-0.000592
-0.001159
0.000023
-0.000699
-0.000488
0.000448
-0.000083
0.001124
0.000279
-0.000780
-0.000000
-0.001200
0.000217
-0.000331
0.000291
0.000177
-0.000064
0.000056
-0.000049
0.000173
0.000141
-0.001389
0.000178
-0.000419
-0.000430
0.000171
0.000362
-0.000023
0.001655
0.000239
0.000378
-0.000045
0.000425
0.000160
-0.000151
-0.000130
0.000199
-0.000789
0.001613
-0.001360
-0.000781
-0.001174
-0.000956
0.001556
0.001090
0.000398
-0.000154
0.000035
-0.000404
-0.000033
0.000632
0.000268
-0.000152
-0.000033
0.000959
-0.000110
0.001267
-0.000915
-0.000058
0.000074
0.000399
0.000359
-0.001538
-0.000103
0.000307
-0.000732
-0.000855
-0.000342
-0.000054
0.000395
0.000258
0.000503
-0.000496
0.000289
0.001351
0.001540
0.001511
-0.000048
0.000264
0.000429
-0.001137
0.000198
0.000118
0.000075
-0.000970
-0.001718
-0.000552
-0.000220
-0.000186
-0.001547
0.000169
0.000133
-0.001116
-0.000906
0.000252
0.000038
0.000025
0.000188
0.000145
-0.001194
0.000014
-0.000495
0.000045
-0.001702
-0.000426
0.001656
-0.001406
0.000117
-0.000299
0.000407
-0.000298
-0.000280
0.001057
0.000059
-0.001419
-0.000222
0.000248
-0.000249
-0.000078
-0.000986
0.000688
-0.000052
0.000356
0.000189
-0.000014
-0.000055
-0.000257
-0.001523
0.000055
0.000690
0.000869
-0.000325
0.000337
-0.001133
0.000146
-0.000398
0.000400
0.001055
-0.001362
-0.000992
0.000600
0.000037
0.000727
0.000056
0.000357
0.000213
-0.000349
-0.000197
0.000491
0.000298
-0.000015
0.000231
0.000131
-0.000172
0.000316
-0.000168
0.001675
0.000222
-0.001637
0.000103
-0.000015
-0.000776
0.000013
-0.000459
-0.000385
-0.000094
-0.000119
-0.000444
0.000141
0.000316
0.000714
0.000537
0.001347
-0.001063
0.000859
-0.001348
0.000078
0.000418
-0.001196
-0.001267
-0.000027
-0.001402
-0.001149
-0.000535
0.001398
0.000027
-0.001334
-0.000537
0.000397
-0.000147
0.000195
-0.000285
-0.000037
0.000728
0.001282
0.000092
-0.000329
0.001121
-0.000219
0.000041
0.000510
-0.001439
-0.000480
-0.000988
-0.001427
-0.000480
-0.000030
0.000781
0.000287
-0.000021
-0.001182
0.001109
0.001248
0.000734
-0.001259
0.001706
0.000913
0.000270
0.000463
-0.000705
0.000763
0.000316
-0.000240
0.000674
0.000322
-0.000487
0.000182
0.001281
0.000701
-0.000114
0.000058
0.001033
0.000786
-0.000671
0.000129
-0.000110
0.000313
-0.001613
-0.000849
-0.000110
0.000718
-0.000390
-0.000007
0.000358
-0.000000
-0.000803
0.000648
-0.000589
0.000723
-0.000283
-0.000534
0.000032
-0.000447
-0.000117
-0.001335
-0.000564
0.000199
0.000302
-0.000425
-0.000085
0.000357
0.000151
0.000126
-0.000444
0.000045
0.000272
-0.000209
-0.000196
0.000211
0.000235
0.000205
0.001278
0.001722
-0.000180
0.000317
-0.000369
-0.000378
0.000101
-0.000613
-0.000432
0.000115
0.000124
0.000185
-0.000465
-0.000144
-0.000089
0.000142
-0.000951
0.000100
-0.000661
-0.000854
-0.000167
-0.000132
0.001491
0.000032
0.000900
0.000408
-0.000327
-0.000559
0.000266
0.001209
-0.000963
-0.000676
0.000276
0.001286
0.000069
-0.000012
-0.000160
-0.000162
0.000275
0.000568
-0.000065
0.001288
-0.000149
0.000451
0.000309
0.000801
-0.001738
-0.001318
-0.000504
0.000307
-0.001091
0.001397
0.001404
-0.000006
-0.000097
-0.000956
-0.000477
0.000613
0.000156
0.000107
-0.000303
0.000070
-0.000027
0.000477
0.000224
-0.000135
-0.001732
0.000848
-0.000222
0.000513
-0.000635
-0.001169
-0.000519
0.000305
0.000270
0.000194
-0.000740
0.000349
0.000192
0.000756
0.000149
0.000471
-0.000128
0.000247
0.000413
0.001114
-0.001365
-0.000011
-0.000354
0.001598
0.000361
-0.000497
0.000673
0.000250
-0.000206
-0.000165
0.000236
0.001497
-0.001128
-0.000500
0.000205
0.001154
-0.000157
0.000487
0.000040
0.001526
0.000012
0.000458
0.000511
0.000063
0.000000
-0.000499
-0.000406
0.000025
-0.000621
0.000405
-0.000629
0.000273
0.000995
0.001167
0.000563
0.000553
-0.000755
-0.001113
0.000418
0.000480
-0.000077
0.001062
-0.000017
0.000412
-0.000487
-0.000367
-0.000041
-0.001741
0.000104
0.000008
0.001340
0.000435
0.000083
-0.000221
0.000261
-0.000124
-0.001736
-0.000164
-0.000622
-0.001173
-0.000701
-0.000995
-0.000133
0.000081
0.000121
0.000222
-0.000567
0.000221
-0.000609
-0.000225
-0.000049
-0.000006
0.000297
0.000955
-0.000082
0.000178
-0.000219
0.001609
0.000222
-0.000197
0.000390
0.000316
-0.000840
0.000343
0.000087
0.000281
-0.000073
0.000953
-0.000226
-0.000271
0.000144
-0.000160
0.000083
-0.000373
-0.000329
0.000015
0.001253
-0.001142
0.000324
-0.000359
-0.000149
-0.000119
0.000624
0.000714
0.000152
-0.000919
0.000098
0.000433
-0.000957
0.000362
-0.000657
-0.000527
-0.000988
0.000206
-0.000079
0.000284
0.001543
0.000439
-0.000727
-0.000440
-0.000114
0.000558
-0.001396
0.001576
-0.000548
-0.000109
-0.000889
0.000296
0.000209
0.000234
-0.001199
-0.000387
0.000188
0.001607
0.000096
-0.000802
0.000443
0.000415
0.000555
0.000340
-0.000332
-0.000569
-0.000901
0.000528
-0.000485
-0.000706
0.000578
-0.001600
-0.000386
-0.001479
-0.000017
0.001154
-0.000335
0.000400
-0.001203
-0.001623
0.000360
-0.001404
-0.001179
0.000042
-0.000021
0.000404
-0.000453
-0.000117
-0.000171
-0.001104
0.000677
0.000245
0.000740
0.000290
0.000014
-0.000071
-0.000000
-0.000797
0.000089
-0.000953
0.000570
-0.000384
-0.000038
-0.000555
-0.000805
0.001563
-0.000044
0.000207
0.000144
-0.000763
-0.000036
-0.001589
-0.000098
0.000791
-0.000350
-0.000084
0.000491
0.000210
-0.000015
-0.000014
0.001334
0.000434
0.001580
-0.000147
0.000131
-0.000167
0.000029
0.001504
0.001618
-0.000164
-0.000498
0.000717
-0.001362
-0.000071
0.000328
-0.000617
-0.000855
0.000296
-0.001364
-0.000150
-0.000808
-0.000500
0.000901
0.001483
-0.001536
0.001107
-0.000748
-0.000647
-0.000954
-0.000516
-0.000579
0.001277
-0.000389
-0.000518
-0.000884
0.000068
-0.000549
-0.000166
-0.000132
-0.000950
0.000168
-0.000349
0.000050
-0.000095
0.001632
-0.000417
0.000154
-0.000157
-0.000096
0.001023
0.000105
-0.000106
-0.000513
-0.000023
0.001519
0.000370
-0.000121
-0.000484
-0.000113
0.000400
-0.000067
-0.000393
-0.000955
0.001379
-0.000254
0.000059
0.000099
-0.000493
0.000212
-0.001646
-0.000212
-0.000696
0.000988
-0.000266
-0.000268
0.000224
0.000160
0.000715
-0.000606
-0.001612
-0.000104
0.000098
0.000062
-0.000715
-0.000373
0.000151
-0.000149
0.000018
-0.001346
0.001140
-0.000793
0.000011
0.001539
-0.000578
-0.000461
-0.000182
-0.001456
0.000389
-0.000422
-0.001472
-0.000284
-0.001090
0.000247
-0.000108
-0.001450
0.000882
0.000473
0.000663
-0.000433
0.000080
0.000160
0.000375
0.000012
0.000275
-0.000234
-0.000436
0.000015
-0.000400
0.001226
-0.000212
0.000165
-0.000111
0.001032
0.000413
0.000233
0.000464
-0.000215
0.000407
0.001575
-0.000450
-0.001525
0.000130
-0.000770
-0.000023
0.000465
0.000000
0.000497
0.000104
-0.000489
-0.001081
0.000103
-0.000344
-0.000773
-0.000765
0.000090
-0.000455
0.000117
0.000346
0.000154
0.000361
-0.000752
-0.000816
-0.000064
-0.001714
0.000106
0.001189
0.000213
-0.000127
-0.000154
-0.000189
0.001156
-0.000389
-0.000687
0.000055
0.000397
0.000653
-0.000025
0.000391
0.000832
-0.000693
-0.001473
0.000625
-0.001377
-0.000630
0.000895
0.001166
-0.001528
-0.001574
-0.000311
-0.000106
0.000147
-0.001419
0.000656
-0.000020
0.001201
-0.001652
0.000215
-0.001648
0.000237
0.001685
0.001175
0.000105
-0.000456
-0.000466
-0.000743
0.000380
-0.000023
-0.000292
-0.000123
-0.000141
0.000046
0.001061
0.000072
0.000014
0.000031
0.000407
0.000048
0.000346
0.000343
0.000239
0.001610
0.000449
-0.000216
-0.000177
-0.000713
0.000109
0.000978
0.000105
-0.000708
-0.000354
-0.000026
-0.001452
-0.000384
0.000242
-0.000157
-0.000364
0.000176
-0.000127
0.001290
-0.000381
-0.001152
-0.000163
-0.001290
-0.001573
-0.000363
-0.000406
-0.000728
-0.001426
-0.000062
-0.000173
0.001125
0.000131
0.000425
0.000309
0.000365
0.000416
0.001518
0.000179
-0.000524
-0.000526
-0.001521
0.000163
-0.000033
-0.001505
-0.000751
0.001578
-0.001664
0.000210
-0.000554
-0.001593
-0.000690
0.000166
0.000140
-0.000070
-0.000846
0.001280
-0.000097
-0.001182
-0.000204
-0.000244
-0.000259
0.001289
0.000370
-0.000152
-0.001289
0.000395
-0.000199
0.000092
-0.000296
-0.000106
0.000220
0.000012
0.000091
0.000410
0.000214
-0.000650
0.000717
-0.000311
-0.000722
-0.000230
-0.001346
-0.000735
-0.000070
-0.000159
-0.000323
0.000400
-0.000055
-0.001293
0.000089
0.001173
0.000493
0.000383
-0.000606
-0.001589
-0.001243
0.000048
-0.000054
0.000307
0.000039
0.000235
0.000252
-0.000316
0.000425
-0.000542
0.000111
-0.000157
-0.000047
0.000709
-0.000100
0.000118
0.001439
0.000362
-0.000370
0.000416
-0.001383
0.000936
-0.000156
-0.000005
-0.001389
-0.000163
-0.000217
0.001227
-0.000071
-0.000103
-0.000170
-0.000045
0.000040
0.000314
0.000318
0.000150
0.000416
0.000221
0.000233
0.000471
-0.000209
0.001244
-0.000015
-0.000886
-0.000031
-0.000075
0.001337
-0.000011
0.000360
-0.000179
-0.000259
0.000102
0.000171
0.000085
0.000440
-0.000147
-0.000997
0.001523
0.000123
-0.001656
-0.000102
0.001226
0.000027
0.001484
0.000410
-0.000491
-0.000058
0.000045
-0.001507
-0.001494
-0.001551
0.000356
-0.000958
0.000269
0.000354
0.000154
-0.000031
0.000416
0.000162
0.000105
-0.000878
-0.001521
0.000136
0.000121
-0.000119
0.000406
-0.000368
-0.000908
0.000879
0.000317
0.000273
0.000382
0.000125
0.000330
0.000528
0.000113
-0.000078
0.000054
-0.000474
0.000011
0.000221
0.000099
-0.000078
0.000032
-0.000105
-0.000795
-0.000051
-0.000122
-0.000547
0.000422
-0.000126
0.000665
-0.000356
-0.000112
-0.000119
-0.000011
-0.000200
-0.000773
0.000331
-0.000933
0.000492
0.001387
0.000109
-0.000238
0.000169
0.000361
-0.000191
0.001044
-0.000472
-0.000795
0.000138
0.000152
0.000711
0.000063
0.001210
-0.000325
0.000438
0.000154
0.000029
-0.000857
-0.000714
0.000191
-0.000031
-0.000006
0.000195
-0.000320
0.001675
0.000143
-0.000660
-0.000033
-0.000051
-0.000014
-0.000463
-0.000077
-0.001726
-0.000039
-0.000998
0.000662
-0.000408
0.000407
0.000004
0.000694
0.000165
0.000328
0.000119
0.000423
-0.000053
-0.001346
-0.000182
-0.001023
0.000077
0.000892
-0.000013
-0.000528
-0.000898
-0.000066
-0.000138
0.000134
-0.000396
0.000605
0.000045
-0.000949
-0.000805
0.000448
-0.000135
0.000019
-0.000873
-0.000270
-0.000718
0.000267
0.000058
-0.000795
-0.000226
-0.000017
-0.000047
0.000411
0.000403
0.000281
-0.000020
0.000211
-0.000276
-0.001520
0.001593
-0.000465
-0.000779
0.000392
0.000053
-0.000306
-0.000114
-0.000276
-0.000133
0.000417
-0.000126
0.000399
-0.000113
-0.000116
-0.000145
-0.000055
-0.001394
-0.000113
-0.000513
0.000103
0.000157
-0.000168
0.000095
0.001595
0.000187
-0.001301
-0.000500
-0.000895
-0.000881
-0.001480
-0.000149
0.000230
-0.001597
-0.000808
-0.000007
0.000053
-0.000367
0.001447
-0.000265
-0.000892
-0.000917
-0.000393
0.000005
-0.000737
-0.000061
-0.000117
-0.000940
-0.000788
-0.000138
0.001153
0.001008
-0.001182
-0.000079
-0.001697
0.000401
-0.000139
-0.000032
0.000503
-0.000164
0.000084
0.000223
0.001695
0.001589
-0.001599
0.000314
0.001192
-0.000784
0.000386
-0.000154
-0.000138
-0.000872
-0.000025
-0.000061
0.000438
-0.000147
-0.001005
-0.000853
-0.000112
-0.001427
0.000209
-0.000768
0.000240
0.000800
-0.001341
0.000261
-0.000147
0.000097
-0.000506
-0.000782
-0.000446
-0.000121
-0.001579
-0.000800
-0.001644
-0.000092
-0.000685
-0.000192
0.000201
0.000251
0.000002
0.000109
-0.001397
-0.001409
-0.000669
0.000399
-0.001418
-0.000091
0.000271
-0.000624
-0.000790
0.000285
-0.000314
-0.000283
-0.001456
-0.000006
-0.000699
0.000081
0.000292
-0.000060
-0.000091
-0.000105
0.000198
0.000350
0.000228
-0.000542
-0.001663
-0.000837
-0.000724
-0.000527
-0.001365
-0.000172
-0.000095
-0.000146
0.000056
0.000108
-0.000535
-0.000314
0.000340
-0.000849
0.000131
-0.000097
0.000115
0.000048
0.000090
0.001101
0.000061
-0.000035
-0.000798
-0.001667
-0.000053
0.000638
-0.000920
0.000831
-0.000576
-0.000635
0.000398
-0.000071
0.000129
-0.001603
0.000173
-0.000753
-0.001663
0.000361
-0.000024
-0.000153
-0.000059
-0.000025
0.000194
-0.000693
-0.000144
0.000060
0.000157
-0.000113
0.000430
0.000401
-0.000894
-0.000801
-0.000307
-0.001476
-0.000807
-0.001548
-0.000151
0.000422
-0.001592
-0.000088
-0.000230
-0.000875
0.000180
-0.000025
0.000716
-0.000689
-0.000740
0.000013
0.000233
0.000051
0.001234
-0.000125
0.000380
-0.000744
0.000075
0.000261
0.000209
-0.001503
-0.000456
-0.000662
-0.001064
-0.000028
0.000433
-0.000098
0.000230
-0.000134
-0.000827
-0.001479
-0.000440
0.000370
-0.000137
0.000390
-0.001433
-0.000086
-0.000128
-0.001619
-0.000897
0.000656
-0.000172
0.000412
-0.000747
-0.000102
-0.000164
0.000013
-0.000209
0.000280
0.000107
0.000112
-0.000545
-0.000106
0.000344
0.000008
0.000512
-0.000062
0.000349
-0.000729
-0.000759
-0.000805
-0.000643
-0.000212
-0.000131
0.000349
-0.000300
-0.000031
-0.000000
-0.001154
0.000340
-0.000065
0.000094
-0.000548
-0.000509
0.000360
-0.000469
0.000070
0.000028
-0.001522
-0.000747
-0.000130
-0.000073
0.000116
-0.000820
-0.000121
0.000374
0.000329
-0.000854
-0.000192
-0.000807
0.000541
0.000215
-0.000090
-0.001561
0.000105
-0.000886
-0.000106
0.000075
-0.000830
0.000388
0.000072
-0.000081
-0.000661
0.000424
-0.000115
-0.000798
0.000361
-0.000171
-0.001636
-0.000449
-0.000133
-0.000089
-0.000613
0.000078
0.000339
0.000055
0.000066
0.000439
-0.000829
0.000311
-0.000032
-0.000841
-0.000120
0.000318
-0.000738
0.000015
-0.000818
0.000008
-0.000900
-0.000498
0.000330
-0.000024
0.000215
0.000412
0.000088
0.000311
-0.000114
0.000235
0.000105
-0.000064
-0.000936
-0.000978
-0.001476
0.000573
0.000387
-0.000892
-0.000844
0.000292
-0.000861
-0.000733
-0.001528
0.000084
0.000312
-0.001404
-0.000828
0.000338
0.000536
-0.001538
-0.000041
0.000460
-0.000555
0.000045
0.000550
-0.000923
-0.000810
-0.001478
-0.000844
-0.001330
-0.000120
-0.001383
-0.000002
-0.000039
-0.000742
-0.000931
0.000055
0.000113
-0.000789
-0.000896
-0.000842
0.000059
0.000360
-0.000887
0.000408
0.000019
-0.000017
0.000336
-0.000795
-0.000141
-0.000852
-0.001415
0.001338
-0.000853
-0.000956
-0.000990
0.000081
0.000047
-0.000092
-0.000801
-0.001575
-0.000557
-0.000956
-0.001034
-0.000907
-0.000856
0.000276
-0.001455
-0.000901
0.000426
-0.000900
-0.000141
-0.000136
0.000406
0.000287
0.000016
-0.001648
-0.001500
-0.000094
-0.000776
0.000484
-0.000024
-0.000036
-0.000085
0.000023
-0.001607
-0.000950
0.000101
0.000052
0.000038
0.000069
-0.000028
-0.000928
-0.000130
-0.000826
0.000419
0.000087
0.000456
-0.001048
-0.000836
0.000329
0.000564
-0.001541
-0.001617
-0.001656
-0.000946
-0.000079
0.000006
0.000268
-0.000823
0.000130
0.000402
-0.000133
-0.000867
0.001129
0.000190
0.000069
-0.000000
0.000179
-0.000128
-0.001594
-0.000028
0.000257
0.000203
0.000309
-0.001383
-0.000584
-0.001203
-0.000112
-0.001508
-0.001667
-0.001597
0.000172
0.000074
-0.000954
0.000197
-0.000868
-0.001569
-0.000856
0.000059
-0.000006
0.000014
-0.001627
0.000025
-0.000548
0.000300
-0.001534
-0.000118
-0.000088
-0.001631
-0.000887
-0.000074
0.000097
0.000077
-0.000797
-0.000127
-0.000038
-0.000058
-0.000181
-0.000846
-0.000085
-0.000005
-0.000779
-0.000039
-0.001615
0.000056
-0.000045
-0.000159
-0.000126
0.000225
-0.000932
-0.000047
0.000192
-0.000853
-0.000002
0.000062
0.000108
-0.000133
-0.000851
-0.000633
-0.001692
-0.001558
-0.001528
0.000408
-0.001623
0.000580
0.000370
-0.000936
-0.001567
-0.000844
0.000349
-0.000051
-0.001511
-0.000801
-0.001226
0.000015
-0.000056
0.000070
0.000075
-0.000042
-0.000030
0.000612
-0.000042
0.000454
-0.000849
0.000056
0.000456
-0.000862
-0.001058
0.000064
-0.001483
0.000058
-0.001503
-0.000036
0.000047
-0.001451
-0.000025
0.000043
-0.000043
-0.001612
-0.000952
-0.000079
0.000047
-0.000144
-0.000051
-0.000984
-0.001031
-0.001625
-0.001685
0.000086
0.000212
-0.000074
0.000094
-0.000885
0.000102
-0.001166
0.000255
-0.000898
0.000126
-0.000886
0.000147
0.000041
0.000016
0.000003
0.000118
0.000579
-0.000081
-0.000721
-0.000958
0.000023
0.000226
0.000115
-0.001478
-0.000103
0.000160
-0.000704
0.000039
0.000227
-0.001116
-0.001540
0.000077
0.000088
0.000025
-0.001614
-0.000077
-0.000070
0.000110
-0.000127
0.000031
0.000126
0.000042
0.000136
-0.000595
-0.001661
0.000045
-0.001534
0.000012
-0.001553
0.000209
0.000033
0.000051
-0.000548
0.000064
0.000093
-0.000065
0.000034
0.000081
-0.001447
-0.001663
0.000017
0.000157
-0.001623
-0.001691
0.000030
0.000032
-0.000027
0.000070
0.000571
0.000474
0.000134
0.000114
0.000224
0.000038
-0.000054
0.000156
0.000053
-0.000016
-0.000023
0.000062
-0.000065
-0.001668
0.000078
0.000071
0.000035
0.000363
-0.001627
0.000028
0.000019
0.000084
-0.000656
0.000287
-0.000810
-0.001596
0.000084
0.000075
0.000424
0.000024
0.000026
0.000006
0.000091
0.000095
0.000022
0.000147
0.000393
0.000015
-0.001432
0.000141
-0.001519
0.000158
0.000058
-0.001584
0.000098
0.000079
0.000310
0.000078
0.000013
0.000085
0.000036
-0.001285
-0.001655
0.000105
0.000009
-0.000005
0.000137
0.000139
0.000134
0.000212
0.000011
-0.000084
0.000049
0.000052
0.000284
-0.001260
0.000234
0.000066
-0.000560
0.000011
-0.001675
-0.000688
0.000014
0.000004
0.000014
0.000268
0.000167
0.000276
0.000014
-0.001198
0.000254
0.000260
-0.000087
-0.000009
0.000009
0.000150
0.000168
-0.001248
-0.001645
-0.000010
0.000071
-0.000970
-0.001578
-0.001571
0.000151
0.000164
0.000378
0.000320
0.000175
0.000149
0.000119
0.000005
0.000206
-0.000000
-0.001102
-0.001186
0.000445
-0.001040
0.000159
-0.000000
0.000243
0.000201
-0.001097
0.000143
0.000244
0.000259
-0.001593
-0.000014
0.000103
-0.001696
0.000339
-0.000005
0.000164
-0.000885
-0.000944
0.000127
-0.001695
-0.001603
-0.000013
-0.001571
-0.000648
0.000135
0.000184
-0.000497
-0.000533
0.000322
0.000591
-0.001433
-0.000046
0.000354
-0.000022
-0.001318
-0.000641
-0.000719
-0.001418
-0.001246
-0.001506
-0.001589
0.000370
-0.000017
-0.001370
-0.000024
0.000126
0.000117
0.000097
-0.001599
0.000323
0.000307
-0.000041
-0.000034
0.000137
0.000162
0.000235
0.000589
0.000308
-0.000019
-0.000056
-0.000033
0.000112
-0.000063
-0.000047
-0.001375
0.000312
-0.001569
-0.000067
-0.000871
0.000456
-0.001131
0.000273
0.000154
0.000149
-0.001474
-0.000056
-0.000052
-0.000070
-0.001387
-0.000045
0.000162
0.000528
-0.001305
-0.000059
0.000217
-0.000088
-0.000062
-0.000066
-0.000066
0.000389
-0.000059
0.000325
-0.000081
-0.000021
0.000265
-0.000093
0.000325
-0.000049
0.000509
0.000296
-0.000055
-0.000084
-0.000085
0.000331
-0.000076
-0.000619
-0.001328
0.000234
-0.000100
-0.000096
-0.001228
0.000329
0.000164
-0.000088
-0.001025
0.000330
-0.000629
0.000283
-0.000795
0.000106
-0.000097
0.000546
-0.000588
-0.001120
0.000423
-0.001351
0.000443
-0.001280
-0.001438
0.000491
0.000164
-0.000593
-0.001463
-0.000038
0.000387
-0.000051
-0.001539
-0.000023
-0.000023
-0.000591
-0.000580
-0.000893
-0.000974
-0.000876
-0.000984
-0.000766
-0.000863
-0.000002
-0.000665
-0.000690
0.000040
-0.000002
0.000017
-0.000039
-0.000030
0.000037
-0.000672
-0.000574
-0.000655
0.000061
-0.000668
0.000001
0.000020
0.000083
-0.000748
-0.000550
0.000663
0.000574
0.000189
-0.000068
0.000006
0.000019
0.000444
0.000390
-0.000125
-0.000166
0.000076
0.000422
0.000258
-0.000040
-0.000460
-0.000256
0.000460
-0.000265
-0.000203
0.000204
0.000030
-0.000831
-0.000736
-0.000086
-0.000004
-0.000315
0.000075
-0.000027
0.000009
0.000150
0.000039
-0.000037
0.000140
-0.000827
0.000108
-0.000002
0.000014
0.000014
-0.000021
0.000006
-0.000781
0.000875
-0.000064
0.000062
0.000024
0.000016
-0.000731
-0.000804
-0.000899
0.000033
-0.000608
0.000040
0.000053
-0.000204
-0.000023
0.000135
0.000384
0.000042
0.000025
-0.000045
-0.000081
0.000192
0.000006
-0.000004
-0.000345
0.000420
0.000865
-0.000170
0.000081
-0.000014
-0.000133
-0.000626
0.000019
-0.000061
0.000345
0.000567
0.000055
-0.000003
0.000271
0.000042
-0.000057
-0.000080
0.000320
0.000436
-0.000139
-0.000218
0.000015
0.000358
-0.000175
0.000171
0.000034
-0.000118
0.000270
-0.000097
0.000095
-0.000010
0.000357
0.000454
0.000091
0.000086
-0.000099
-0.000064
-0.000001
0.000014
-0.000023
-0.000011
0.000277
0.000228
-0.000070
-0.000051
-0.000066
0.000062
0.000098
0.000057
-0.000363
-0.000098
0.000072
-0.000230
-0.000663
-0.000150
0.000781
-0.000162
0.000117
0.000256
-0.000009
0.000035
0.000018
-0.000043
0.000002
0.000016
0.000060
-0.000474
-0.000352
0.000354
0.000308
-0.000110
-0.000454
0.000119
-0.000090
-0.000039
-0.000309
0.000299
-0.000296
0.000115
0.000636
-0.000012
-0.000019
0.000016
-0.000064
-0.000176
0.000481
-0.000207
0.000202
-0.000128
0.000131
0.000241
-0.000041
-0.000069
-0.000013
0.000375
-0.000376
-0.000136
0.000055
0.000076
-0.000854
0.000029
-0.000020
-0.000019
0.000011
0.000022
-0.000011
-0.000042
0.000040
-0.000091
-0.000115
-0.000057
-0.000016
-0.000028
0.000029
-0.000005
-0.000041
0.000017
-0.000022
0.000038
0.000023
0.000033
-0.000058
-0.000009
-0.000018
-0.000021
0.000046
0.000039
0.000011
0.000018
0.000025
0.000019
0.000010
0.000022
-0.000007
-0.000028
-0.000014
0.000035
-0.000016
-0.000045
-0.000038
-0.000019
-0.000071
-0.000067
-0.000036
-0.000242
0.000008
-0.000026
0.000175
0.000183
0.000064
-0.000074
0.000283
-0.000287
-0.000014
0.000008
-0.000460
-0.000077
-0.000151
-0.000211
-0.000088
0.000018
0.000022
0.000253
-0.000266
-0.000355
0.000358
0.000004
-0.000038
0.000235
-0.000130
0.000140
0.000575
-0.000018
0.000018
0.000021
-0.000019
-0.000307
-0.000213
-0.000038
-0.000005
0.000124
-0.000112
-0.000023
-0.000435
0.000296
0.000107
0.000085
0.000014
-0.000093
-0.000049
-0.000041
0.000038
0.000001
0.000017
-0.000010
-0.000036
0.000035
0.000023
0.000023
-0.000008
-0.000004
-0.000003
0.000034
-0.000003
0.000000
0.000002
0.000010
0.000008
-0.000000
0.000004
0.000001
-0.000002
-0.000027
0.000049
-0.000016
-0.000033
-0.000030
-0.000055
0.000023
-0.000016
0.000065
0.000543
0.000011
0.000135
0.000005
-0.000008
-0.000692
0.000015
-0.000200
0.000021
-0.000006
0.000020
-0.000039
-0.000062
0.000068
0.000081
0.000039
0.000021
-0.000029
-0.000309
-0.000038
0.000310
-0.000081
0.000465
0.000435
-0.000167
0.000166
-0.000048
-0.000070
-0.000024
-0.000754
0.000167
0.000106
-0.000015
-0.000999
-0.000093
-0.000117
0.000134
-0.000023
-0.000652
0.000011
-0.000408
0.000619
-0.000254
0.000021
-0.000042
0.000020
0.000296
0.000128
-0.000118
0.000036
-0.000274
0.000280
-0.000059
-0.000004
-0.000630
0.000167
0.000647
0.000118
-0.000318
0.000320
-0.000324
-0.000073
0.000072
-0.000031
-0.000086
0.000088
-0.000025
-0.000012
0.000047
0.000410
-0.000017
0.000033
-0.000200
0.000201
-0.000105
-0.000139
0.000153
0.000060
0.000344
0.000010
0.000008
0.000134
0.000196
-0.000049
0.000045
0.000531
-0.000001
-0.000128
-0.000125
-0.000419
0.000292
-0.000166
0.000157
0.000215
0.000383
0.000124
-0.000004
-0.000060
-0.000011
0.000656
-0.000214
-0.000426
-0.000089
-0.000077
0.000078
-0.000428
0.000009
-0.000019
0.000051
-0.000220
0.000218
-0.000167
-0.000085
-0.000007
0.000048
0.000051
0.000063
0.000055
-0.000350
-0.000024
0.000030
-0.000112
-0.000008
-0.000692
-0.000215
0.000076
0.000067
-0.000106
0.000104
0.000029
-0.000334
-0.000338
0.000339
-0.000110
0.000296
-0.000275
0.000016
0.000125
0.000137
0.000543
-0.000019
-0.000005
0.000013
0.000010
-0.000019
-0.000009
0.000040
0.000023
0.000021
0.000024
0.000001
0.000028
0.000020
-0.000004
-0.000000
0.000009
-0.000018
0.000005
0.000001
0.000047
0.000006
-0.000017
-0.000021
-0.000020
0.000014
-0.000027
-0.000030
0.000474
-0.000019
-0.000037
0.000036
-0.000096
0.000608
0.000125
-0.000145
0.000146
0.000272
0.000008
-0.000008
0.000000
-0.000338
0.000342
0.000094
-0.000022
0.000053
-0.000055
0.000049
-0.000040
-0.000054
0.000012
-0.000025
-0.000015
-0.000014
0.000013
0.000015
0.000044
-0.000012
0.000032
0.000022
0.000028
-0.000001
0.000039
0.000039
-0.000008
-0.000007
0.000001
0.000008
0.000008
0.000013
0.000046
0.000008
0.000001
0.000009
-0.000030
-0.000056
-0.000026
-0.000019
-0.000030
0.000010
-0.000037
-0.000055
0.000041
0.000195
0.000215
0.000085
-0.000087
0.000036
-0.000030
-0.000024
-0.000405
-0.000069
-0.000097
-0.000029
-0.000394
0.000271
-0.000413
0.000415
0.000194
0.000036
0.000244
-0.000167
0.000167
0.000479
-0.000061
0.000060
-0.000018
-0.000049
0.000049
-0.000350
-0.000115
0.000503
0.000049
0.000044
-0.000014
-0.000053
-0.000029
0.000018
-0.000012
0.000001
0.000031
0.000005
-0.000015
-0.000001
0.000006
0.000015
0.000017
0.000040
-0.000019
-0.000030
-0.000025
-0.000038
-0.000003
-0.000007
-0.000015
0.000005
-0.000003
0.000009
-0.000012
-0.000005
0.000030
0.000024
-0.000032
0.000035
0.000019
-0.000022
0.000012
0.000018
0.000033
0.000046
0.000022
0.000039
-0.000030
-0.000023
-0.000012
-0.000010
-0.000000
-0.000022
-0.000019
0.000002
-0.000009
0.000006
-0.000008
0.000022
-0.000001
-0.000004
0.000014
0.000009
0.000021
0.000026
0.000026
0.000013
0.000001
0.000012
-0.000002
0.000039
0.000022
-0.000002
0.000010
-0.000014
0.000025
0.000034
0.000002
0.000001
0.000004
0.000016
-0.000018
0.000008
-0.000033
0.000021
0.000011
-0.000038
0.000003
-0.000041
0.000037
0.000009
0.000044
0.000027
0.000028
0.000015
-0.000035
-0.000026
-0.000006
-0.000029
-0.000004
-0.000028
-0.000031
-0.000021
-0.000040
-0.000029
-0.000007
-0.000041
-0.000029
-0.000021
-0.000027
-0.000006
-0.000012
-0.000030
-0.000005
-0.000009
-0.000004
-0.000017
-0.000007
0.000006
-0.000004
-0.000013
-0.000006
0.000002
0.000006
-0.000012
0.000007
-0.000032
0.000018
0.000036
0.000037
0.000011
0.000032
0.000018
-0.000001
-0.000008
0.000013
0.000020
-0.000008
0.000007
0.000052
0.000017
0.000040
-0.000002
0.000011
0.000031
-0.000007
-0.000000
0.000019
0.000018
0.000044
0.000009
0.000033
0.000004
-0.000005
0.000007
0.000017
0.000007
0.000009
0.000006
-0.000005
-0.000016
-0.000039
-0.000046
-0.000017
-0.000020
-0.000027
-0.000010
-0.000008
-0.000026
-0.000030
-0.000059
-0.000037
-0.000028
-0.000043
-0.000044
-0.000010
-0.000010
-0.000013
0.000001
-0.000011
-0.000013
-0.000043
-0.000047
-0.000014
-0.000016
-0.000003
-0.000005
0.000029
0.000043
0.000010
0.000017
0.000003
0.000001
-0.000027
-0.000042
-0.000007
-0.000010
-0.000021
-0.000036
-0.000034
-0.000057
-0.000009
0.000010
-0.000033
0.000004
0.000017
0.000056
-0.000029
-0.000014
0.000018
0.000036
0.000028
0.000033
0.000020
-0.000009
0.000019
0.000018
0.000030
0.000039
0.000035
0.000020
0.000032
-0.000002
-0.000026
-0.000011
-0.000007
0.000005
-0.000007
-0.000003
-0.000018
-0.000002
-0.000017
0.000065
0.000008
0.000019
-0.000037
0.000004
-0.000047
-0.000034
-0.000015
-0.000029
-0.000207
-0.000150
-0.000003
0.000152
0.000080
-0.000022
0.000072
0.000577
0.000015
-0.000023
-0.000023
0.000364
0.000037
0.000267
-0.000088
0.000012
-0.000149
-0.000001
0.000023
0.000149
0.000049
0.000231
0.000034
0.000145
0.000377
0.000057
0.000363
0.000017
0.000020
0.000198
-0.000143
0.000384
-0.000075
-0.000022
-0.000057
0.000137
-0.000093
0.000353
0.000517
-0.000042
-0.000100
0.000045
-0.000037
-0.000026
0.000367
-0.000012
-0.000369
0.000040
-0.000278
0.000024
0.000027
0.000017
0.000234
0.000041
-0.000009
0.000661
-0.000022
0.000278
-0.000114
0.000064
-0.000059
-0.000040
-0.000005
0.000021
0.000012
0.000022
0.000018
0.000017
0.000019
-0.000026
0.000025
-0.000022
-0.000013
-0.000022
-0.000001
-0.000002
0.000017
0.000025
0.000027
0.000024
0.000016
0.000024
-0.000017
-0.000013
-0.000020
-0.000024
0.000006
-0.000005
-0.000007
-0.000024
0.000196
0.000074
0.000298
-0.000015
0.000002
0.000019
-0.000007
0.000367
-0.000022
SCALARS stress_s11 float 1
LOOKUP_TABLE default
2.748677
15.525425
-1.985514
3.816612
0.272887
10.065100
2.514883
-2.892162
-3.173316
2.942634
-10.143535
10.118019
3.236140
14.507486
-10.520957
-4.524612
-2.807980
-4.310184
2.077019
-2.216864
-2.730241
11.058025
11.566340
13.448144
2.606549
-1.107575
-1.164797
-1.140895
1.831416
-1.359384
-10.898819
0.091266
1.177791
-1.659753
-2.851169
1.990167
2.062414
-1.807974
-10.935458
12.883879
2.408763
2.056796
-0.997922
-0.734084
1.634402
1.575840
-1.561219
-1.025864
9.881368
-1.205821
-10.023467
-0.814705
-9.509520
-0.477444
8.888953
0.068490
0.743698
-0.221461
0.037111
0.299578
0.058171
-1.772108
-15.762176
1.923699
2.181750
-14.910388
12.198663
-1.050483
11.425567
-10.756035
-12.912211
1.247294
1.593095
2.010223
-9.751576
19.041401
2.334483
-12.626483
-11.042592
-10.456146
-1.674607
-13.496100
-14.195093
-1.138073
1.516571
1.216329
-11.780821
12.887400
-9.351937
-0.791526
-7.092419
12.583067
-12.049977
1.344211
1.031134
-9.976184
10.167718
0.704277
10.459926
3.547265
-0.021555
0.854938
1.442527
12.425101
7.819507
-0.544573
-6.122355
8.175985
0.688365
-15.630251
-10.540001
-0.355922
2.138362
0.322630
2.976099
4.220948
-3.338427
11.164504
-8.479665
-13.177562
0.278407
-0.072882
-13.269184
0.237289
3.618738
-14.453974
-10.010988
43.577608
44.002833
35.854971
31.775699
0.572746
-3.339526
3.014109
13.693770
14.518558
-13.483707
-13.152846
-8.522230
4.343188
9.019868
18.085256
-12.556598
-7.318093
-2.957452
4.358609
1.809367
-13.387726
-0.574132
-3.640940
13.689843
1.575223
-2.843867
-1.015100
-1.241811
-8.985155
13.587243
13.091739
14.202159
-0.589000
-1.014840
-11.716859
-13.387117
14.864925
14.344819
1.850845
9.778669
-12.984771
12.459747
12.401954
1.086995
2.478234
-4.544998
10.117384
-12.495103
-2.347264
-11.971510
-11.858918
-2.741823
12.803592
10.662202
8.249047
11.783106
13.194530
9.154427
-3.163184
-7.915813
10.891732
14.141015
11.016044
-0.840527
-12.098934
5.580786
3.570749
2.238621
7.497921
9.271583
-10.939943
-11.013658
-7.636488
10.584310
10.716628
-9.154931
13.371982
14.249440
-14.584183
-13.895631
9.769668
3.840371
13.946157
14.657045
-9.001251
-9.474074
-1.687440
13.859707
-3.382572
-3.479055
-1.955946
4.784647
12.290717
-13.275709
-14.623318
-10.318014
-5.720681
-11.363644
3.608588
3.707621
-7.147601
-11.211389
-4.322107
11.971263
-7.959170
-14.567567
10.195574
13.512983
-14.312811
-14.566182
3.436476
-10.396999
-5.019301
-7.293505
11.107580
-14.860460
13.526768
7.760017
5.079344
-11.508083
-3.523990
-12.824225
-7.753115
-8.489842
-1.425154
6.510133
6.868906
-13.233209
8.744196
12.593800
0.496266
9.341034
7.533736
2.726415
4.932744
-9.565089
-0.386318
-10.145863
-4.433853
6.967998
36.554484
24.979661
51.773035
55.709040
23.834904
10.286185
-1.976561
35.410612
-4.434245
-11.066246
24.128497
48.726021
1.388732
17.993438
29.515920
24.656361
43.080137
58.105933
61.269675
21.544723
15.798234
11.405156
26.026669
44.330493
4.491271
-6.073166
9.542809
10.207749
14.523210
-5.409878
-9.486539
16.207377
7.941526
10.919933
10.847157
4.373172
4.191396
-14.836560
-11.821555
-5.597330
0.038659
-7.588659
6.276010
5.888138
12.324732
12.147269
-8.204175
-12.165232
11.069874
-8.710738
-4.972060
6.560366
-12.458598
14.488555
-13.064005
-13.265664
11.242504
-7.795320
-10.778085
13.128480
-10.170727
-11.610780
-10.915374
-7.299690
-10.922934
9.593086
12.969675
-17.940719
11.927209
7.230907
-8.325972
-5.219266
-2.437296
5.616525
7.227469
-12.852426
-12.164391
-6.193357
11.279137
6.006155
12.723101
-5.470486
-8.413819
8.095415
24.677945
-4.341523
7.268549
2.224712
20.863300
35.491258
38.694973
-0.871779
-5.860543
-6.589535
3.853976
21.787386
27.812031
-14.117835
28.613691
47.877307
46.186095
58.570480
29.285783
33.690850
31.998282
19.670893
57.279603
17.038117
10.541859
45.953307
26.565602
-13.141084
-15.265180
7.232056
-11.733628
10.382660
13.632112
-13.337930
8.885465
-7.898712
13.473834
13.558465
12.503719
-12.017328
7.483584
-9.250621
-13.743361
-13.322710
1.301863
-0.859546
-4.448906
-16.054960
10.884255
13.395357
15.246935
1.007489
-0.208852
5.461825
5.164582
5.252490
-16.831470
25.224650
47.884621
14.174867
14.055039
-12.115412
3.762388
-7.825971
10.980112
-0.220599
-3.088627
-7.955711
-9.223868
-14.480632
-4.432032
-11.388874
8.097565
-13.743698
9.031876
8.797091
12.204860
18.059519
6.594569
-14.842529
15.050181
-187.346129
-197.035841
-183.691881
24.442671
-193.387769
-7.708878
-179.761832
-168.841604
23.341902
-189.477985
-12.937708
-87.132619
-154.217261
-12.962588
13.769676
52.554302
18.960723
-175.557695
24.141975
-184.301005
53.108421
-11.960230
-10.472875
24.657104
-11.219455
18.880742
14.712229
-200.420090
-185.308972
22.967848
-12.968148
14.584569
17.974592
11.387502
53.596780
-170.439383
38.845350
13.862673
52.248794
15.897024
25.106400
-9.126374
-397.202363
-9.814790
-171.081523
-10.141310
36.202167
13.967011
23.562354
14.124554
75.707582
9.416201
54.017821
16.238709
-314.634503
16.654102
10.948149
-8.784137
-12.479900
14.254035
38.855407
-13.786101
-12.083329
75.068715
25.488385
42.918607
10.670045
54.370248
-180.883644
16.232490
51.257070
44.175820
48.365769
38.527702
45.398638
10.377560
75.226861
52.651506
-11.594912
38.186017
83.631834
-8.160414
25.801883
79.056804
22.919892
49.241271
19.439597
14.432154
-11.583487
80.253678
-12.732800
13.768486
50.396770
11.088001
-8.155441
20.778694
48.055694
10.433175
14.174025
81.419175
15.840550
-166.335779
67.276080
31.246186
69.245360
54.653031
3.575403
-9.047784
-11.244246
37.157516
14.484984
11.593704
44.118716
-5.417518
-10.873766
23.013010
40.672146
70.136749
70.797982
39.381697
26.046114
-11.938651
63.459722
-13.984074
-4.365484
12.450612
38.964921
41.318801
52.602319
36.729137
44.672769
-9.128972
44.464494
73.983747
34.175995
-104.500905
37.054554
34.465323
69.732524
11.958089
0.343767
71.431545
19.385374
30.729930
-10.027627
33.198508
40.930334
16.309642
39.207045
14.647298
-12.588633
71.703724
65.472714
30.157906
74.651898
-8.166349
75.486775
51.589587
5.500056
54.865392
13.488541
35.232081
15.149782
-4.752528
62.958499
5.979422
31.781162
-70.342167
76.382994
-176.205419
51.227653
22.989628
18.851776
46.473926
65.472715
3.118698
34.296048
35.176780
28.751845
-5.876567
13.953410
60.533063
18.031024
23.231223
18.196702
36.549932
14.810777
-49.195840
-9.344449
76.984141
41.752883
-8.583174
64.333866
34.176016
61.058040
82.597742
20.553139
27.145771
47.915043
14.622766
93.369053
-9.523616
16.066503
-139.417363
32.298927
31.974843
-7.155652
62.710067
91.703845
60.990901
23.003836
-8.930949
30.379705
18.392030
64.133257
43.137123
5.338226
19.673957
-190.723016
17.123092
-3.209441
-3.298678
65.888783
33.281770
24.390791
-4.359363
-9.939520
61.121540
20.824112
34.096325
48.132318
4.017213
73.743991
33.931663
26.220347
-0.948191
73.369890
-93.760114
0.060783
34.812393
65.227352
30.380364
-129.879184
45.233003
19.053330
38.600868
37.921816
51.504479
-206.390033
18.556469
42.828896
34.025043
61.219007
-8.936645
18.337466
36.261350
-10.905614
-10.191590
8.660336
5.681515
-154.022755
-285.746020
77.680098
-9.329821
32.114731
42.433627
-7.553167
-12.653865
32.787011
32.225497
-209.249534
18.832713
51.644716
78.957311
-9.416096
-109.251154
8.696574
18.586630
-7.965662
3.245982
-6.267141
19.927036
1.113120
-161.323402
6.048931
-4.735036
15.059654
-12.885013
-12.028660
-9.415743
0.726782
7.799803
-44.774300
18.323340
63.777679
55.296715
51.519450
20.490153
57.235938
-5.771157
59.363610
-9.565849
46.796824
-71.383717
21.730752
-211.942786
15.314740
20.309111
23.290795
63.493740
33.123821
9.745579
7.520363
-10.945757
14.225742
4.628675
17.241856
28.421984
72.903579
45.652223
16.426300
-0.137452
41.385221
59.435593
15.467959
-10.117877
31.597934
4.175804
32.394157
17.634417
70.667496
17.756301
47.709622
71.698053
-24.226627
38.464816
38.062511
-8.982790
27.836997
76.673301
41.143692
30.567925
5.506608
25.159639
-9.365971
64.520033
57.677020
22.828007
-5.742390
46.666309
-191.936929
32.022853
58.545913
3.788200
-10.569748
30.207613
14.770373
-4.004219
3.403056
11.944115
33.021760
69.627127
40.135444
14.414202
15.093163
14.338296
59.356561
-9.600944
-8.157616
57.924950
72.345943
82.257048
40.734163
30.282597
75.283882
45.018742
5.879372
-193.821659
1.455552
19.753521
34.510245
-221.266559
30.510846
70.961170
74.634793
40.000226
-200.419813
1.995492
6.141035
39.123185
-6.116691
83.735830
59.237486
29.631255
18.297273
-154.216957
13.453607
0.568805
15.116037
-11.525652
20.749053
-27.907510
45.626203
37.662133
29.145246
5.009307
55.923342
73.944768
30.418267
55.006800
-29.266022
27.186939
20.009089
1.055999
-8.982202
-10.083179
33.850178
71.433652
28.454726
43.648389
59.123401
10.483078
41.952086
27.764507
-217.766237
61.274995
-43.271578
-205.106800
19.585846
76.866650
-9.756084
18.643572
43.590725
-386.113161
-52.448462
13.525619
38.466661
17.221074
47.315871
17.504754
17.991059
35.147085
64.841638
-13.881339
7.785938
-8.699028
-26.667550
-2.310556
32.782206
-10.538235
-138.657505
-67.093399
67.881485
64.333855
-33.275216
14.174315
-108.334572
-152.456918
35.032878
18.374950
-50.024333
31.029733
68.347097
64.454396
11.047623
44.374358
37.338951
-9.762248
27.334847
33.028170
63.766184
-18.789740
14.920701
24.488881
-4.862229
-7.598343
45.012565
-211.286829
5.906263
16.319023
32.733701
-331.969004
30.515276
33.845126
56.546661
17.535532
9.290687
-16.106250
-12.601177
1.494458
-9.343769
26.363338
-83.270159
59.435452
27.482935
19.829520
-67.092845
-8.262241
29.078888
45.432438
-11.756448
15.286386
57.521562
28.816689
1.363497
70.132436
76.461897
57.496930
64.534883
18.066922
82.141277
-10.463929
53.333196
29.462690
18.517819
14.136401
-223.690949
35.138316
33.641518
23.262267
-6.327825
-8.656454
-5.004580
59.070676
3.351525
76.576478
-10.165665
30.331746
13.569892
17.015241
35.138320
-363.564709
94.331101
40.753224
16.684607
-13.036231
14.172778
10.806121
55.076995
39.473662
30.198803
-130.714371
39.045987
15.648545
29.007641
46.558936
30.246843
21.000971
17.893955
17.036105
27.108740
38.852890
3.978135
30.305229
63.289903
64.661116
46.246711
23.685664
4.316432
-2.086698
37.183104
-11.477770
32.086704
93.832695
30.183968
-8.850582
-12.701132
-52.597507
-155.958249
-6.206226
-9.518016
25.807882
-11.099875
45.080629
13.873115
22.452430
-226.592377
23.886121
-8.134988
17.079614
-7.307144
38.608477
-9.153966
-220.615810
-136.121091
53.736304
38.957599
-11.034784
-6.360720
0.394545
52.521347
68.777435
23.082360
40.728182
-248.018867
33.353317
-11.142834
9.716617
-9.601881
43.083285
52.049758
-3.430167
17.946636
-65.805499
7.013368
13.106792
-86.032196
41.030314
11.659559
22.145764
25.053444
-123.667362
19.018883
-171.278299
33.954601
30.455382
64.903419
33.798992
18.143904
43.494512
2.171927
46.943674
62.746005
43.793633
-5.356183
64.454404
6.304168
62.215305
48.671777
32.455326
41.773691
30.447924
53.630191
-7.791522
26.357563
-2.191057
9.521459
14.759077
18.329476
53.689339
30.567608
33.112508
91.061302
6.956753
-4.619321
-47.571358
22.859280
75.894734
-6.181481
25.063225
28.849697
-6.973091
26.324115
-81.313644
19.995056
61.271601
40.632224
39.286805
52.609298
13.473290
-227.550539
-10.850512
18.050539
37.744700
10.496991
5.908508
5.883300
54.048398
-9.382477
-239.204409
-4.445081
-4.398080
64.767022
63.769684
7.471743
51.870388
-108.320700
23.710517
44.368719
-52.042734
-215.400583
4.333871
28.252310
12.526695
55.564356
6.499847
60.673874
60.494993
12.553676
18.533413
-201.438347
39.370863
50.063599
-48.681392
-3.156393
37.562309
27.940232
-190.723154
-76.940792
61.284849
40.361222
64.040963
23.860790
6.739247
60.940326
32.958519
18.686257
-34.218012
18.855506
-9.008070
15.761460
24.809029
-7.453011
45.607954
12.985848
77.451858
54.004592
-193.531292
6.613751
18.499968
20.036861
-44.204319
35.865218
25.276634
-5.506712
-99.731377
-16.570254
4.289866
-46.422362
22.242204
32.335069
-7.744538
-12.195240
81.946252
29.981598
65.817949
-8.016651
-151.156574
12.665465
-1.787312
58.709239
-29.807376
10.249667
-17.683328
-7.141332
-280.183475
-22.772113
11.872920
-14.708616
19.476857
11.053190
-52.596083
-220.595080
75.306846
-196.640934
38.423056
-7.096709
58.312914
24.384696
-0.442613
43.978089
-64.112008
17.181660
32.076551
-175.501689
23.807214
11.546965
-8.592327
52.594608
40.792113
46.401894
15.842753
5.234017
-360.999769
10.643503
10.157063
-360.840513
33.498362
-11.606965
32.243910
-184.506569
0.973871
-105.999175
18.464990
56.140973
26.140704
24.845509
3.414343
33.364275
-8.449173
34.107275
1.451977
29.646090
36.824290
66.541927
37.575328
25.587226
22.059717
55.075962
-4.343196
-1.571096
58.368711
17.941736
15.495358
26.667904
38.392598
-13.685794
56.775466
24.819526
39.722551
-244.836964
14.306269
27.000865
-13.023715
32.815949
-8.861404
-226.507571
-215.399004
6.883138
80.541348
8.357148
12.679867
-8.242011
-3.246999
27.155980
12.001834
17.293772
59.275269
2.033772
70.461623
27.888745
-311.164176
7.691499
60.689207
33.041349
55.943926
23.461077
29.161702
-0.443705
44.338978
16.407301
-11.383253
77.434983
4.446382
-34.611274
-11.296691
-6.597984
17.522253
0.259419
5.674953
-11.350661
17.925285
4.803953
23.003689
-6.080141
-151.900468
2.223121
33.870131
-0.184302
-213.330119
43.901458
60.812079
56.417253
56.018259
-203.538489
-10.586564
-349.194321
-10.537485
46.471274
18.071700
34.270664
-28.467423
-147.421024
-65.461994
39.544852
77.827331
20.744304
59.097331
13.816417
63.060230
62.541452
13.199076
62.404538
56.761041
63.126566
-238.443604
-59.931035
46.389433
0.709662
-10.100546
-31.234992
37.082331
-26.504078
-9.027110
48.443772
-6.718179
-28.740826
15.312699
41.892705
33.395149
24.147657
11.710956
33.988546
24.170832
42.228880
34.068431
-47.002334
61.453902
34.338798
16.208279
-71.235177
25.198997
63.056231
-31.393786
32.151310
83.741581
15.685608
-171.277559
66.818860
-97.058841
41.256900
37.630424
-5.616191
8.082148
-175.652694
1.294343
34.048241
64.968500
-44.779591
16.669580
40.100871
-3.531052
44.347541
66.000000
13.098504
60.705062
43.264830
-76.524589
29.878864
57.901181
-6.379156
-9.547711
73.827648
42.635434
36.220479
-12.703136
-370.667953
74.794023
19.444604
13.184064
16.280400
8.174232
-4.074873
53.328004
92.675161
33.630205
50.584583
35.047299
-11.129275
-79.022260
5.777386
-104.426166
31.576470
-28.147389
31.343590
30.283979
59.257984
21.161965
-8.703016
-318.036565
17.176635
-9.872315
-0.855690
31.368710
-139.416060
-14.068477
88.714544
22.659392
22.008574
41.416705
11.677768
17.009019
11.065459
-8.297327
44.622318
32.156528
-148.135514
33.800876
61.960386
29.892652
26.373128
67.452409
39.038237
1.677728
41.049530
44.143223
42.495196
14.817932
16.038019
58.545978
21.558108
22.156456
4.994523
20.606741
26.525898
57.685336
45.231222
8.286453
27.745390
39.258162
-11.918828
-5.658449
3.405432
-9.237667
3.025061
92.472675
2.249470
15.651468
20.312984
32.387833
28.992168
30.204452
36.373884
16.916699
30.624259
-258.485234
4.487858
73.639952
28.640053
16.695913
-0.466061
11.224443
34.506828
-0.922702
-5.206617
56.511456
45.762906
36.997416
31.745873
19.854751
9.661588
82.391763
47.882319
-1.752754
25.293936
-21.611020
11.722001
-203.415314
18.765520
-20.591408
-236.739499
72.185874
37.439108
34.235486
77.697503
-69.649390
-0.144145
30.976436
2.950203
44.387390
11.910643
51.528590
35.023012
24.365638
28.790335
40.967889
-14.759372
-8.993884
33.308459
33.162458
-8.735223
43.936950
20.468224
4.225424
25.752603
-6.747212
6.647412
0.984938
-5.565663
51.016136
29.257043
-12.092350
12.044904
-9.690862
61.343494
24.547432
10.672428
18.322091
20.602001
-215.102301
-7.869544
-11.590127
4.783488
58.947878
30.256748
6.412097
-105.693538
-81.023880
-68.385183
17.872787
-13.527274
39.393197
-207.654440
51.454533
15.474612
29.160937
24.842478
55.867790
-201.588833
-369.889314
63.037506
16.852743
17.719344
27.290302
14.732861
55.512108
60.726226
11.421852
-8.373195
12.459862
-10.163266
49.545327
-96.630562
52.554775
-8.791980
35.865257
20.170286
-59.031392
65.172538
62.536758
4.708668
29.035337
47.217486
31.864726
54.487311
54.565056
-9.540072
-3.204233
24.505295
-8.327658
59.627724
-2.900271
-4.852062
-12.216056
-3.650514
-5.426684
16.150160
19.269455
-322.749710
-76.259933
-94.346994
63.685208
52.553009
-205.110527
29.494383
-272.509890
-53.771878
31.953053
-229.420604
57.313852
-59.031188
2.099548
-368.345232
-206.390236
62.024925
-23.487366
-47.742505
66.689110
4.201409
14.834064
-32.301080
-87.437004
-0.996024
-119.847392
-51.440121
-447.236346
-73.915365
38.606682
14.015758
57.708959
-270.058215
29.646491
17.879789
29.640695
5.962311
-5.600849
39.164248
58.808113
32.106455
48.444243
7.747485
-5.814083
34.498239
-225.923565
-183.811001
5.680584
44.450693
-30.754679
51.898950
18.887456
5.394106
-55.203634
-10.551001
19.554146
63.360685
32.566075
-88.912000
-1.425723
-14.580229
29.686800
27.750362
17.692706
-84.052231
23.740719
-0.429855
14.853454
-160.696900
21.021699
-150.265273
76.217330
9.181411
7.245832
40.172979
-2.495543
11.353821
65.397523
19.966374
51.666386
-264.770694
18.894585
-145.499188
-37.982513
-67.060677
-10.001430
-73.485451
88.499313
59.162435
12.106274
18.426631
38.035868
-125.776052
21.683189
6.041121
-66.190593
26.887451
24.790486
-341.288787
-310.541769
17.522493
-36.258379
15.145597
27.800564
-80.639910
-5.119468
22.058164
46.050124
-10.983300
-161.323096
13.803914
-228.072386
-115.202153
3.087433
6.026779
44.095817
-12.835609
34.094003
31.169456
-0.938918
46.335958
17.955537
66.341530
24.322968
-113.477974
-16.549454
28.494022
45.227960
72.960625
48.836775
15.627068
64.475916
36.009859
61.847521
16.264198
41.540461
29.456355
-60.261133
5.850088
-10.466470
36.085717
14.248569
36.268800
64.366535
37.922535
39.763202
-8.244223
13.762382
-40.506315
-12.251776
7.817963
14.826747
73.223655
24.751042
55.972961
24.949859
82.860402
3.340076
26.548173
87.328300
-10.281899
14.412927
77.976631
58.799117
37.218558
48.784821
-2.520401
21.707389
22.808748
2.140735
34.109792
26.165235
28.354602
-11.554564
56.814080
57.169107
64.965527
-69.748352
48.591991
23.902469
36.408530
-8.508737
54.010103
44.645477
-7.116716
-278.389495
40.752004
17.342605
0.404795
65.018847
14.454933
-1.782461
-12.847012
14.458093
37.584194
-26.100570
19.509843
-180.403461
75.449923
34.522361
35.516964
15.037697
-10.703858
15.466483
60.013106
13.700858
13.878093
12.269309
29.702623
35.264102
-62.346545
31.565965
90.841544
19.682265
87.941902
12.920575
-108.441840
45.952350
-55.601708
20.748116
28.122400
-44.583180
0.175793
56.076555
-7.359792
0.551190
41.950579
-0.288797
-2.778823
29.471044
14.964555
6.665461
-82.387986
-8.701526
7.907310
-16.904742
-8.902279
26.541026
-238.921932
25.018689
-104.835526
-160.306977
22.025710
12.944919
20.661633
4.293582
9.442100
-6.261845
5.043294
20.558945
35.017283
6.103770
35.873264
-83.035234
19.857230
0.353495
15.181230
-10.133139
-0.466646
19.837878
-64.560863
34.484877
61.293689
30.270263
-92.918158
45.486490
28.537056
-0.563143
-3.232927
-7.321206
51.749744
26.154560
86.057547
15.991964
18.785512
-0.390878
46.598750
7.658086
-180.074596
13.205585
8.078153
-49.355657
45.233481
-274.060426
-2.676663
-3.228329
23.617830
14.981422
-179.761633
5.005259
53.835387
15.039730
11.489241
3.100857
62.979912
15.763596
26.695446
-336.606546
-29.270889
15.366231
-5.084795
-83.921082
54.364186
-49.971909
24.870311
-9.803206
-4.933614
12.462317
-181.465794
-160.309504
15.110530
11.702718
-6.120066
51.867522
-87.279199
-12.428425
-31.575170
16.063228
-7.954530
14.139044
14.842984
-182.768586
-5.148018
-6.838726
-59.514774
4.678352
-234.968527
18.991299
38.555539
21.196770
-4.264433
27.744267
3.191426
17.439445
41.009632
80.223320
24.949797
55.706257
53.900522
-46.709998
56.426695
-11.940536
37.589710
17.872320
-406.043122
10.307906
23.222421
38.858092
-5.509747
62.813700
60.049682
48.237135
3.648716
-281.903653
39.010366
19.874998
-74.915789
-66.615767
-26.474631
36.020265
-0.314998
32.343608
29.252831
33.251870
66.655396
54.683965
63.548325
-48.365654
-113.007998
24.160579
-95.151422
39.157814
20.784386
-20.047805
84.672144
20.363590
29.914326
28.893724
35.046955
-62.646451
12.676658
-5.459907
-9.128608
-13.886770
-4.567836
-5.464385
46.308565
60.058789
4.445524
-18.061889
18.382325
54.825847
18.001697
58.752310
11.679331
17.530269
11.968535
35.473894
38.822210
17.534125
28.561498
-364.920486
-318.059378
-22.775296
82.297519
-55.962338
-76.388384
15.702435
-196.822461
16.565825
46.693531
-43.612473
-11.688531
48.200427
-70.874046
61.349035
35.269520
12.342910
42.146205
25.549130
79.800677
15.176380
48.281708
17.139186
83.326532
13.466130
30.575439
-116.465800
11.454194
27.201467
-62.564327
-105.801063
-9.186897
57.830030
-6.717447
29.061757
30.165560
-420.889597
-74.932371
-57.443151
38.224335
28.514316
11.329058
21.957090
35.802745
-264.823983
22.660630
10.359732
-15.163839
42.754993
23.351739
10.723314
-5.100405
39.396810
-33.797571
35.104944
27.819111
61.554381
-34.143384
83.253663
53.803430
45.936040
15.501794
32.294618
46.497834
-345.664163
25.674963
19.365026
82.446038
-11.124788
-7.728978
7.068092
9.480874
-347.342335
32.653864
52.182378
-61.753292
-2.616170
55.686396
33.911514
2.536657
-28.566710
60.769534
8.787074
53.344202
33.613889
0.031477
45.161508
-63.649548
18.491539
-10.800000
9.575777
24.206499
-180.883077
9.401547
25.532980
-351.245299
30.136355
-73.009774
-76.532809
14.482354
30.068581
35.728362
-8.847047
18.919943
17.144404
-98.936503
-68.445067
-7.904528
37.050541
-11.092408
55.003841
59.577879
-0.920094
-217.464272
-279.920655
14.276811
31.902568
3.690473
-14.009789
14.359824
-3.134151
83.645982
-9.179038
-150.513430
35.726228
3.679194
0.900846
18.492290
25.714425
16.312478
29.523761
35.426617
-17.799528
-12.947013
18.295128
-25.359075
25.121802
36.998236
-237.509666
15.196125
24.887521
7.321462
6.039701
39.272588
16.646925
35.884189
-228.254890
20.488942
-10.730121
-0.666166
23.555636
-120.050420
1.296288
-11.239052
-83.109393
-2.750733
-40.732530
15.174125
14.817905
-14.585527
48.006304
-8.766802
-5.651521
-100.242426
28.261688
-0.176558
15.286492
30.596088
-25.130427
-8.738803
63.608519
47.286644
42.784501
7.043954
14.925513
-278.389486
-254.679313
9.763310
22.046477
38.320323
21.756308
34.827465
8.322884
-48.882062
-129.053527
-49.947902
37.396305
-35.932110
17.311829
-8.017606
-19.058350
-33.810986
-43.363662
9.425716
-11.343576
82.546219
72.729822
40.941234
30.905872
-296.278706
28.446083
11.870465
-6.008050
16.426353
53.122087
-17.680410
1.545325
-39.038768
28.391864
19.531351
30.234008
43.264788
27.829726
40.022751
-6.880251
28.088175
54.105211
-341.556290
58.752669
16.244331
9.746024
18.491613
15.090110
17.304123
-0.948812
-7.563312
67.907798
-8.587461
-2.962308
55.875243
60.660831
-9.672980
34.910391
33.687297
33.024349
21.313331
-5.807357
-12.531741
38.769338
34.017347
21.793331
19.330978
-316.420124
93.889355
-9.710839
21.792628
41.313908
29.581317
14.323198
18.589358
39.777174
19.828517
-10.420532
32.948903
44.540948
17.855719
26.081268
-12.548544
33.778907
31.110915
0.454441
35.716726
22.088593
-30.643442
7.131577
36.748863
-4.876784
13.675977
55.169105
-11.046519
-47.084140
20.502806
76.610109
-70.580103
-21.740609
8.562081
-5.423996
28.844317
12.734396
1.403186
28.836047
27.406740
-334.447952
55.094351
35.186216
52.180137
-17.257162
68.821108
37.365549
48.829687
-39.263373
56.546126
19.717412
19.912308
36.308358
65.172618
35.558481
35.846759
53.750565
63.622815
-137.598875
-86.959172
-19.816943
-5.420842
34.398261
31.320657
-134.678196
18.126456
-67.230024
7.802259
-23.733662
49.713206
55.416351
-8.468094
46.383382
15.325393
-5.881993
-208.088813
56.772383
1.888357
-237.936126
71.632946
-53.909100
31.312307
4.164620
32.514158
-48.104948
38.430067
4.463216
-25.244845
21.398864
-7.268419
34.709481
59.281080
22.508677
-184.300670
38.055528
10.454200
33.836241
34.831121
14.769866
-9.621795
33.361644
15.309932
29.199691
-6.344934
0.255248
49.801339
-1.908486
-203.538727
44.938270
44.424833
-9.213618
38.298059
33.338687
19.001834
-9.197562
-190.564413
23.861647
76.093191
23.656072
25.608993
8.006865
-130.200259
-88.318589
-244.265907
14.419454
18.045587
21.575419
-81.026321
41.471715
-323.264048
-165.594252
20.345324
31.925833
0.371100
-11.685771
49.258506
-40.709493
39.926256
6.998052
25.159725
-4.610932
34.266730
33.272982
29.557435
-2.531502
-448.815632
-332.029155
37.468590
56.296136
63.314654
7.060641
-273.112815
22.049970
-5.463852
16.922286
31.100923
-107.545996
-59.007385
-8.327944
13.436580
77.292056
80.472399
24.259419
93.889348
-1.802264
59.166539
31.259063
-228.254875
60.705358
-12.673357
26.198263
-7.778424
24.194794
19.633986
33.810587
17.958722
24.947890
-231.300303
-0.784641
84.695317
66.230236
15.127496
33.695778
33.741848
-5.038205
0.006621
16.299783
28.491041
20.059667
19.485506
36.954128
-11.906499
15.220397
-229.044195
12.095847
-76.746603
-338.537400
-141.290494
8.876192
13.110963
-7.401159
-7.723699
48.946502
17.117768
-224.320954
16.764979
28.986870
45.164684
44.631082
-1.025229
29.245412
-5.825150
61.438001
22.052348
78.714625
32.823836
73.393565
-79.389206
27.250420
3.202898
27.993163
42.149068
-49.190475
18.447105
-113.535840
-15.005824
-16.434746
25.224659
38.855224
27.705910
-7.970482
-11.229869
-38.996950
20.967057
56.533152
4.312330
59.874643
-176.413876
-147.116536
-109.203664
17.608678
-70.201750
15.195227
64.969822
-11.739917
27.410987
-393.901408
44.634866
16.441708
30.360320
6.762947
-6.594517
-106.685403
-202.534285
53.723182
1.711526
41.998084
43.224966
20.777917
29.557743
13.825783
10.453730
-5.794975
-183.812487
22.520165
16.065318
-3.767710
-201.438424
10.397873
16.370730
40.012854
15.385587
-250.567371
29.219376
19.076381
8.908145
49.134646
14.218042
-54.694204
75.273608
65.654342
41.396314
32.697172
1.351096
23.902735
31.907410
-51.391829
-189.477557
16.308188
-80.844439
35.801069
24.314504
-4.040617
-12.458689
-7.729262
10.105476
50.311704
11.089849
19.884244
25.448659
73.788842
59.020049
54.259944
21.996601
64.377266
17.709782
39.100949
14.557729
19.384886
7.982654
19.497348
53.901879
-26.500867
54.011674
25.447065
36.579668
24.368158
-363.564582
41.696787
11.515780
-119.166431
58.955939
8.587796
10.596509
68.641069
-0.465594
42.574869
52.129339
44.721803
29.409289
-218.485952
-8.167862
-1.555158
17.557434
17.526559
20.889902
39.870507
66.587752
-3.792075
49.580479
28.206238
0.808561
24.281371
30.563600
33.579345
19.830237
8.131892
20.717757
33.638858
49.208317
35.970548
-11.993841
15.398476
34.103809
26.278555
64.950547
-281.158295
59.143728
-13.081996
-10.590742
53.313974
27.940830
36.989965
22.387774
-6.211664
-9.030806
3.592712
45.736886
46.042005
51.094835
4.707373
-2.684172
2.029842
9.480374
15.212533
-7.810800
15.503501
14.532009
27.306758
15.287326
-166.335503
-13.711370
-7.444641
14.632768
-12.873067
20.304200
80.854088
80.536326
29.448830
-4.979087
33.017021
59.425974
-9.899850
44.576627
-11.345658
-9.690629
-5.718320
26.300335
28.372766
-136.120375
9.114536
49.883477
53.103925
30.332068
46.318195
22.210848
21.388454
18.127845
81.061196
-11.394394
-108.442688
48.803391
1.957803
68.953107
-136.224393
38.764455
84.036595
49.646821
19.896135
-11.782416
-63.397159
-52.518173
5.965888
17.210429
-271.130983
-9.856982
18.217389
53.165187
20.833532
52.180547
-257.609462
-143.915847
-83.032736
13.085759
-2.321833
24.921624
16.286076
52.773395
-25.987404
0.821159
-197.097884
-19.500640
56.765087
21.812045
25.989987
-209.819034
12.992821
8.588466
13.959040
51.043510
-9.721928
16.091754
31.117072
-27.906181
-7.639583
-282.074838
-8.784997
19.978476
-220.595253
16.088488
16.089326
14.807480
-5.905893
-6.223998
-251.823321
11.195754
-2.416586
31.411264
23.831132
14.324131
11.567119
40.764254
-217.831048
24.078986
-90.876757
-95.304767
18.037881
-81.820220
-23.214512
-9.280660
-266.993786
41.130530
-9.956540
1.168504
24.053761
-36.777504
21.752130
28.174331
51.036708
-15.112923
16.467289
-3.642351
26.321009
-12.659573
34.959409
-7.241778
-9.028066
19.905146
-6.213760
-32.717860
36.183803
21.813460
-295.951555
-84.094461
15.766507
18.352967
-130.330984
-248.771350
93.803584
-8.753040
53.739182
17.178433
-78.679509
22.806035
-317.533731
25.644688
19.522234
-5.255222
-5.443172
-8.561959
27.105701
31.017730
81.288432
-1.189913
-149.317126
-5.124814
17.265427
53.219430
55.873537
-183.535107
41.777255
12.562081
7.733462
75.138832
26.621613
47.665878
-12.794286
-12.838213
-12.509753
-103.680553
14.307752
17.970142
27.813015
19.346470
58.863263
-8.180024
38.522770
26.945087
31.617910
-13.474465
-82.158631
-125.842559
-0.546422
-0.596016
13.247580
32.291312
-9.773213
60.699655
18.931560
17.237358
7.383927
10.475497
-70.879178
22.291579
12.238879
24.873317
15.443311
69.557913
8.029761
-5.606717
31.652364
27.827571
57.957505
-7.143888
16.440654
20.295214
63.701492
-6.520103
-54.513478
61.549128
38.437697
-21.082750
50.985045
40.072288
78.464845
57.053434
19.320433
52.834517
46.411041
46.855467
24.441510
-2.757759
25.593495
13.273269
39.308158
-122.434686
14.904550
-358.545684
16.541031
50.879057
55.073788
-6.868244
15.145056
14.263014
-104.259004
-85.951141
6.739971
-5.113874
63.580807
6.877833
17.941110
-1.698852
-222.390115
-82.442660
51.721989
-8.866325
-88.316088
-9.092057
27.931257
50.424238
22.265639
1.709937
-112.103620
-16.209659
-10.666584
-6.329998
-40.260420
3.506785
-76.106893
-302.003340
-116.747210
-4.126665
10.310260
41.315516
37.261189
2.655740
-0.418644
46.852765
28.468760
30.615874
53.659320
-1.175654
8.314949
-2.083020
25.852757
22.316635
35.218865
21.525181
-185.884800
9.771585
21.707708
29.913762
14.820045
38.875531
17.628924
27.492195
-5.448088
-6.084259
21.954691
-93.620181
-5.212483
-21.443027
-4.277193
-11.347032
-79.016458
14.036811
-10.249553
-155.957539
-49.083573
-7.044363
15.589670
54.141955
21.670556
-272.650282
83.566811
-369.378039
17.452033
13.629774
52.496582
-126.116086
63.957265
25.994825
-0.433435
-47.574494
-88.406425
25.468045
-171.253337
-30.102897
49.702769
79.647047
18.416313
29.415996
44.558544
34.822046
39.388896
55.892878
48.262457
20.710808
15.260857
59.614841
-211.942836
-2.528750
-63.196866
11.755085
-106.002771
48.986051
34.304302
20.309688
-89.331048
-8.714696
-37.330103
13.558993
-360.976444
-268.678614
12.606899
-30.441273
17.129671
-12.711303
11.973404
-31.385783
17.027622
-9.283192
10.306696
18.625129
-164.613094
-11.111892
23.996793
-5.521419
78.223150
47.650714
39.246815
40.169518
52.940153
16.240688
25.450712
15.775523
56.458134
7.362308
32.231390
9.479705
-1.807179
-8.591883
17.724120
25.082152
17.139139
16.555861
67.581221
68.175856
-38.197479
38.368298
47.380751
45.006929
37.616209
-217.831110
21.791721
-6.258502
1.699552
13.424079
1.135933
23.790779
-299.554303
54.242558
-1.393610
13.453796
17.523989
12.560979
-273.903153
57.439882
-309.402902
0.897468
58.054409
43.083362
24.370984
24.418723
41.027972
58.714520
45.619029
22.373302
25.180696
34.952712
37.734119
28.984914
16.466135
52.425653
-7.022398
60.123560
45.569819
45.491746
46.775291
27.609352
55.558209
32.356606
50.985851
26.362656
26.150629
-95.289413
42.392109
31.462244
2.598507
-8.052433
35.534877
-53.945308
23.991388
60.802766
-3.937862
11.519602
55.645253
68.656774
33.697447
-6.081633
46.552124
47.302305
-2.719918
59.575212
31.726012
56.779199
33.023574
67.185853
33.621566
25.572784
39.462128
31.849624
32.112626
20.629024
20.209776
-6.810077
22.074001
-6.882790
-6.049229
45.281781
21.103192
47.439976
12.198844
-0.130719
27.040766
-30.599985
23.030769
16.110650
22.299171
16.334047
-3.013531
-294.499317
-7.721241
18.731233
16.726192
63.454739
29.458649
-0.048104
14.359546
15.268404
62.721159
36.636663
47.358678
6.786408
56.359088
29.311886
57.406491
31.659149
56.733690
56.220984
5.688887
57.112211
-8.767820
14.921026
50.996022
17.601157
23.756308
-1.707758
3.445227
70.472266
91.139486
16.312032
19.360661
-4.517981
-11.000079
48.420495
-4.922962
78.387960
4.031396
31.644349
5.609641
30.013181
-28.878548
26.744903
38.831640
-10.173289
-5.754320
-111.940733
-189.915467
79.315107
25.174106
33.987078
39.433409
27.483742
14.174134
50.380145
26.189541
19.580082
-30.443771
39.550998
19.150790
38.081183
50.393890
21.147603
52.262332
-10.189810
-10.628369
-355.541228
40.238103
3.851181
19.616722
36.626241
14.854072
31.103202
-12.626769
45.721296
-1.988686
-367.530268
25.278896
26.732397
-31.037341
28.576075
-219.108584
-9.046620
20.515380
9.064776
-179.497543
-266.991951
-256.974867
-56.948746
-7.329374
17.712193
16.296061
-318.805855
38.608445
-7.023938
61.959883
1.483319
16.112722
7.126884
5.207053
-93.644629
-78.733398
18.403263
25.098570
64.154233
22.072666
50.813571
20.930380
45.585566
5.680614
23.489869
-10.625303
35.264166
15.446790
-371.634924
21.637679
-6.466497
-57.923350
-42.155268
-31.129500
-4.830173
2.693340
-66.856246
16.255392
-79.770263
18.443889
26.207144
-104.219199
-11.468274
32.206886
43.478438
54.240541
25.148170
-264.997850
-307.250954
-11.962645
13.511341
-97.213700
11.052374
17.956474
-72.971434
12.929603
34.592268
57.317339
-9.105551
-65.888095
25.323397
-140.228412
30.406802
33.778824
41.611346
76.232407
59.626091
15.817225
-7.965776
-7.971156
-10.608811
16.183493
-29.821346
44.296290
5.393332
12.164086
-68.446088
54.167856
16.122601
47.739010
18.674783
3.202508
-35.974452
-266.693380
-55.279682
-7.400489
23.685467
53.630111
-4.245347
-10.102168
20.890017
-3.913161
60.545860
6.046329
9.519342
-239.475830
12.505856
20.933256
24.859779
-109.188656
42.815360
-5.727194
-293.662673
57.306102
27.040051
52.839707
45.076479
87.251549
55.034711
43.527195
12.217821
2.321495
2.761927
-12.012021
48.574469
-340.265384
-9.643156
49.650332
-9.546831
14.966803
25.503493
7.609533
19.861345
34.301970
21.643214
-80.771047
-25.223316
-166.985216
19.022009
-77.887523
31.122651
21.896761
25.194088
73.850009
12.146435
-8.403074
-176.204770
7.531170
-0.303638
-0.998497
-9.405962
-8.752949
14.276195
-73.742447
54.590949
16.893984
40.248980
16.405759
-8.490923
16.955621
1.290530
47.314326
5.909235
20.764176
1.097402
22.620700
2.239143
14.942783
12.968148
32.359101
55.251550
28.819778
-235.400309
-11.727631
64.379033
15.474735
48.828038
57.380960
-6.507224
26.277229
43.730857
27.806070
16.836742
12.948724
40.890451
40.100672
25.980438
21.319814
0.181214
31.693399
88.704961
65.912370
0.640916
58.394345
-4.431604
-8.489679
14.454099
18.222545
15.284813
14.618127
-85.247633
35.696781
15.094025
25.220777
-8.689311
4.477372
45.695931
-7.945975
39.846541
8.755282
8.769371
-13.144610
48.575819
41.118057
13.727611
42.375534
3.933677
-34.724716
17.714699
12.999726
-5.079464
23.773741
19.268777
50.460613
22.743261
0.128532
24.485885
28.606690
52.906898
53.420726
55.321146
38.843129
29.897263
46.959009
14.526941
11.447677
12.173749
0.482653
48.622636
-7.599609
-9.513337
-14.170737
27.811659
-18.962393
45.726157
30.332350
-257.993678
30.011116
15.463453
45.447265
-6.836168
40.586446
35.198397
-9.718571
-11.278193
36.721974
59.437277
-121.336726
0.417904
48.320574
12.365908
-24.846827
3.575299
52.755560
25.493634
-32.382452
-21.669427
41.130490
79.055661
-248.771353
-147.419748
-448.722502
43.820321
-122.433603
-199.180046
-156.047895
19.806697
31.905318
-327.325363
22.437969
-45.898986
71.667711
-96.726277
44.282075
29.417633
-66.023582
27.728540
-120.596802
52.674143
74.190658
-0.019494
-13.633895
22.518267
-92.975097
40.390259
-85.889652
-172.891013
51.294055
50.517665
18.401203
17.045997
-1.477326
13.319325
-252.949490
64.982516
15.349227
-5.389133
29.129026
-8.185095
-125.056507
-256.964534
27.476317
10.440521
-449.877693
33.935252
-37.123724
20.081198
46.851167
62.485525
-8.303995
-10.267080
81.997529
49.348743
29.207588
24.157392
14.376574
11.147201
-36.114494
-67.952826
-9.238179
16.540433
18.020585
-36.848021
-3.445823
14.219262
14.535301
40.387788
28.944103
25.304517
-38.118826
29.383361
-58.827389
-9.240792
-7.235520
11.629955
-100.811282
29.399319
-75.556091
-5.432704
-95.928088
76.851191
27.560701
16.205496
52.586481
21.241645
-122.378097
21.974489
23.794877
-8.957761
23.032577
12.566633
-11.860230
28.254394
18.340289
19.817150
23.178913
22.434447
60.732003
19.665469
1.796280
33.575130
51.595457
68.514139
-61.421611
3.101152
-13.332576
-11.944793
-8.364639
-2.172556
2.939185
23.808090
33.511517
-308.771816
-7.922387
24.651146
51.281808
16.208364
23.292030
40.178731
13.739566
34.293009
25.201307
20.064931
39.657971
62.563043
28.763444
63.959389
49.458487
50.669590
44.820060
14.830938
47.338638
11.727918
-219.879377
-93.758550
3.782818
-3.743784
62.981750
26.737447
-7.402612
51.028182
50.811674
-13.019306
-8.206283
-8.433916
-348.047877
33.198533
64.656874
14.837938
-100.032768
24.451717
44.441250
28.659880
-13.054103
-9.871384
-228.071997
45.692081
11.794791
19.224315
-206.523698
-6.189725
24.329409
46.243770
-2.280343
-152.724895
22.497669
53.795873
21.634489
49.431145
22.489812
19.425121
-57.935749
25.798310
37.339644
9.129073
17.640298
-16.588553
-157.270034
-51.750992
-98.699751
19.693867
22.666790
8.118559
6.046912
58.269989
28.260999
2.264716
28.856181
35.266045
67.934188
74.025180
41.129105
44.998900
17.035607
31.532608
15.230738
48.715739
-7.485658
58.444911
26.188633
-9.209418
2.998653
-0.782958
16.765435
-8.230958
-230.287809
49.645006
2.640034
53.299584
65.818066
0.939682
-219.469621
23.027591
-17.734924
49.420057
19.639069
35.023018
20.887477
66.587818
-187.168720
34.206507
38.561819
37.128387
-313.362725
-68.497583
-10.468081
30.307939
76.100658
11.945693
-3.197481
52.844230
43.620876
49.592910
-171.081274
52.600338
25.197463
58.762912
9.098332
12.739213
-45.975863
30.511002
54.884284
52.059822
9.834601
49.893019
52.130067
19.669494
-7.374287
10.544927
-6.000024
38.692570
12.902297
-9.787785
13.152441
9.888147
27.375067
81.113569
11.134790
-6.358363
66.817400
16.409169
27.933768
25.594955
44.968071
31.343075
60.323245
35.254962
16.097106
66.960784
26.081868
-47.152489
82.318911
25.533139
-160.695942
-296.090401
16.891767
52.380878
15.240982
5.646824
25.691563
17.514256
8.150269
-71.724787
23.835107
4.013253
38.987929
47.448586
36.508164
41.453183
8.159644
36.360582
25.013329
30.796575
32.243564
47.930476
26.262597
7.702593
28.410042
70.482978
65.770360
-38.815312
54.826301
12.559725
0.841063
37.666265
22.137828
21.129785
-6.675298
27.050300
39.375135
-229.420609
-5.616442
18.334460
-10.227176
-10.949961
17.694418
3.531632
29.503088
16.568462
-8.061469
16.726305
23.903006
57.103375
-7.213841
-3.514390
-236.380123
26.056358
22.528006
50.380096
20.081288
-12.391609
-8.701986
-3.035826
-44.734226
-12.932865
17.556408
32.437066
2.971983
43.524758
22.722228
57.015749
-1.340654
27.776168
13.800472
-12.113626
16.119881
-8.208833
-6.784196
11.334612
24.814945
-29.925245
58.349915
59.747542
-10.394912
-12.516381
21.203992
45.092964
22.374376
14.239427
34.014789
19.354427
33.349625
3.925531
22.047459
0.219701
20.254188
14.218439
18.436240
56.733134
17.509633
-7.334457
1.954910
0.777749
26.009823
22.808549
17.703833
19.296672
65.047821
33.852906
89.483770
52.237951
-288.683163
45.465419
-177.533331
6.362280
64.498096
26.959864
35.783559
9.744048
-51.402077
43.315598
55.933772
43.325407
-275.697920
33.422532
41.069372
-139.824492
-27.420872
24.647436
-8.546740
26.830604
19.997762
61.747342
36.221902
24.529906
34.907307
32.405192
45.037798
7.928887
30.610124
60.581580
48.392398
71.230410
29.579636
94.421800
11.948886
-28.281026
-193.653723
-11.365982
-3.705903
79.506204
52.909918
-1.375963
25.278085
8.840156
59.275251
-21.553316
-76.920518
2.879667
17.216412
-343.168825
18.233370
54.363371
17.023202
43.297553
50.473591
-75.179241
27.143760
-5.205286
-3.730655
-304.494446
30.233716
24.728214
29.883463
47.582222
49.436257
-171.464415
28.630910
13.516222
-14.016234
-39.229139
-130.852128
-9.960454
-257.547819
12.460159
82.993975
-193.821780
-142.167966
50.608535
-15.603222
6.044187
1.892103
53.751741
42.957066
53.521163
54.552368
-157.086359
9.689168
16.415722
-10.043851
50.392242
18.675548
-231.300209
-90.268874
63.777766
-344.462286
49.960549
-43.600564
24.568897
-7.192083
20.258832
26.661165
21.129146
51.583766
26.855194
28.159932
0.905820
-10.677508
-1.552715
15.387773
-29.989031
75.214361
-7.962659
12.927376
2.603410
10.447134
17.164998
22.311652
51.940701
-3.625734
-1.579979
-32.719971
-49.496270
-66.512167
15.504001
23.901931
49.966014
81.542613
40.676538
31.367635
14.091854
38.535575
14.482188
33.688727
69.782457
15.354556
16.300489
29.113340
-74.915833
-334.447814
8.955725
-6.494771
-6.948856
-5.698725
55.332698
16.948577
15.715123
-11.717738
30.335604
-8.786065
-5.284003
-32.304622
-0.478890
17.820932
48.362213
49.668623
28.984751
27.532712
16.257221
-41.521340
-62.642883
-227.234922
25.225607
26.290895
-7.913405
55.155842
16.337091
17.648089
16.676040
37.242944
0.401917
7.607182
-147.116354
-57.902594
-48.362959
10.915910
-0.634458
-75.029153
-36.756097
-71.000795
4.698932
48.805140
-152.982139
20.638119
-6.487579
-1.943518
-40.720148
-98.937538
20.043931
-209.351079
20.633689
5.913745
-5.279965
42.485844
13.525254
28.829627
-366.388907
2.575651
50.621727
-93.892805
18.727985
-51.860699
59.123208
42.122736
-26.722758
-49.506226
62.064313
46.585736
1.447310
16.246436
-5.381061
14.484763
-298.587764
-131.882667
-129.877437
28.949308
-121.087753
-152.455809
-6.443571
-4.207397
61.114966
76.611000
1.284467
20.797486
49.459073
24.620611
-3.195229
25.384896
-13.553910
-21.063881
6.717443
-22.430437
80.785027
-9.956425
-1.227080
14.721810
-80.003916
36.367245
23.979356
22.574116
-1.584265
-8.494656
60.036280
-152.154286
20.437984
-125.900067
17.452765
18.948757
33.578491
34.043926
-343.491213
27.482955
26.842830
16.066775
-9.271249
42.567979
-15.646469
78.764143
45.966787
-0.445124
15.309665
-238.357001
29.704047
43.285493
33.739137
55.327307
21.404669
-5.895633
35.664814
51.986034
-67.567782
22.574530
19.469124
75.571665
63.120544
-136.708085
-222.427064
-44.266903
18.494710
31.332858
-313.362644
-62.802799
54.048574
-6.764793
22.169597
32.505290
35.797481
30.009644
28.261793
46.023621
11.398961
18.782512
-5.224797
15.145146
-60.746882
59.356914
57.305175
37.247969
70.189300
-62.335704
-66.923996
34.932809
-260.086196
24.766992
6.415531
25.766057
17.315223
29.141505
-93.258259
3.452810
-70.345113
30.546441
19.520194
21.994057
-5.104160
2.704504
-4.172266
30.865618
54.874034
24.518639
66.576543
48.431250
-8.130630
4.546376
-10.111121
24.431388
26.068590
25.579690
15.933927
22.250327
12.924091
59.706031
17.347429
16.796103
33.854030
57.780943
29.649588
20.919189
24.567093
7.937010
-54.502146
51.034252
-0.787243
-87.226966
-135.792536
-11.720636
25.174164
23.102118
19.532836
54.814932
16.477325
57.654559
30.899933
36.478402
-7.356410
29.961779
15.286564
48.959239
76.027773
5.773083
-148.564844
-201.281042
-5.038045
38.245699
43.663206
-88.946908
39.771227
-8.287273
-49.142954
-126.129054
-19.651587
-149.030774
18.436526
-21.068706
29.863403
14.607793
33.821734
9.728137
13.600328
52.442447
-12.346507
21.973052
64.656882
62.722929
40.557434
-196.641039
39.053409
-25.824648
33.433107
60.059648
68.076318
45.543346
17.947762
11.231691
41.648764
-14.691200
18.229054
-58.268342
6.244957
23.838014
12.926875
-15.135469
10.870211
-119.875272
45.132967
35.911818
34.144284
51.497938
22.082127
55.840841
-208.973342
42.199842
-8.668047
-8.015861
48.156210
2.356687
88.996076
43.125182
-5.041874
14.107442
6.196763
33.767256
46.639874
-104.835698
28.945299
35.741149
33.721342
20.537462
37.731965
-5.967522
-113.010792
31.446063
47.883245
45.793024
64.988955
28.240660
69.864709
41.802812
26.575680
-222.427099
36.919786
29.783526
47.765672
38.746049
-36.118219
17.049933
10.270192
-244.280010
4.501480
20.843120
41.271873
41.233802
-108.638865
50.741261
36.823515
-51.391866
41.770021
71.710774
14.605265
53.486763
13.766575
26.526919
37.655908
-12.292688
43.626686
-214.613169
19.838955
65.652239
25.484433
79.037119
11.873725
37.115443
17.450518
-8.652350
18.762053
10.115993
8.263953
19.990326
60.264908
28.524497
51.296346
62.642255
-8.135743
19.081650
30.584873
44.168343
6.167994
60.441539
-48.617752
69.275465
-4.997711
24.523707
47.385315
-3.698098
-9.541227
-283.981861
19.136017
-156.683194
63.310249
18.455284
31.760476
14.283810
8.300827
8.128938
21.362239
79.315887
56.832692
29.732870
7.233735
26.148325
-50.485821
39.181096
44.273465
54.570326
-321.725033
-49.135626
51.899243
-129.738802
0.600541
15.308729
19.076127
21.906342
-85.760281
42.759980
-39.223251
52.864736
59.595280
29.775849
-10.705127
14.612647
11.890262
42.782770
70.820909
62.556258
-120.964677
-92.407021
-8.996655
-108.535163
-85.094988
27.085743
40.989587
-7.825349
-10.854423
15.680603
0.842961
-1.445356
58.924400
14.089601
54.047971
48.783413
-2.757865
-10.455261
64.493793
39.389052
39.897917
11.737389
-278.018202
31.955577
-12.001353
1.888856
-67.057460
82.458977
22.212779
-340.412770
12.092140
-18.200569
55.037652
56.141211
40.285965
24.200789
43.008857
-12.248459
23.077965
3.381156
48.702892
8.807388
56.763991
80.843430
67.325771
58.304020
35.279342
-260.086259
-13.364435
75.137990
45.569033
70.458898
86.180862
23.015868
39.077615
20.575040
21.014196
46.410001
-8.747365
14.566314
-9.702119
54.746131
-66.925711
-141.289864
27.930113
-1.812025
17.769058
71.231166
42.494122
27.231101
-11.577591
35.607640
63.244464
21.020925
-5.684300
44.891773
33.836535
32.785454
65.461974
52.512168
-13.022067
77.718671
-7.652711
-14.217398
25.575753
31.904093
-12.433070
23.236980
25.081491
-11.749017
23.540630
62.841540
-377.188754
44.310106
28.373511
25.852563
22.044368
42.699956
63.443120
34.094976
-63.196784
30.062128
-4.706601
19.546751
-12.089579
-167.575385
0.611583
14.815930
3.906312
-3.374513
-9.226674
48.710487
79.107143
-30.202477
-57.400427
-4.783225
-111.080381
35.911669
-36.046079
45.364644
-47.010704
-7.235472
-7.735456
-130.713560
60.633416
16.647419
-62.564213
1.043082
63.922173
17.967075
59.358034
-97.754720
-75.346818
13.908285
-48.945745
-18.519757
-10.587964
-237.509705
17.070098
-286.953063
-12.672476
26.232240
58.311890
-59.237340
14.010749
16.962529
14.828134
-324.624031
-196.067770
53.317636
-9.808335
-115.298019
56.465583
-156.047559
40.963379
21.634771
-25.053489
31.646634
35.993424
45.955970
31.916635
29.101651
27.936630
26.585260
-6.714370
24.719219
72.729733
37.460394
26.857126
15.709187
20.159816
35.138367
41.033738
32.703521
51.672119
49.290080
15.978425
-11.189920
52.422861
39.289905
36.666390
27.268979
-57.401388
-102.338210
19.049386
63.960611
49.442108
-26.037405
16.927059
-10.844638
11.642615
-27.065270
13.853823
37.631078
75.529920
-135.770595
-8.105405
18.943473
-11.267446
-266.721600
-6.331057
35.728481
-341.556242
-14.778131
79.029040
33.148625
-66.856435
10.424931
5.038941
-12.431467
64.903844
6.637510
52.654913
83.724563
59.117200
-318.213644
16.438762
53.231586
52.015407
29.813520
21.695651
18.516061
-36.776731
-2.883072
64.251152
-10.344396
-12.455390
16.453291
26.380325
56.321510
28.438140
-191.212255
-9.088627
10.359805
42.685019
-5.366107
-45.774539
-209.068277
19.933040
-4.925189
28.446244
-13.205028
20.531723
63.065134
74.607839
26.031587
19.379346
-199.337800
23.206131
46.957547
-89.922030
21.237393
13.782689
-74.216063
29.019366
17.524493
41.787270
16.946240
-27.741931
70.086024
16.928855
-12.709537
56.240462
35.883158
57.522332
49.146239
21.072327
20.203005
30.167381
21.547551
13.682728
15.323880
-36.034979
23.026322
21.747075
57.250843
28.144167
78.528243
28.059933
-209.351074
18.652664
18.442787
84.918431
21.414034
49.160984
55.002266
23.635468
53.032129
55.299432
15.168442
46.057494
14.681411
16.159356
28.797763
24.553740
-11.860098
1.574480
24.147975
-207.964250
24.604700
-13.971406
23.502452
10.562427
12.764262
48.668272
43.693033
12.909054
23.970252
59.976626
-167.053036
46.763315
70.130263
47.098046
42.261046
14.520200
21.317676
44.420382
0.650611
0.311151
0.780737
-12.492869
19.239807
53.919738
54.207902
-12.082015
49.506246
26.276055
16.941597
55.715472
9.810379
24.267508
66.570344
4.957845
-107.545955
-1.649099
24.246315
53.644962
91.735961
-5.138485
42.120883
22.273884
18.182019
16.294774
2.071264
-2.152115
33.957568
25.005200
31.635766
17.125192
-252.494002
29.454439
35.950451
27.804261
24.464692
20.729533
17.944271
-36.252600
31.502729
16.129022
17.958246
29.477739
28.460459
35.230677
-12.614536
35.490679
37.308270
16.667973
18.699807
58.582214
-7.701357
52.330708
-421.163621
48.051987
13.960814
-7.571156
37.183910
26.095806
38.139831
59.357040
-1.920915
15.544410
21.048389
-160.291186
-2.122735
28.997122
29.668556
23.875633
67.029088
33.338173
47.793687
50.568815
43.761186
30.177771
33.845355
-106.906497
46.672611
45.159193
75.449936
54.778198
-8.027777
-165.991328
46.172808
17.981458
-10.825934
52.305172
15.858789
5.296954
19.059877
14.699892
30.579642
2.076227
0.035823
8.263786
34.563048
17.393806
55.037710
14.239325
-28.303705
-256.726430
54.256528
24.151244
53.263209
-45.271093
44.721992
37.686641
-15.990162
22.021937
-10.775144
-8.992745
70.444299
-9.170174
0.502605
14.121147
11.728279
35.305147
-3.856862
-87.959425
12.195258
-1.645470
30.422247
62.473683
32.676206
79.056793
13.375164
27.131052
46.853855
76.652891
50.509773
18.099494
23.941466
27.828664
13.045067
14.242572
65.461960
25.409875
25.582691
17.233906
43.590689
29.185166
42.046705
61.534674
39.922624
16.208630
40.234185
1.530777
65.060280
20.304491
37.619102
70.989236
-1.364449
-15.646495
15.765366
43.648359
-5.825649
41.939014
64.662814
18.966128
55.369328
54.680797
49.479673
33.660429
57.214509
-10.240432
-24.646701
38.538079
70.648425
40.821367
84.133631
8.474256
72.472877
69.451494
69.188502
45.001427
18.874983
8.903328
35.191166
15.385305
25.788287
74.580017
63.498467
1.872175
75.317947
-8.361814
40.922095
8.417841
62.354525
-7.312678
71.637273
68.454949
35.549267
17.235017
32.330767
23.577022
61.886692
-10.953036
36.122235
44.347485
77.784127
78.448396
70.648343
39.568874
43.620892
18.558721
80.052199
45.766667
79.896018
49.329735
29.913558
25.237340
9.087146
78.468130
80.402390
38.239838
40.795063
59.901701
19.018008
72.262922
2.207103
44.189445
25.378488
59.436148
37.146104
62.743398
-345.409593
34.609087
64.514913
12.208376
81.775135
12.918822
32.106544
21.761546
48.814617
68.639765
8.572097
73.639013
75.382689
40.374275
55.460962
71.351807
80.024454
6.408993
50.230106
17.999081
45.191817
31.484550
4.299451
29.642500
26.697820
54.778263
0.463646
25.796535
27.402582
26.984366
-0.027343
29.072246
5.810035
32.226348
21.518030
-0.482901
39.192379
39.322774
45.998378
79.039522
48.810443
81.110685
-54.702060
79.069846
53.151044
86.991369
52.565652
77.138269
22.655404
46.347279
49.723481
7.498333
6.982094
50.065405
53.028297
42.771437
34.827971
4.515079
40.826069
29.618113
80.158347
88.065639
-95.150853
42.993091
14.152644
80.843719
16.100837
-40.727546
20.613210
37.086910
10.175569
31.684870
40.218042
29.390935
36.724607
49.458098
22.168624
-4.880733
0.532371
16.422518
64.233822
35.813161
59.475686
42.655662
3.217517
23.642893
22.887528
48.574681
50.744529
-3.895757
29.967374
37.245810
17.164648
-59.457258
26.317426
26.298263
70.386616
50.735468
72.730841
44.759654
44.294584
25.443671
61.833343
55.809481
26.492869
27.490008
12.508042
55.059840
52.070374
-2.181216
-8.946247
-85.072545
36.777946
56.371603
52.063561
50.748366
11.475328
-6.770194
15.374499
57.366444
28.830962
28.373297
-88.792828
35.156535
55.925696
53.487703
88.387961
52.718463
45.211572
18.881639
27.754624
45.275862
34.714667
-165.976869
-7.586163
26.160321
50.814587
-235.399382
57.217756
32.731014
47.967844
57.696530
47.892188
54.793879
35.975627
60.053335
10.488018
-46.887843
-43.998155
-44.103213
-42.811835
0.116725
9.289418
8.648049
57.040069
26.284651
-5.268223
5.682286
-6.800375
21.631485
5.188070
24.947701
82.990149
22.242251
21.743494
22.511536
22.073332
-7.713443
-7.201860
3.553940
55.025626
54.145022
50.524956
22.248375
20.501398
45.439963
39.812842
48.879954
11.773567
85.853199
24.966339
1.932118
2.297332
0.735398
29.224773
-12.090543
20.732262
-7.833913
51.257248
30.435663
-8.964731
2.658341
20.452441
26.850888
23.161773
56.715633
56.559125
-65.273023
88.379253
20.269308
-10.339902
-10.603966
58.832580
-262.696110
19.256590
10.472998
83.204270
26.706280
27.302067
76.868342
72.566472
67.625844
64.908028
-9.185345
-8.487580
19.464523
31.963437
56.540967
30.703441
16.491337
24.463410
16.131523
3.822101
-1.033141
29.175620
29.790417
63.580809
54.681883
65.977405
23.857225
47.711280
46.894269
43.940019
15.820132
20.013917
23.384193
19.721654
-1.845810
1.357397
89.350753
88.922643
-4.439943
-10.561013
15.368134
-11.974604
-12.572765
-12.854596
-12.262781
46.944138
25.762035
34.826411
32.120719
26.385902
3.732955
30.353249
4.252561
-2.641871
5.487898
2.220212
23.341608
25.100967
15.697669
24.048463
15.491060
-8.253139
6.519827
14.406801
22.520159
24.939142
25.312700
27.064987
30.758694
30.662976
57.045262
55.818282
58.089615
90.099414
32.162177
27.452018
-2.805233
-12.372139
-8.897559
74.651837
18.987803
19.321350
24.645295
56.881232
77.136936
46.183784
60.810589
50.489704
0.698336
30.360106
27.129534
1.560592
11.375996
-11.113272
-11.486904
33.459821
28.335634
52.180074
42.989261
1.215187
17.321461
2.565189
19.227341
18.897352
14.616489
-38.192713
14.595494
-35.804765
47.928225
52.369600
23.675251
-257.993698
14.408498
-4.660059
22.292241
51.369643
21.362306
14.042425
-12.417610
-13.352025
12.712648
32.692056
-10.543044
49.518316
25.121212
41.118626
-2.580524
67.327393
30.789652
72.730899
45.036427
58.200593
54.534275
-12.273874
49.303661
-9.530158
20.596649
21.465231
29.020388
12.774544
14.099777
1.713177
32.891607
62.306645
35.047966
57.450489
56.263681
18.974135
38.961044
45.431469
19.692381
37.005488
50.424106
51.365807
52.381963
67.420398
54.702696
77.425558
33.366546
-3.951611
26.753105
16.957238
31.732123
3.499554
42.649152
11.040227
57.827667
50.776493
19.731721
40.536245
46.140856
55.126561
16.391218
1.551438
82.283540
25.366710
81.524763
77.699194
16.747880
30.783280
28.548960
53.349539
11.537832
46.542950
72.463058
27.768368
41.149112
15.682845
20.345403
-79.806709
-166.106968
56.345464
57.265780
55.557622
-8.385911
15.510860
56.869175
44.866390
30.128869
53.120252
49.154174
52.934927
88.692885
-345.409994
-12.923057
40.104193
23.934143
-13.309065
44.142352
85.021223
0.113547
18.346631
30.727331
-231.447919
6.423830
-246.558172
-234.387684
-315.868320
35.334136
-324.311712
13.289419
21.392415
-8.604770
38.114314
-4.174910
49.530468
44.329361
29.874409
41.791990
32.152591
42.604487
70.191947
68.380355
-4.547101
-5.737378
46.742102
-119.772901
-72.932662
62.364551
42.521056
49.575672
17.720628
-27.285667
-12.489860
47.871086
-74.918994
-270.839701
66.691505
-85.091529
20.871016
-184.517516
15.653194
-53.264256
20.752085
83.112664
55.445288
-2.557595
54.333870
38.977349
-9.749434
15.811881
37.885483
27.060460
-10.070660
-0.056124
-1.586725
85.031446
-344.232936
19.279300
-10.521621
-10.258828
26.095095
27.410762
3.559721
19.834719
13.782934
-90.567185
42.489996
-38.211425
3.611217
19.227110
53.582877
61.864973
30.579361
19.464919
0.832942
15.119996
19.693305
56.539828
-9.794712
26.073021
-14.126666
45.481704
20.389037
-21.281729
6.609832
33.367016
38.505396
-97.054847
-6.442270
-308.771692
-13.091909
-108.600594
-44.265272
13.417099
-227.778746
-10.487585
26.210945
37.629483
61.832470
56.392469
78.970250
-250.911866
3.807243
38.844508
31.307065
44.087837
-106.945228
32.455087
17.590879
19.686189
47.985119
-189.877176
65.716121
20.707003
23.866016
-175.557472
15.641107
42.346680
56.852125
57.615717
-11.640211
26.621862
-351.245595
18.646318
-9.649438
2.248982
79.327835
-12.997549
42.700584
66.486608
9.209492
25.036476
19.451177
68.946898
55.984470
59.426998
-7.670124
47.436023
39.325116
-92.444708
68.923319
37.452456
28.504172
-96.709840
-216.602852
27.609725
56.065499
-80.401936
-11.923057
38.587911
54.146693
37.381470
76.939425
78.092150
-195.872731
56.751376
51.278392
55.558536
38.921636
56.782623
-276.532184
-318.964836
-2.495679
-150.895134
-168.996354
52.342460
30.327185
76.099626
32.827071
34.045200
27.815790
25.256829
-218.000514
29.593278
4.961136
45.361432
-104.182113
64.685601
79.449122
75.703096
-250.899273
3.276249
3.010263
49.510825
9.915421
23.699960
16.433953
15.951485
23.588832
-56.961452
12.826296
-224.934394
-126.999381
31.608227
45.466993
93.374161
65.972511
1.015623
32.807002
-8.438368
-5.799714
17.371030
-4.956175
18.594137
-31.134560
-50.478291
24.921999
49.973561
25.573419
5.680778
-5.251896
0.881393
-3.584107
-7.307292
47.192970
65.041230
12.528429
-4.814893
79.327576
55.524640
83.601996
27.521362
24.053125
9.916180
-19.063966
29.647180
81.734991
39.549842
-86.210742
76.933505
90.479859
11.275378
-30.659907
-5.769962
11.588804
24.166187
58.338622
-34.970419
18.393831
66.638736
33.379815
31.575521
15.260883
65.834425
-83.920576
31.203164
32.604318
24.527538
-52.141948
-8.773594
34.292252
6.116318
28.087726
57.577137
-11.966913
-309.380245
15.219284
-11.057527
80.628647
45.710847
31.671431
27.103702
17.979156
-1.772577
28.687785
68.402701
46.069082
-0.509475
-19.408377
13.024464
56.772661
23.213375
14.791952
-252.172446
64.950900
57.159895
-322.119737
-8.951376
-72.780369
8.560899
39.387701
18.857010
43.905963
54.377527
43.646961
58.605347
25.905697
87.078642
-159.421202
1.705210
-5.134322
37.163260
14.582333
10.933478
-50.015196
14.776723
36.122194
-8.989780
-11.402079
37.077153
-6.650046
53.604662
-0.211267
37.230024
39.569271
-20.149981
62.354527
74.838066
52.155501
-322.749690
-14.703751
42.766563
62.744072
-2.172333
15.325501
39.967552
15.099667
43.349656
3.979772
-34.954340
-48.880475
-30.569755
-246.558336
50.257388
-79.387612
-81.922258
-340.265450
-0.352581
-5.002212
-29.244304
-53.263742
-79.749270
-12.586311
23.332097
-110.421642
-132.410197
-29.352384
19.020966
55.506616
-24.646011
55.774072
28.715970
-162.872205
33.231303
33.342675
40.585356
42.870972
-12.404763
-1.761340
85.138672
23.096342
28.440291
8.077812
17.669306
49.500439
57.371164
52.745865
11.147829
2.290534
30.091010
-68.388466
-79.189587
-58.833309
-90.567129
-116.490315
52.473131
84.848690
26.590451
10.916790
22.394664
-250.404240
22.561309
20.517046
1.200202
15.453112
46.817775
12.055396
33.149828
-141.905104
12.346771
2.806765
29.585223
58.749491
-57.177347
-5.165306
50.820376
-104.219297
44.090577
2.311892
48.150024
-31.584937
59.308946
22.595037
20.935084
-331.857835
88.968469
2.216742
-26.509733
-228.983460
13.602667
25.460934
83.563194
41.230051
24.803039
73.099293
28.172590
46.496064
-4.114365
36.565021
57.570282
58.259029
-12.940234
50.870564
11.137654
-301.930773
32.017519
6.704196
14.382640
28.209341
71.976423
16.534126
46.185635
33.059553
-7.721878
39.136344
48.391390
34.405154
14.534879
13.485916
-304.006416
60.487616
37.348942
9.475334
-10.479641
23.252352
15.100839
43.346421
52.736450
56.033976
63.521437
44.975567
-33.625086
30.148536
53.519827
7.891324
91.090604
17.045085
21.437096
36.998349
60.674054
55.149856
26.577051
-178.999099
54.345771
40.674072
79.775597
78.702413
78.779691
41.417169
82.505052
21.214470
83.504118
22.542513
-79.800625
84.589547
27.801062
82.142304
-306.057855
45.418275
-44.102050
29.629253
69.033758
43.281628
15.586252
-6.288065
48.046248
31.226600
52.577133
85.372913
68.862031
17.129106
40.779354
17.956036
94.193350
-372.601493
-59.602967
57.372651
54.108927
13.237307
17.130531
72.729847
40.409033
38.041763
28.844441
-11.905015
10.231296
11.163787
33.413854
20.418715
-6.662454
-6.034917
-18.154121
-6.028475
-3.660402
22.333226
-6.163092
19.094803
12.627676
11.248788
2.356104
17.633184
47.893912
-1.624606
-5.082835
26.086187
3.273052
31.124145
15.142485
14.763194
16.081484
-8.671745
-1.577033
75.300940
-22.146539
48.489279
-367.764575
14.458224
9.440734
18.947569
-5.283382
13.809992
50.669169
39.277430
6.500941
-13.892770
-13.382261
73.583968
5.464129
3.855445
60.835117
-12.536724
-8.651032
56.785371
25.502606
49.172537
61.274599
27.723364
16.559268
83.424112
-168.006670
-37.176713
46.807399
44.517134
49.724020
8.796111
45.668136
44.584870
57.085909
-4.338821
-5.561293
-107.740397
11.762589
-22.305991
58.267731
51.495702
82.860837
13.681529
16.389385
47.883634
-13.129790
9.696283
21.026714
23.470067
-8.998945
-12.181122
59.707823
-8.426257
-15.292053
75.761713
-87.279394
-322.808051
-6.907985
26.676024
-307.404691
63.666535
56.519345
95.082873
-69.702662
45.273555
70.797919
42.163749
71.489846
47.282578
53.397907
44.313081
-184.040716
12.622824
-207.654473
26.437048
29.782204
49.191043
-10.904153
-271.897092
31.075019
36.252745
55.280154
56.883133
58.227943
19.838703
55.921645
15.128713
36.837621
-8.027699
15.466796
67.282901
-24.267068
-11.375789
45.080581
11.256145
30.363332
29.850584
11.583373
19.453947
68.738887
33.852795
41.226468
17.556177
67.881491
24.560249
22.757219
48.338298
-253.940783
17.319886
-12.149875
15.098821
35.746208
4.697332
-9.062223
-13.340135
10.686946
68.235309
-316.767869
28.258175
70.407162
53.486000
27.636578
41.789647
60.826071
28.534723
-196.223517
-102.771478
16.340004
46.422312
0.045807
63.203072
22.367395
52.674090
-109.249947
54.259632
3.074385
1.407149
32.689563
23.317892
-6.159117
-9.283047
-8.160270
28.018293
46.640336
-263.728285
19.895169
51.614140
23.795115
-12.012473
30.184108
60.196624
27.977083
30.472382
-276.532749
90.895175
-113.705883
-364.920398
-9.188604
36.955039
65.227353
36.756182
64.251138
-71.428760
49.342651
22.856987
20.753322
34.563059
16.932893
67.917785
-421.988495
12.444512
73.176450
17.946613
15.222388
10.322106
1.609934
-204.959789
-260.435148
-9.595911
45.018648
-11.231018
76.886502
71.870293
-7.267770
-168.435565
23.856510
-192.503753
-227.783067
-54.576458
73.990289
59.245168
28.748438
51.045360
40.273640
4.646885
-35.980302
37.887947
-15.145205
56.968139
41.400274
56.802530
41.137227
48.875273
-104.874013
85.091874
54.790705
-174.613769
58.954637
20.921629
48.102598
21.055987
49.146204
41.786927
54.028069
-9.569080
24.948989
-59.724483
44.382735
-9.626619
33.701445
4.618367
76.850270
19.273409
17.994590
21.996094
-69.510989
62.323206
18.721211
5.137786
35.714845
49.342583
42.883035
61.160450
55.688058
55.511696
56.941809
40.465814
51.268197
-7.611151
-208.502712
26.629163
-8.199617
-242.402140
-217.316046
-276.078487
16.002639
-9.656064
29.365713
13.836673
18.095562
-81.313558
49.576908
49.497946
-186.635543
-183.359759
1.762839
31.117471
28.393367
23.904475
49.345866
17.685164
39.462465
37.074959
21.917740
32.724970
-41.516918
1.634499
20.578768
21.730806
20.771960
35.230137
39.767681
-121.112923
26.396371
49.708415
18.731740
26.897705
26.738080
24.440366
51.587703
29.910057
-44.157967
52.597581
12.618645
-5.726539
1.610037
-1.432154
16.145591
54.000134
51.063723
32.343428
16.084835
-2.959325
-11.573349
15.244584
16.428616
14.080420
65.059914
-11.543575
27.278057
8.810870
41.976802
41.166910
37.189023
-1.861984
24.655930
-13.157334
-48.984094
-33.487532
12.207596
42.433030
-316.884888
13.813235
55.707184
-1.556456
55.821009
28.847772
68.624480
-20.987743
-11.301117
-4.124133
54.630287
86.574157
87.864034
25.722652
23.793665
1.403857
-274.561219
30.341945
64.823606
18.787434
-3.088054
28.846310
54.128396
28.656930
27.034757
-1.578940
47.472222
16.312568
75.826318
-206.864804
-8.408001
52.966822
-11.103461
37.781749
77.868005
41.108662
71.703705
21.320007
27.021806
27.421537
56.048422
54.734472
10.535591
6.849815
21.251897
21.461511
72.261333
44.451947
-2.621472
-7.520115
15.372466
83.351880
46.198477
48.354082
17.102817
-63.902459
-82.456618
-70.003220
-273.903166
49.079640
29.007704
-8.928979
9.009832
-354.818115
51.585135
-10.245399
47.908835
61.306812
-12.751629
18.415027
31.484102
34.480799
55.141726
37.278345
39.127087
42.153656
74.196874
76.958272
48.090613
82.085457
54.004613
85.021489
88.697610
59.385178
62.105613
55.853498
19.437146
39.967528
-69.954093
-22.419488
12.510554
-93.623384
7.778811
71.802559
21.907368
87.569207
19.542658
57.499989
19.996580
-10.309366
56.458797
23.080948
45.231181
80.458550
22.123340
57.922942
31.259646
19.134849
-6.325824
14.211344
-24.049636
89.739696
82.505998
63.769014
54.186449
54.730856
85.021602
31.282871
-227.234901
29.736537
14.754372
16.363963
34.861072
68.083563
67.195289
55.530845
58.125446
58.913731
-8.657459
41.139281
24.774867
70.933939
-241.021492
16.837713
50.233534
-3.205786
2.913778
-11.381800
14.387123
23.534476
37.876157
25.868841
11.592387
22.361885
61.619462
68.101770
26.684411
76.542577
14.488733
71.885454
70.078562
38.466641
11.056956
55.246532
50.530904
21.091625
-247.516639
43.567695
46.553509
-5.335652
-172.771071
-160.646472
56.851936
78.586004
-10.420801
25.080839
44.737465
71.489831
68.738950
56.906591
48.321051
-165.594297
-233.275118
-8.840868
-9.864088
-11.956905
18.931739
-8.673756
-11.884594
23.865135
40.720380
19.229258
1.457263
48.442404
12.650709
-12.948815
22.906009
-208.502689
67.931723
54.163013
70.215289
67.941650
24.795894
43.220024
32.050922
44.863010
46.997014
-269.415109
16.610194
58.265526
46.928346
68.580327
26.075249
30.022482
-261.003889
18.296281
15.706938
-6.633766
18.421345
17.221417
67.452403
62.064540
-31.663620
-9.509909
31.898906
-49.344249
34.831122
-12.694639
14.650218
-42.057956
7.775284
13.680746
29.576788
39.920903
-10.651466
-18.005241
47.465667
79.458496
4.098170
59.068252
67.061497
68.593809
34.795773
34.560992
56.578020
-0.531573
-186.635614
88.995811
23.839394
54.546199
-8.308426
-234.722727
22.346282
90.557944
89.255086
23.453299
-8.107194
41.434525
77.827311
39.994108
15.127213
49.241259
57.495432
52.424982
-7.694087
-12.794373
15.003381
49.171804
5.219487
53.370623
55.896681
57.454344
-10.868775
29.321446
-88.406579
-77.906122
-303.021856
50.003900
43.442401
-3.046995
32.029177
54.986411
72.741631
-2.229692
15.516615
19.159515
25.303333
68.935694
72.333704
72.176206
56.628323
26.820397
30.542217
37.557084
1.391726
-155.320821
24.443322
-2.299885
-101.141600
-4.127613
24.968635
23.184569
78.463303
-105.496729
-55.619140
33.587920
15.678494
-10.661680
12.195191
14.935496
-9.440011
13.677898
20.520719
-117.949373
45.404530
-218.695313
53.835432
-126.956041
41.471781
56.698076
80.024779
16.497789
31.578221
72.992997
58.090047
52.454941
25.226642
52.283211
23.548710
63.926757
29.374141
-5.488840
30.470092
43.268260
71.679517
33.364015
29.573138
69.033615
72.565445
50.655062
39.013271
61.490539
63.117757
55.791251
54.244830
39.165946
48.937066
47.308728
48.743717
5.590278
46.140091
70.026192
41.283989
-19.666161
33.857937
6.479329
42.211255
-6.248044
55.923750
24.983327
47.320366
26.480866
23.904020
-66.337246
19.978077
44.554133
68.179028
66.344756
31.688149
35.863634
-8.340489
-49.879538
11.392916
66.827666
21.161518
-209.649812
30.839385
56.558127
29.473452
-62.987256
-32.205067
38.369712
27.086908
60.723001
47.652927
44.277010
40.285409
2.806872
-107.128424
74.735852
49.897772
32.403299
-12.920953
-0.176432
-208.973170
47.776319
25.102348
31.638213
39.328373
71.021817
38.606769
48.396431
0.420946
78.981377
78.887918
65.041122
55.853452
65.977362
26.693823
5.606285
24.681638
61.117837
68.821670
45.655425
55.441704
26.075955
25.010508
53.089189
51.778825
53.030656
23.849149
-9.323322
18.625975
86.532065
46.349222
16.579060
55.987485
54.587065
55.138463
-7.336645
26.881948
83.602133
40.682134
43.316859
51.263468
13.231226
-9.732544
75.697592
54.363077
47.543278
80.708283
-315.564607
-7.664571
38.377383
-13.045445
-7.973886
-73.063688
51.010500
29.932869
28.857110
25.316162
79.501673
-265.690814
-293.809031
21.795231
9.612140
29.512682
-147.720364
-6.209816
39.371918
43.669640
16.580770
46.978272
23.302310
53.307533
29.821384
60.845381
34.092326
68.567756
37.757593
71.774691
42.732949
75.161490
76.108052
79.647164
84.235983
84.672440
86.813399
91.594238
92.598406
95.082848
62.084106
61.177313
92.050279
90.489118
90.486795
41.995021
31.959644
44.866301
41.552800
37.885454
48.270525
33.438482
47.988121
47.668112
45.589657
43.497805
43.057453
35.900771
36.480812
62.268060
50.485897
47.706462
61.741153
35.380286
60.994901
12.193728
58.943077
59.873317
7.523792
10.993271
29.454517
-62.336385
90.371565
37.611325
6.617615
12.880114
35.791761
34.443156
5.030353
32.021462
42.420261
90.141159
60.631157
2.785409
89.785315
16.476003
89.306103
31.783069
50.312028
2.194454
45.044294
-6.294121
2.184018
-111.314519
-49.494979
40.554168
-24.646165
32.221145
22.627121
39.991962
42.974624
71.507284
42.113470
48.090614
19.911064
68.347775
-1.474413
78.115154
59.753620
76.541251
47.295125
13.623789
26.105163
24.473861
54.807501
81.998140
50.067495
11.157322
33.884346
51.867949
32.745380
59.709038
39.473764
48.914110
78.371346
75.411634
25.160419
-20.858002
-26.203299
8.707071
9.073883
90.488670
-8.114319
-189.208336
-60.754986
-8.892698
17.110241
20.383652
77.053234
35.351967
52.676278
53.530756
18.542695
19.496452
-8.634341
17.369730
0.794351
84.151852
22.351616
48.260991
75.547326
24.026801
21.239107
6.112054
-10.141008
-3.416578
23.444740
2.663576
31.513272
63.446262
8.694427
-16.211405
59.219499
27.746043
55.986454
81.288702
75.756590
53.136241
82.350712
-13.734019
27.963739
12.939625
12.285701
18.387885
44.749719
50.744090
48.424549
-301.391200
60.930356
13.621937
41.629731
14.543180
16.341934
19.111068
79.040919
25.407562
76.117356
11.094628
46.274652
68.329671
-27.422415
93.631928
-4.138724
14.556557
75.271392
-1.441889
87.023556
18.623271
46.933821
3.029516
7.970766
-31.798373
92.808113
23.550942
82.802730
52.736929
33.482345
60.772676
59.529261
60.517992
32.508583
48.076265
66.962177
45.416594
72.250449
19.833397
29.143370
19.718269
46.817970
13.723027
3.374323
-0.334722
13.733999
13.923115
13.789453
15.229781
30.121552
2.631833
27.273090
22.865845
41.309679
-52.664491
-42.329517
52.587821
28.902857
33.018642
78.981494
51.263810
12.460723
70.772421
80.228616
47.016987
79.457178
-102.259879
-119.042246
93.417359
62.850145
27.558166
7.328697
61.615185
24.839589
8.984094
-310.618364
-10.884026
11.615155
-42.500057
-29.252696
13.568625
28.604100
81.885255
25.789544
52.592509
86.532434
1.750480
25.202087
80.707289
74.816577
44.625702
22.260031
54.842315
57.170961
55.843314
-6.462685
-5.489383
70.027543
-332.277386
54.226075
-8.554417
-8.771906
73.176419
1.304854
15.136111
58.596287
14.527821
-0.667539
-307.250381
60.845873
-1.387194
10.666424
-6.404122
40.104426
55.105444
69.060468
83.491648
43.344863
69.064081
41.096396
37.557128
27.754700
-23.552788
80.347981
-146.216816
-219.469591
-178.998948
24.789904
9.360959
55.311880
26.429952
23.327836
33.096680
66.569688
65.521627
52.178057
88.515144
58.478501
-39.038785
47.777247
32.468742
91.030673
79.870578
50.726102
92.432709
93.379082
86.061301
93.112750
62.027329
60.894215
38.746120
20.129303
39.495685
1.432740
41.954626
47.252126
8.426315
-82.328032
73.667822
29.307567
76.291701
76.978824
-12.838632
3.734081
32.035040
74.762028
17.476321
6.114853
68.102013
38.477114
19.976150
12.201385
16.035673
17.908716
21.062458
38.540882
59.220626
62.210316
92.079321
62.735400
63.172328
64.175277
64.212702
62.386727
93.369257
62.928809
91.969938
62.197184
89.620503
42.146231
42.584051
42.079146
41.536244
40.351998
30.101819
29.634402
39.710797
8.937783
-49.136362
8.358006
23.152128
12.075071
45.045935
-7.044836
5.655689
19.310828
-8.135308
40.388001
-6.285474
-5.071994
40.826726
-2.779568
59.437853
76.983710
43.829874
35.380386
32.899443
70.864251
-2.323486
41.207903
32.463126
30.851416
19.885259
18.937661
-6.845399
26.429272
-6.094705
53.355947
8.746156
39.006430
63.091186
72.611089
45.652076
74.634685
27.153062
15.000954
2.434065
75.509851
47.344324
48.054737
39.809251
61.207996
48.785184
62.020019
48.672922
78.723004
-0.455690
53.398150
19.996848
19.237726
92.501965
-1.251935
91.382427
60.533007
29.862968
-10.700175
20.701077
15.213582
14.804342
15.806536
-2.726925
50.065250
32.759873
38.846082
-0.783392
-0.485191
-0.411910
25.606567
15.435497
80.052254
48.293314
60.584131
50.548661
34.073433
5.464449
20.160180
58.646021
29.821582
3.392989
63.565388
14.700222
30.508851
24.179666
-306.058009
13.757428
-11.138950
-10.790676
2.203989
-2.748477
13.250105
23.832800
24.462618
42.447243
42.634467
82.446964
72.712670
47.798637
-2.088460
-4.479503
-8.642983
-61.977687
-84.098766
-27.913740
-12.351804
19.570032
-7.962223
23.257242
34.251580
-187.675393
-137.905040
68.622431
-16.132533
46.370707
-7.796312
7.585164
16.931185
15.030008
12.502210
14.874864
-358.061302
40.847494
-227.675169
-133.277852
-174.183956
-85.246491
9.363562
38.321874
8.128256
39.372619
7.130906
70.413517
31.563895
-125.843481
-67.955472
30.581498
21.788957
75.838597
69.693002
69.972783
70.345644
70.441546
44.558407
74.028799
75.696150
47.742396
77.275140
49.207087
80.157369
79.509349
80.222779
51.905779
83.753526
55.100694
84.664508
55.783092
55.883867
46.560994
60.660957
29.312170
-183.166508
50.895396
80.751814
-6.658732
80.808563
75.548474
56.918208
-7.746478
17.325227
-12.289810
18.868941
2.676692
33.624468
52.706898
-9.525908
22.319950
25.043944
29.060899
36.838273
26.324881
17.842552
17.060513
47.832286
72.306667
-221.950987
19.188253
79.107503
63.106080
-209.068263
41.077253
45.653771
51.866260
42.886239
7.126345
68.861696
-27.853558
-0.444588
-11.343746
26.577360
33.779004
-1.822409
50.583505
55.143613
16.999223
-229.002654
32.050950
56.878030
-318.059329
80.410584
37.803921
29.494300
18.841121
-213.687201
16.167425
-10.899275
29.850943
42.853712
-55.381339
-271.897086
77.174343
-267.884534
44.111479
-11.639066
45.229791
-328.389885
5.122745
48.658529
-5.905884
39.195115
-25.053576
-256.974895
24.986298
70.236412
-76.532739
57.915637
85.657802
-0.435496
32.440185
-4.939626
8.766982
68.943403
69.349487
55.783161
5.601182
28.591798
-211.286975
87.163219
-9.447996
19.511430
30.415065
29.932691
26.907158
-159.398669
38.250540
21.309728
69.073605
-1.568855
25.804042
-14.171643
58.391233
-11.596039
-104.164591
37.153391
-301.850313
-335.310825
-10.358472
-10.812354
41.531556
42.595206
56.798486
89.459419
57.576856
-199.445889
19.673341
13.738752
48.739744
88.274780
47.968311
-145.165243
54.799084
22.815781
20.975934
47.332535
3.926266
81.164762
42.247837
-328.940611
52.550436
23.319531
14.574565
59.191751
56.338208
34.666110
23.108062
-44.425036
-13.020804
19.989828
18.234016
52.247442
84.907967
87.811905
2.225122
40.394193
57.906799
2.589085
22.241288
-7.763439
23.450567
1.924744
17.033209
21.861239
16.467296
13.621757
27.855706
12.739542
27.273446
-0.327338
-183.167452
-111.613555
9.188402
-145.135472
46.454908
14.796096
13.520887
47.384698
-4.797151
-1.916892
-66.426554
17.950530
49.233424
-8.916629
21.118952
16.393980
-9.915439
32.607482
61.097586
-37.849298
60.840800
48.722460
44.242265
-2.196963
-29.469653
-57.933028
4.783805
-3.418240
-0.437785
-109.189725
60.985851
-55.900852
17.699452
-212.251548
-0.354314
-60.477754
-37.172701
-55.240964
34.591945
15.861296
-12.765171
13.244323
69.451509
-197.643414
-2.812928
75.878171
65.914569
-183.691704
-8.000337
-145.827505
32.090893
-223.304644
46.917230
2.311523
-28.702338
-79.799453
-293.378084
17.754315
42.456282
21.780848
18.512372
15.077984
-344.232988
-161.853415
29.162351
18.692139
-73.740204
-274.848471
-10.545641
-13.049924
12.516146
87.402208
11.607743
56.678056
31.754106
91.030629
-143.102423
-0.499644
0.330615
17.905310
-423.189229
-9.285271
-1.599619
93.276203
92.433985
91.172362
57.044450
88.063767
50.608507
65.951986
65.215311
42.081063
23.878245
26.642301
-141.980445
1.576050
-3.637392
-6.673659
-1.417610
-5.078059
32.309440
-124.701507
-101.140181
-82.644182
-12.482131
76.548278
10.191537
50.103933
56.072469
38.505429
-160.885791
4.352525
37.704766
20.994264
17.990218
47.355746
-8.935032
-297.046969
23.717280
56.313030
58.691582
39.716134
37.033508
26.028474
54.989733
73.223624
58.156018
-0.351071
-3.000978
-2.567185
1.867444
-3.168958
29.394749
-14.610032
10.763282
27.068326
-67.053765
-132.133259
34.251572
-22.022188
-10.060299
10.389680
36.181065
37.809367
-166.203538
15.309390
-287.632727
36.425241
67.548105
-0.425166
-10.014330
-52.454903
9.894686
12.440735
-72.880723
16.246735
16.163745
59.280366
65.540662
-326.886594
61.847493
32.653901
54.205572
12.188928
84.382664
-443.850376
-2.551869
33.283095
29.220618
-24.591995
69.295780
19.554014
-252.949510
-242.183487
-80.397216
18.738191
-141.980776
-6.245849
17.537341
20.758930
25.367410
-6.219083
8.119317
58.593091
24.981468
53.314679
24.451602
15.146011
13.311480
-66.038068
-7.724951
95.168775
24.477039
-104.732883
63.853011
-176.413698
23.853660
-0.904155
31.513327
13.720953
12.202461
9.926271
31.036438
14.718360
-104.733875
39.324814
-136.950075
10.171307
61.908312
-34.960819
41.167262
90.737456
51.502172
-181.314740
56.034130
-187.675806
45.511382
-163.605717
35.277158
-226.507701
51.539236
-222.674429
-201.281158
-195.380715
-169.110726
-138.923191
52.180900
-173.843138
-262.696062
-242.183484
6.868012
-8.098196
-48.933913
-51.387391
54.790676
55.465317
62.586551
2.194574
-1.753862
94.569969
16.609334
43.224459
-156.407914
12.305900
-7.384780
-5.821107
33.626802
55.015861
72.643700
50.530644
-328.940399
11.951737
85.372611
81.468516
-20.613824
41.117778
50.828110
95.046199
55.962714
50.205403
55.767838
58.839472
55.000450
37.827532
-328.920521
94.846982
-312.240143
-293.661691
-283.972354
-8.761451
61.271491
53.004401
-12.950801
32.527920
36.883630
32.206168
28.747985
59.746708
-368.834031
24.384338
-107.157435
-1.339657
12.501294
18.142862
25.635264
28.090746
-20.341514
-23.657752
1.792016
-8.259429
21.097433
17.898857
19.078164
27.610961
13.922212
32.173889
-5.991819
-1.500272
-1.215917
-21.541689
51.959909
-9.268627
-36.046279
-48.046099
33.555118
33.737591
7.177554
31.145842
6.289436
-88.500753
-84.724672
-80.772719
-76.653688
-102.651879
-45.156417
5.392210
21.507483
-32.753434
29.495982
19.816616
28.974929
19.525853
-7.392627
-5.582169
21.003285
-4.943538
-4.111429
-2.304227
-5.575195
21.732170
-5.160227
-5.659026
20.799941
47.455640
10.314710
40.149130
9.134794
7.943950
7.177396
35.387113
4.342028
22.984869
28.421061
27.599364
-0.122806
-2.386917
-4.385059
-6.998163
-1.028353
4.497552
17.006145
27.615529
-145.826057
27.186672
-11.648857
16.366525
-11.311430
16.729114
-10.922444
81.113646
19.949445
-7.686460
52.321575
-1.839413
-7.067446
26.019401
29.163418
-12.541678
28.106305
18.839525
15.770315
18.940512
-0.864118
-6.372017
-21.679528
-12.483271
42.210748
17.122386
18.353276
28.991191
19.053807
13.204958
-12.201263
78.758477
-11.468759
24.264620
25.464752
-14.128764
19.487977
16.551953
45.128014
44.205075
42.124604
5.930585
0.089376
0.698290
-5.834755
32.498969
26.386557
66.805867
26.468509
57.388786
-97.214175
36.347309
72.305192
75.528729
30.164728
49.261727
6.974950
47.143760
-138.315686
58.387584
49.628553
49.487086
83.753841
-11.359749
19.843019
19.977205
-9.576663
19.708533
7.405517
56.577695
47.798921
2.356842
31.253528
48.049727
2.171661
-13.666415
38.396099
66.962595
71.077559
72.203535
73.242742
73.069257
78.762828
51.226181
56.424298
58.486808
90.665619
60.195668
91.506069
60.918854
60.646509
19.464983
44.334026
44.137099
57.154540
34.844461
29.196001
-69.408074
-19.591021
-59.725005
-9.283450
9.134129
17.276410
13.671905
38.417804
-7.735847
7.084989
42.396025
72.538659
-119.203897
50.092297
56.424275
-3.334883
60.197135
-2.899824
50.226982
51.757823
56.512218
60.591513
64.379958
67.916416
74.253774
58.338392
89.794941
57.170606
58.596026
20.464485
-4.761329
29.578037
-5.967438
-16.890253
54.104433
52.274175
-244.280011
-182.471784
-50.694668
51.426183
36.387816
47.491305
84.149152
48.308991
79.425407
45.455101
44.340855
39.739962
69.516059
-37.159260
53.530020
-22.048565
61.796058
44.632645
94.292687
38.032131
39.311949
-9.002304
46.460684
14.434393
14.606214
-10.904071
84.152627
-8.834339
83.190263
81.006713
-7.458148
74.070860
57.249160
50.984807
-8.494058
81.602249
56.239719
55.149144
87.750768
41.526377
41.481619
94.583465
51.226168
55.600205
56.313268
37.786329
41.120988
-4.038938
57.620889
-26.001479
-9.207056
-33.614801
-21.286524
-96.726210
83.598189
78.172572
61.434474
62.143173
62.512515
90.775037
34.500690
80.153518
-10.406317
-0.637487
-0.544674
34.156558
16.675594
-12.503467
40.022983
13.269485
36.310963
70.132418
68.768446
-7.039433
-167.227106
54.790748
-119.165945
-2.901550
55.280131
54.041722
-138.923908
34.025017
61.240174
35.688461
45.966421
-72.862829
59.577791
-338.022346
13.722885
24.767548
-42.483836
23.997259
80.558598
-2.229885
54.558153
-304.004843
-52.448183
-14.817104
-14.265225
-29.989032
86.468753
87.748223
-8.528033
75.383724
-34.824693
0.033447
2.243425
-0.540055
2.593468
1.492210
3.927488
0.601036
2.071010
-1.550495
-3.111886
-0.297700
-2.483776
0.383609
1.116640
-0.676819
2.278230
-2.623542
-1.154403
0.355708
-11.290933
-13.739612
-10.734940
-8.194584
0.294253
4.139308
8.721024
35.552819
36.612884
38.739466
37.375851
37.186167
37.306461
33.307352
29.015777
26.443015
24.843622
16.356987
11.680046
7.822421
3.742668
-8.790019
-12.419203
-13.968130
-1.832530
44.632365
47.302029
42.123314
41.055411
6.255471
-65.272122
-60.540177
-76.651737
-20.488583
-19.804935
-239.787075
15.380038
-206.905732
89.067252
-311.164078
42.153258
1.059945
-9.806404
16.303190
4.763280
-10.206417
-12.159920
58.119062
57.294390
-11.609594
-199.439235
-8.434074
45.999561
33.720731
51.248859
-313.975052
54.251030
-301.930081
-262.993097
-12.843619
-3.893510
56.471487
55.165970
73.685492
27.130488
69.060383
37.220006
0.423246
35.950889
50.528203
25.610977
26.697536
-12.008687
73.432240
30.503319
-237.090681
-275.697908
-86.220943
43.719908
-11.636496
15.628954
-25.355478
13.034958
15.477813
47.388561
19.210010
10.725137
-6.660637
-4.604079
13.874138
14.614114
41.013807
49.441737
16.146901
12.284570
-13.958625
12.142220
-9.126325
17.754291
38.305731
30.967809
31.602502
-2.789401
-244.883895
-137.243751
54.789612
-20.754389
62.003669
61.680885
61.454224
60.805542
60.573722
60.058003
91.361333
58.167524
57.015406
55.105370
37.149340
34.846363
34.580710
32.494918
64.661756
14.617723
91.285279
38.236984
41.083259
90.766655
90.315102
4.856295
91.649070
3.754447
3.974771
-163.402704
21.915692
19.664356
87.328160
-92.926663
-112.716823
12.693437
-246.513425
-115.303743
-94.346943
19.521477
15.402671
56.868836
80.560066
60.151063
17.700457
-10.099281
27.254002
15.792470
45.757653
20.012910
-8.141154
23.202382
-171.229811
-8.816633
-12.347515
30.487800
28.254448
34.245345
-9.469832
-9.435764
53.583942
54.425808
36.478371
9.625043
80.688579
86.174463
26.583478
-3.791751
-10.212629
-12.571682
-10.319415
92.040841
-120.964829
-0.217173
-25.125099
-17.734754
-9.632431
23.676307
18.269986
10.387809
-2.181974
-19.390855
41.161389
-101.703355
28.214463
74.487668
0.633732
40.282137
11.480216
37.857701
-42.447363
44.090967
20.817305
-180.402954
31.532427
41.230017
28.172482
30.839527
46.069516
79.705800
20.225058
28.524512
-204.726767
-67.066141
-6.167551
45.002937
17.164417
43.480107
-37.173908
69.715018
77.063696
-7.469881
-12.312618
-324.624034
13.695498
17.031868
27.412133
-1.021317
10.973469
5.890205
22.210801
-91.120801
14.210013
17.681414
44.425987
46.422398
78.448538
-322.120056
15.027634
23.011221
21.004165
-33.072786
79.642800
-44.222052
-31.510119
10.279929
34.956887
-5.481558
1.043089
46.285595
-18.200555
-9.110162
-27.046323
-20.514941
-5.909386
73.988187
-51.560529
-67.456720
-55.961582
-39.184314
-33.485496
54.840761
-76.258054
-78.451139
-113.142506
6.148431
-28.969893
-54.687325
-4.171293
-15.116726
12.167533
-32.273963
-279.920750
-0.373308
20.579092
15.859329
-11.995713
-48.045900
49.530713
12.608810
9.659425
-6.206635
-2.894531
-59.602731
45.585343
-8.360221
-67.003189
-39.190776
-12.651302
6.778866
-74.833352
19.163850
16.590909
-59.027218
75.345641
-38.683270
9.914202
46.543104
50.204629
-256.000713
3.353268
12.756448
11.510453
37.709805
39.184917
57.702846
24.524229
22.114962
17.198179
34.712224
13.734825
-115.259578
-113.547650
-111.613235
51.788231
23.965434
22.543370
-112.387078
61.517822
17.853447
-263.728291
40.753601
-266.721590
-174.848668
29.838289
15.376859
42.772475
40.272558
42.326672
-141.280827
0.154138
28.829050
49.189339
53.397832
-342.482712
-7.102743
6.290805
-9.732720
-8.720245
52.660212
-39.276530
51.296594
-79.800474
82.076735
84.759232
-176.271711
34.361155
14.783808
23.657370
30.983280
-50.550339
17.047960
-4.717867
57.590709
29.562448
-3.639218
50.850886
50.995634
19.369965
55.562857
33.019474
54.870804
-92.444562
15.825255
-347.341973
24.795170
19.525999
50.575861
26.726972
11.790124
24.079158
-233.275197
55.245737
21.794439
-2.612016
27.281582
-11.140479
0.368657
47.760144
-21.269840
44.771122
38.777416
28.991762
32.763448
26.457072
3.981720
-59.169435
-58.738717
-58.166404
-56.604304
-50.398645
16.255289
14.893656
16.605030
-6.125009
8.401504
-5.171536
-87.960388
5.061228
-4.191417
1.644719
-3.192805
-110.422719
-2.184456
-107.129693
-96.248498
-86.026593
-92.315949
-88.247606
-71.004540
-36.760387
9.345561
-51.653700
2.510249
51.603062
70.086644
75.763472
-82.158666
-90.876730
-76.920477
-105.311011
-124.092475
-27.165203
-153.736539
0.285659
-201.588842
-201.325555
-1.408994
43.701038
76.625865
-219.879391
-198.957655
24.310963
-196.067909
-99.729760
55.784286
-2.636905
37.131866
21.108211
64.661808
19.936602
12.902206
-14.824764
52.187087
49.520438
86.202450
88.498691
-244.752969
-241.699158
-4.709723
17.711875
-12.847554
13.347468
89.553215
59.870079
-230.801500
-209.642455
-254.064165
-182.768634
-127.566009
-66.814645
14.159035
33.236691
25.905767
2.188534
-299.554311
-2.217558
91.321040
33.210898
27.943456
18.442749
60.140747
-12.077844
-4.076719
16.139057
17.491440
-199.338061
-10.790508
57.226830
86.133646
78.447956
11.657412
-6.248641
-2.735764
-11.126365
84.791856
83.350768
81.811706
-128.282037
92.133075
47.812451
-49.044045
61.489731
-3.974099
18.392208
-19.683827
53.170518
28.454388
16.108584
-316.420079
48.849116
59.117256
21.892233
5.793526
32.228819
-12.611681
50.348640
26.325831
-3.445043
46.274288
37.823088
51.116720
59.767649
14.058845
28.237883
-36.389126
64.842143
77.655467
78.969098
-104.874081
86.691950
-13.142684
-8.614397
13.193176
-1.755004
-49.871144
-47.013651
-11.634354
1.669639
14.482418
13.119276
-7.385727
-2.167663
85.343103
-290.292402
-281.088009
90.371169
11.765283
-34.513121
-75.951985
87.144520
47.038481
4.253940
-213.376269
33.658088
22.381739
53.771114
-12.648667
-41.867431
6.870112
33.465169
-254.064208
18.725033
74.083822
72.760803
69.447089
67.061317
64.040693
62.555954
73.145535
38.243399
33.278315
31.787937
67.421743
33.178229
40.916062
39.309019
-128.281775
53.092318
62.279919
62.368194
31.423409
34.488909
-11.348594
53.633884
16.165057
81.534186
61.796750
17.401912
14.119674
46.068625
18.530238
38.677940
-12.451084
11.658566
44.560236
14.177364
36.559928
-8.432726
74.030441
72.278007
24.940673
59.594454
41.917004
-52.957743
8.962797
30.415233
-11.939456
-21.269826
23.431031
31.399652
41.260341
23.998606
35.340751
27.612001
-0.794640
19.119713
44.758442
28.073706
29.987994
31.589721
33.123838
64.023102
53.063773
73.142315
61.097139
50.937728
90.920841
61.247911
58.668725
44.656623
34.874999
17.396916
15.415059
93.539466
53.858902
-5.188066
69.654377
50.620732
33.139076
4.216450
-0.902140
-1.360980
-49.088349
74.285192
-63.921605
-8.330388
-33.389189
76.107923
73.111293
76.985403
-122.606105
37.200348
36.213972
-256.842192
37.646539
45.333766
36.649398
15.436056
-4.405927
4.084670
-10.640012
46.403556
35.709486
4.870398
33.157194
33.593096
-13.100787
26.723428
77.681135
22.247549
63.009426
-60.765466
16.205701
-6.151382
-23.736841
-10.538789
80.622309
47.784593
-6.455443
9.539967
52.475470
-9.126101
-12.001339
15.392929
52.237148
40.176355
-10.758141
56.161142
-367.764654
51.662373
21.845748
46.971673
92.907430
-13.602094
-84.830187
24.946757
-325.239920
-10.581714
69.297770
1.624188
12.713379
35.858612
33.211688
25.430741
75.299142
48.075006
9.882669
26.372031
20.134006
-307.551715
-2.538462
0.104762
29.615258
50.085525
11.675077
72.960643
40.920481
30.559583
54.158356
52.820702
52.062947
52.253402
73.780427
25.847905
-4.039720
-84.067918
18.599275
19.299432
-153.488911
-121.334088
-5.705215
-4.657460
17.461336
-7.635715
45.808497
68.623523
23.245653
-34.509589
48.389601
37.782917
38.578168
21.686766
14.001667
-323.686990
3.458730
6.767779
33.121075
-312.240616
-4.075191
8.322009
29.909892
-181.871865
51.942035
12.353207
2.001656
28.157982
28.625488
46.021040
-44.102845
60.049529
14.932137
37.633769
14.413480
14.277003
27.757541
54.830120
58.474638
0.067040
2.382663
25.980125
47.820843
26.203135
57.120935
33.266825
60.271448
36.353544
66.580350
64.308925
94.450984
61.029543
92.203365
57.015450
38.793297
14.171425
39.867617
13.192909
38.681911
12.656695
2.154340
29.683144
-1.103476
9.555628
26.037274
-2.303635
34.375377
8.854755
24.154634
9.708935
8.158351
72.540099
-113.536753
45.878600
-92.408594
-7.122560
20.285961
19.766151
19.264833
-4.832184
22.851438
23.206956
-1.325170
20.821280
20.151007
77.925078
20.255453
48.426478
47.169508
-142.072484
-4.880847
30.021119
1.557377
-11.168487
0.388471
47.764907
2.748596
29.220801
-127.565249
-7.529116
0.010205
32.395860
-7.319446
17.744348
17.793592
32.544140
-262.280691
81.145021
-1.120798
36.522143
17.141837
3.874632
-12.209565
6.810635
-2.774310
1.903794
93.032709
92.259097
48.667372
47.869298
48.184334
17.168329
-10.877087
61.349007
3.197251
-204.726972
46.740291
9.345921
0.823146
-277.974706
36.333002
-8.938181
-0.368514
18.908346
38.659443
31.263094
48.289114
-11.808762
20.761669
50.308969
-10.539054
41.853791
-61.421180
-60.541455
30.469260
-3.446834
-9.530249
89.672049
-10.656790
12.633776
45.087313
78.778216
15.390544
13.867032
55.569373
14.865104
41.519626
16.230920
-1.639257
71.772368
24.024218
46.815370
43.107605
62.197166
-137.206942
67.548092
22.943993
-405.350605
-0.257201
43.801992
47.643225
71.993744
44.387421
30.800962
-23.308511
50.507016
-25.338696
58.440792
63.014236
59.474832
53.745801
-7.057564
59.256675
0.372276
57.550031
59.122071
3.507096
18.271715
-11.162581
43.141179
44.339554
45.507813
-296.491297
-292.126729
27.085391
46.643102
25.535155
-10.391766
27.089766
78.721279
-33.287279
-23.327165
-33.511907
29.165022
-321.233791
-36.096648
-0.383325
-174.333100
14.319848
-55.918841
11.720860
-45.743952
-0.196570
21.995367
18.355069
56.411236
52.009634
5.699255
55.752776
51.236442
19.432777
47.362393
-2.691942
-105.529652
-134.678096
-133.805714
-132.717233
-0.658314
36.311750
19.156466
-6.483576
18.621785
26.732477
25.850697
24.980696
24.419198
23.160890
28.506725
-24.022798
-12.489739
26.034706
28.438867
56.073073
58.166903
-229.044306
-11.901477
56.584318
15.839209
59.211539
83.567029
62.080251
43.796602
17.437234
-159.699850
15.071737
37.202202
44.334456
-11.118709
26.891540
45.664737
-25.736100
63.983796
56.089693
26.133950
-292.199944
18.408928
28.969087
15.371890
-84.813345
48.738683
55.744725
49.452910
-318.328865
-43.566982
4.333151
62.312840
88.430875
44.069480
44.587599
54.316009
24.492529
14.261184
48.394721
-135.333376
-11.993258
15.039131
-10.966755
-137.788616
41.463233
-29.352390
-7.601811
27.476918
-12.312365
13.913898
59.735276
91.423028
68.654017
33.848494
92.758226
33.467830
-268.017451
-415.805171
1.584914
1.931133
-1.763226
1.075545
0.908880
-8.489941
74.488171
73.106007
70.136676
41.459706
68.593682
38.289751
39.865977
70.896628
42.782799
43.315637
75.183999
57.681384
52.592661
23.438333
44.569944
54.542579
25.264756
23.251293
7.757489
45.370167
23.327041
44.649566
23.425465
-2.738917
-9.159207
-33.384624
-9.187274
50.091528
-7.518854
70.078560
-11.407313
-103.899017
-115.647568
43.227500
-1.052354
-271.808927
-224.320924
-4.428008
44.862835
-7.178864
51.282808
48.142285
-162.878870
65.135428
33.953922
-95.783960
-13.203820
-15.547586
66.427501
37.905787
47.101208
13.027601
31.739312
29.573549
19.896070
62.752112
13.354400
39.178180
35.146562
36.268411
26.910029
-236.509602
22.671017
11.837548
-368.996934
18.091844
17.572887
32.048474
19.403594
39.568739
35.563164
38.852689
37.824744
-163.823464
-331.236682
-390.918983
-12.149873
22.959894
14.489325
-33.618416
73.634910
41.332983
56.384902
1.603840
23.548343
42.094790
41.753782
29.265736
50.473788
21.777870
21.846058
20.069378
-117.049252
19.646526
-205.440977
-2.914783
19.039746
-26.001416
15.275592
18.720824
-6.492618
22.015092
52.346910
13.440430
-182.578851
28.215079
-196.216715
56.547065
62.899650
59.767419
-3.780412
22.186272
-7.161510
84.146525
79.510075
71.938251
72.611151
72.038405
71.433614
41.481439
45.045864
41.445478
75.756311
3.894827
55.966515
74.917149
73.392452
72.879221
38.357686
37.199833
35.765134
10.774696
56.256370
27.905189
77.813084
2.979540
56.030007
-63.921578
-73.914636
-63.991908
-144.097010
-14.168863
-197.035520
18.823565
-100.400029
-102.769115
18.342889
-9.025521
-50.398235
74.815071
79.869365
15.823199
-6.121900
48.801935
-229.002814
-56.604164
78.914539
-2.688115
-9.152631
52.509854
47.057477
4.861194
75.692665
56.035572
-200.961431
9.749556
15.534868
52.967807
12.151878
52.498176
-60.296213
12.757054
59.769341
-102.016310
-58.268053
75.347884
14.756723
12.951677
-10.085680
42.151480
39.702645
70.187856
-11.120383
-87.159014
93.750278
93.697606
63.601414
63.403319
62.215572
60.930747
90.384992
88.167613
57.023904
86.910745
85.569321
82.657677
81.111435
50.568730
29.446059
24.645875
42.952731
38.550811
66.446752
60.159930
58.764148
57.306674
57.441462
54.221891
52.602881
50.938794
52.571367
49.234491
46.124886
40.668803
33.014026
63.661565
63.777872
38.659424
62.305461
63.306240
64.239306
54.158415
53.520248
55.430082
-14.735829
42.977923
-4.793948
60.846230
60.290749
-6.620263
16.697766
14.764477
58.871084
3.365931
41.348485
3.615099
2.591200
25.392028
45.705974
-6.585068
25.455702
22.980027
46.440450
43.758951
13.752779
-2.352361
19.308520
39.699607
18.408271
-192.323440
-3.437716
39.071469
-11.834837
25.033022
-115.632605
14.719180
78.585802
45.151037
26.557719
52.733883
22.455330
54.231347
86.043832
21.879869
-10.174774
16.727410
46.927538
14.124476
36.600301
46.798786
48.138963
-4.314236
32.394245
11.182657
0.227370
53.671701
1.018830
-10.451425
-11.251440
14.768457
66.457798
2.550725
64.982513
33.739231
49.230960
27.136031
66.427888
6.358987
49.818979
-302.841777
-252.903019
40.038971
13.581087
-11.168154
13.075067
-30.643848
66.234230
56.614622
93.153723
-3.367448
-24.576935
7.848396
74.306904
42.406886
12.286214
9.247310
-0.439227
23.363792
-82.328043
-121.422895
-16.447825
19.953359
-4.707838
-94.682750
-101.010382
-95.182761
-89.185044
2.207027
-31.749741
-10.508439
-11.184928
-6.976965
-12.590642
23.101347
17.262184
-1.151015
-11.188713
-31.411869
-8.906872
28.209752
-68.708365
28.703637
-6.471775
-360.976285
-9.311401
-117.820688
22.255773
-60.900556
-213.570542
-10.881699
-173.559984
-10.624138
-448.815699
-2.667625
-12.957224
2.346552
4.327338
17.790176
-8.404931
64.558552
21.550282
39.793273
43.905352
41.618527
40.429867
56.330824
56.627038
56.801571
56.907103
13.676434
-121.747757
-45.270364
-58.008898
-18.005948
20.460521
-167.568184
39.559997
26.187150
-87.901767
5.968152
4.758729
21.101954
-7.637780
-146.801179
-150.513063
-20.045030
-240.500807
-10.985773
-10.443975
19.634770
22.210254
15.450926
55.141738
38.289939
14.119543
41.535880
39.164477
37.786056
-7.573673
-10.468180
23.561459
-129.898012
-178.770424
21.153137
-38.581867
59.063169
-5.920938
-228.643529
14.217824
13.034880
23.759175
-83.045285
56.314607
29.910437
27.610247
19.277577
54.472392
25.056072
11.361299
45.103580
-1.965782
39.802598
-432.548229
25.634760
39.149135
80.348407
83.326868
57.186743
58.870865
61.596700
94.193467
52.746598
51.268922
50.488904
24.654834
40.957433
40.634969
40.292911
39.928196
39.541905
75.497648
59.887083
57.147443
16.670111
36.220241
29.784288
27.552685
51.060394
33.117660
22.810686
31.258015
43.027766
54.963211
26.098153
24.540095
23.204793
22.469478
21.779274
42.380286
21.127523
20.515266
19.664596
18.133847
70.988758
59.020522
20.349712
-1.405696
3.314998
66.652680
-133.327446
-126.234422
21.108113
1.417773
20.465699
39.807434
89.008278
57.186873
64.315232
21.637303
0.004843
89.110588
-200.009669
20.955524
21.414962
-6.791864
56.547534
40.283452
43.327495
43.636887
48.723146
89.988291
22.428302
-213.569472
19.063394
88.646948
79.150227
49.115881
41.520422
17.747512
49.458492
-194.231577
45.253121
89.367260
90.003847
13.961329
-161.907504
-5.065472
7.500141
28.207448
53.464054
52.719064
49.753215
91.670888
18.023626
11.142239
-9.794401
-244.752895
-257.167949
-213.569698
-212.251672
-130.851084
-112.387622
-6.582437
-255.665014
9.594068
88.240366
50.002038
55.751402
80.689695
52.638556
50.615395
75.828258
73.805451
71.635326
69.314758
67.336555
-271.808940
15.602943
17.496137
30.795295
65.028517
25.826641
27.604527
26.313066
-76.135118
54.108272
85.922619
52.775163
30.825458
88.657493
86.951546
76.673293
47.643467
61.555301
92.598330
93.029752
25.376323
23.577716
21.743936
92.496714
94.064680
-9.517486
44.749468
53.476128
23.982977
-1.655768
-0.654772
2.362249
-78.528947
25.593533
-0.775767
-7.225624
47.760322
2.556124
20.129357
55.148719
89.003076
55.446483
-2.232672
-314.987618
14.647304
63.898451
94.903573
29.259833
-8.398269
15.290306
13.708614
13.846641
-7.220314
41.417679
-18.348431
56.486651
10.540521
91.939821
60.918837
23.821132
27.634462
14.794484
37.114379
7.508386
8.969997
56.242151
28.526794
50.489047
84.128038
64.032009
87.590184
-189.277821
-274.063482
-108.630650
51.236669
58.387842
86.951851
35.019425
56.345062
64.986049
57.210064
-355.761006
50.827329
-321.233473
13.321187
-95.184712
63.957274
94.466394
-291.681407
-296.277874
-270.323722
6.853371
18.579019
20.214025
-121.112979
35.905389
91.735861
-2.120562
45.567884
-12.794236
-163.403024
-181.314613
55.092592
54.314909
52.253724
54.426352
55.423750
46.918705
92.688824
93.117760
-243.542314
-438.872438
-2.814358
2.834621
1.890303
1.322635
22.222333
41.798999
-13.103243
41.255378
13.622512
40.930306
40.632192
39.716103
33.593621
25.449215
22.317087
20.691748
47.797009
47.495127
43.413379
42.049618
43.617962
20.579872
39.127014
12.991692
38.688772
60.122233
56.257848
25.120857
25.014117
23.856111
15.633648
22.468970
13.956430
12.831032
9.384962
18.767557
46.896605
53.085048
22.511014
45.161174
53.253120
50.232645
26.704257
18.507670
27.134246
-5.262629
11.687313
42.432336
-27.630393
-5.832038
-3.317893
-4.090104
46.711782
16.729241
16.067690
-185.937537
34.106621
78.093797
21.651103
-0.169363
1.241383
-8.859358
22.045827
25.408143
-211.910860
-197.107676
-10.556519
10.103613
48.568582
26.403278
9.738813
8.045761
80.089151
55.894524
55.935611
34.099955
2.928211
8.999923
33.497465
22.072025
3.907860
4.373756
33.359549
6.969849
-1.113013
-49.868642
70.260514
45.302166
68.671924
21.643133
-110.217657
-143.276227
-0.529525
-41.142874
32.547963
73.369924
41.539993
73.744024
74.025207
20.101518
38.224464
30.142865
-5.960436
38.052348
37.385220
56.396404
25.641276
-71.266026
-83.110283
17.826201
-12.958926
21.204344
48.882737
20.984054
32.298399
30.584177
61.218343
38.329501
-6.842630
4.499321
-102.888448
28.182085
-220.614740
-11.565390
22.294104
0.418714
-88.445528
0.118513
31.494424
14.060941
-41.157390
28.036572
36.121016
35.956310
58.860924
17.954221
51.116134
-134.270831
37.222646
40.818292
-1.484417
12.319100
28.090821
30.156534
32.222302
34.288265
-21.458671
72.903610
43.534442
41.271862
40.135429
40.249924
39.236188
5.390586
37.735529
55.083607
54.571919
55.875335
26.558091
56.071466
56.395440
27.905812
26.099768
55.511381
8.898414
16.843065
30.606760
8.047417
16.155794
4.483431
26.292724
28.023249
53.434091
22.659274
-21.492241
2.648107
-137.450592
-25.244059
-69.746901
-16.315848
-14.527218
-132.688057
-7.809595
1.634923
-17.846984
-11.334057
54.528050
54.288820
-2.239255
24.750827
55.660633
56.832594
61.120679
-124.817206
40.774630
21.718862
51.662572
20.718140
20.749943
19.676121
-10.217381
58.036080
19.314670
10.347556
58.817850
59.530733
60.173051
60.743308
40.248126
6.142832
-8.584558
10.273120
11.018760
-7.087572
17.672484
53.548672
-87.215233
32.413572
32.847770
57.323719
6.581561
38.136255
16.803961
5.903334
-18.244965
-66.807359
53.798249
26.120972
-10.628559
1.691066
2.135910
-8.296176
29.367272
34.892649
51.936047
4.106244
34.014123
32.846356
16.491620
-9.624643
17.431123
33.272791
-9.169615
16.299539
2.418615
53.355525
-11.541866
19.990020
-2.627206
7.927626
-45.152123
34.371275
32.743229
32.171753
67.077815
43.713854
18.730665
70.801588
37.131754
33.113255
-92.092150
9.406150
27.148741
26.547746
-10.802862
14.485903
16.927276
47.302920
41.552858
25.885423
27.275267
4.458073
-173.560192
-331.519886
38.999364
78.763067
-3.705550
-2.878191
-13.608677
0.410825
44.452928
49.702776
52.660230
55.259260
44.926515
43.609653
73.667911
39.184803
36.244585
43.615809
42.047291
47.842865
10.073667
71.698053
72.345963
38.606792
9.704015
2.162007
37.215340
28.449583
26.007461
23.465603
32.114984
31.442788
1.144299
12.558886
-26.579143
-65.709024
-23.652896
54.734081
55.691879
25.928622
24.735905
-79.770990
-101.768027
10.543438
-17.654876
41.977250
20.832438
-29.560430
21.503140
47.101753
70.387784
58.248997
19.601889
22.678859
-3.230918
22.143867
33.174455
58.486786
89.963772
0.517835
32.088619
64.189944
71.207885
77.064462
58.520766
51.778508
18.559255
23.960218
22.653456
22.921502
31.262004
79.643492
11.362324
-13.554702
18.066880
71.731138
47.075074
59.191026
91.131438
14.091745
30.448362
81.474434
63.686609
80.785441
60.845050
-7.235037
-15.341910
55.842822
47.302414
38.039723
82.968678
18.502619
51.531504
-256.842183
27.511456
21.400455
-145.171015
84.854617
83.367045
50.062283
81.563642
80.537576
47.317517
43.444552
41.286363
70.619860
37.223360
15.228882
-10.834158
29.474880
26.635761
52.957900
50.431307
53.596102
15.797002
-5.917337
14.699325
51.425111
24.658302
-10.445778
17.621457
34.935901
57.711038
25.784155
52.329900
69.715022
6.651643
92.079228
61.795999
93.348704
62.201428
93.751725
44.737678
46.286125
26.895485
13.323655
1.547570
46.567237
51.399337
24.911073
52.966659
2.570058
19.638122
20.809775
-11.274162
12.964154
51.422147
78.888096
65.476255
63.117082
94.287946
12.672580
39.995329
14.721357
4.512264
6.414422
7.181698
44.815253
1.838069
94.665744
64.154260
87.186588
1.504256
12.857221
-10.409810
-12.907344
82.085622
41.333296
92.097574
67.529790
-213.377567
33.401887
51.300067
52.272494
19.039856
36.108281
94.876197
95.071269
87.328613
52.321730
-48.052556
33.950290
45.190289
58.980485
22.353032
49.433080
68.528978
-182.471757
89.255363
57.711269
36.425203
83.904332
33.648419
55.987779
56.577880
-27.415209
64.366012
39.398724
64.044359
45.529169
28.160672
-51.054835
61.619388
76.057373
53.219943
23.506642
23.589601
23.232171
33.036295
37.873775
56.060149
62.676828
37.316917
-66.616243
-78.680023
76.919596
79.706823
-203.437927
-387.002415
0.244962
40.728826
43.357734
42.319946
70.896632
37.897397
37.109499
-18.265750
46.806717
36.669545
38.243057
11.586119
26.494977
15.110054
60.906759
1.552164
32.542379
27.664809
-123.744257
-189.915480
51.292112
-218.786794
-39.363272
23.055587
-0.550983
10.934577
-114.165006
21.918006
26.995660
48.305286
17.402362
-82.644070
-9.023963
40.665492
61.240182
61.886672
61.662531
62.009392
16.467873
-19.590583
48.290106
27.298005
-124.481094
58.854975
17.221862
6.883900
-246.076755
15.483953
-216.967362
17.132388
10.300823
10.448303
15.665146
39.123175
53.918076
51.974450
21.914373
51.754431
49.994704
-10.342589
28.335268
15.596782
16.988224
37.599188
60.649725
48.266993
20.284115
4.906969
-7.326834
-192.211644
13.998941
-5.588842
18.401845
-7.415804
25.370794
-207.972846
37.074522
44.672717
61.097467
61.563405
-46.027054
62.958646
27.226684
26.540971
-2.704597
44.759610
-4.230231
-80.646522
36.042735
35.886342
35.652169
34.952666
34.488851
65.183948
32.884438
46.045231
20.443894
20.576067
20.688229
20.775783
22.314090
20.842332
23.888085
45.548413
-51.398213
46.281359
-299.247516
59.386502
28.568994
14.212385
15.158297
-9.919962
38.999383
19.448837
-16.647576
-188.821713
18.198411
24.650508
-424.864577
48.168541
42.460202
41.491492
40.958916
39.802472
48.151477
38.875517
13.866957
57.187280
25.611317
56.480731
43.636171
43.326660
42.573750
39.737723
38.136897
24.468470
27.563681
57.489650
27.084720
-2.762468
-1.925584
45.079409
-94.619783
-104.425429
-44.732406
57.673650
32.113780
-72.848632
-134.912203
-23.028116
-97.754326
-22.046218
27.906188
-96.757503
-9.385750
48.714452
46.851141
55.819662
58.613335
23.903770
6.479825
28.900726
69.188518
-152.541589
-287.735491
42.312602
58.978147
66.691491
62.563043
22.979771
-281.463379
25.985766
27.521458
25.501100
41.364969
49.115297
-384.277337
-399.591936
-387.000643
-290.746407
1.241590
-0.529410
-3.303420
-0.432758
-1.513706
-2.074373
-15.644347
51.603897
49.738157
49.591443
42.276434
10.597607
37.076025
11.849763
42.433662
42.828932
43.137154
41.886076
36.244787
67.656991
34.292668
33.836788
31.710212
29.322446
55.815774
73.415588
8.493270
-12.651437
-18.505836
35.768699
10.498147
56.759960
26.823476
27.091306
26.825786
14.031925
22.533087
-3.657760
12.925525
35.694718
33.954761
-129.897750
-128.170429
61.293638
32.224721
25.168075
51.995325
52.634483
30.303862
-0.035977
48.956538
35.587666
57.627221
30.156538
18.110606
31.160807
63.454306
29.980277
-210.950332
48.266577
40.002627
-12.018159
48.625875
49.581433
50.879906
52.339576
-57.911712
33.826413
19.233066
77.569998
77.876430
47.915003
14.324943
13.136511
11.922125
40.552887
-76.147372
-167.758119
9.534511
16.148972
15.398550
26.876703
45.012503
68.571154
0.718755
5.268124
4.225985
17.202635
52.368687
7.320515
-6.257935
12.819310
53.776123
-54.703199
37.631107
47.712769
24.528400
48.704288
46.506785
16.475328
26.727052
-7.990859
45.013929
43.831193
16.002545
58.953512
-70.999952
25.839687
58.547167
66.457800
27.375795
14.849984
22.370889
23.858725
25.301579
22.350670
52.344908
26.300106
25.756245
57.146059
44.374307
24.488347
24.323350
69.295940
36.721274
60.442095
42.163740
59.245449
59.680696
28.910778
-256.058679
14.261304
-7.972630
4.621851
64.925283
34.074566
60.942399
32.290586
32.330969
-200.009602
54.900419
25.455659
25.085739
41.459728
69.226448
-13.994553
63.254138
63.204094
62.588563
62.803722
59.212083
57.977594
56.789602
53.774975
50.988396
52.934820
41.952113
26.696921
39.746927
35.133996
33.958029
20.820065
34.087244
33.383323
2.882346
26.887390
32.206998
24.651955
-13.907600
19.444413
15.736342
27.290866
35.077477
14.228865
59.192278
23.971653
58.741009
23.043374
-4.368031
66.806932
-101.767153
-46.849572
11.474253
0.423368
25.798773
31.973783
-130.329275
21.636640
17.519944
13.092779
-124.702100
21.596448
2.095331
30.848960
-5.008314
31.590876
62.590071
-28.144440
16.814737
33.216085
-160.884825
-5.679037
62.553932
32.979304
42.527497
64.050574
-46.027214
-10.441633
23.901933
10.977743
8.843458
9.328509
23.191931
23.220905
22.471025
21.696653
51.249065
20.871118
48.956268
15.864536
-11.920261
44.582854
22.270676
83.896212
-316.901118
29.027586
38.792667
-10.484282
47.480151
21.848103
57.346425
28.455959
10.550270
0.004074
-1.143094
30.546798
-6.911046
41.916647
41.696584
48.836782
17.108503
42.898023
18.407643
40.543402
-267.882578
29.391489
6.219149
66.780226
68.658442
31.126837
-10.760778
25.759237
50.368433
30.341624
78.596006
39.784297
63.009421
-211.705722
31.445617
0.493536
30.717257
-21.447075
-0.459024
-19.835003
-18.180594
-16.478905
14.686994
-4.785628
-1.356730
74.838730
44.091169
72.371314
40.672079
38.550717
40.734145
67.656793
66.100086
63.037129
73.397884
60.059198
57.494816
53.637968
55.072831
52.338455
16.817318
55.157802
40.458715
11.478043
10.322876
17.990819
34.878223
41.385231
40.592941
73.788885
32.058599
30.842254
61.797604
29.563576
28.225762
26.832254
25.386742
55.869691
23.893171
22.355751
20.778960
50.854087
17.822616
19.033438
16.412158
13.723079
12.445975
42.278076
11.219758
41.540165
10.038326
50.744582
50.602407
18.696872
7.812062
50.432080
6.513778
32.866935
72.462749
47.074608
71.987787
27.118558
26.986295
32.810539
33.602704
3.578807
-4.352003
25.408189
24.899900
23.552100
2.082951
30.397897
71.871094
40.504044
72.055226
68.572121
-104.500365
-115.224543
-129.347981
10.758589
8.774995
29.272082
28.004745
78.618937
18.625933
26.734800
46.158803
44.529021
44.926063
1.660396
17.530085
27.962552
26.665927
-0.109781
53.207877
53.713895
54.150615
54.229349
19.056405
24.112507
42.886054
42.393141
69.352905
30.467473
40.089667
69.451713
40.725686
67.584969
11.433565
2.700951
46.152226
42.460125
41.599526
74.809884
62.628885
65.774368
22.438758
63.533280
63.454284
63.296474
63.060201
64.133246
62.745986
19.538169
3.362522
-18.962413
-28.303686
48.156212
-223.322193
17.509002
41.995027
74.258082
18.246811
37.264324
63.933652
-8.940176
73.105467
40.234056
35.493738
62.066572
38.792580
37.278311
37.077323
35.694748
34.045696
64.967776
60.188528
59.837490
55.675739
27.158345
53.355828
55.229723
-5.505696
21.792249
18.340889
32.335273
51.003237
22.750234
62.331419
48.330127
49.655887
63.056247
-267.464438
63.766201
4.117213
16.603043
-10.625240
49.964239
50.469048
75.283716
75.894495
-1.394213
18.734042
39.314072
15.703348
55.368879
63.203086
64.474562
65.767948
25.081087
45.272944
76.217162
77.056720
77.800897
64.968646
32.289898
67.197138
66.638391
9.186089
8.336607
8.708028
4.961228
44.862753
45.867233
42.347053
60.743335
30.448299
79.449226
67.077820
37.308306
10.392661
40.794240
40.733668
37.556493
35.912407
65.784300
32.387325
65.183934
11.923111
59.097317
8.765698
25.143385
66.524326
-6.784471
42.422694
49.486911
37.542248
37.145697
45.664155
27.575703
24.859526
14.177841
13.827892
11.730125
48.956325
50.204411
47.680891
78.064288
57.387284
16.540317
22.318137
44.466952
81.313900
64.923645
32.057877
33.592993
82.391834
66.059123
41.163104
39.718447
13.724593
-172.758992
57.521812
25.278492
57.616435
50.348667
13.783288
13.023978
38.564508
68.923232
43.933340
13.914874
57.674730
25.451004
57.692251
25.491459
30.233332
5.106034
60.173111
61.343533
77.570106
78.998237
45.561802
76.978941
76.291822
78.092993
46.796526
64.766489
33.209091
29.528884
51.898816
40.374409
38.758475
37.542626
70.348102
72.133109
68.531206
39.417351
13.375328
56.090550
20.934968
36.253254
34.893313
33.466015
44.296606
-3.894891
50.743995
29.529255
77.056884
28.572496
14.485604
-13.053309
64.831236
71.075623
77.784346
69.589150
60.036325
60.545851
62.404453
64.688256
30.106825
45.810624
15.689088
55.128630
25.995697
38.371587
22.968788
23.531963
40.915273
73.826483
31.959920
38.758207
15.541161
25.834574
28.106957
32.531652
30.750771
68.231929
68.777244
67.155588
41.599688
68.013382
23.890814
77.512249
44.413057
-57.662432
-357.415164
-443.850525
-450.467892
-450.798146
-449.807142
-447.492822
-435.879079
-428.876861
-420.507368
-410.752735
-372.951067
-349.072631
-321.718947
-255.988595
-230.620688
-203.423725
-174.331052
-57.594981
-1.363492
-0.269395
0.094683
-2.465536
-0.747549
0.638302
3.115390
1.945090
-2.090744
3.699267
-0.760443
-2.866751
2.935453
0.817326
1.993324
0.460161
0.522789
-0.792948
2.912149
0.549998
-1.300111
-1.472145
1.159819
0.231930
0.446608
-5.824235
-10.229912
-2.010426
2.183179
5.791565
81.736134
79.868187
45.706283
43.087244
42.527484
41.938968
69.829839
32.884264
31.520436
30.183946
58.612866
57.200002
27.603150
56.071847
54.883502
72.643522
44.993193
13.790891
38.921593
32.405783
25.430702
-5.834783
9.797239
6.769647
5.768776
49.997182
4.809886
49.725841
17.713727
-39.276520
-39.395627
15.771222
13.822037
12.271739
51.500994
3.889088
6.881882
30.109519
26.995814
27.824953
26.413763
26.141211
27.156379
54.289109
25.886002
54.066703
47.490994
71.506526
71.207005
70.471091
44.203706
69.523903
68.959385
67.623504
-59.457283
-10.783548
-0.331983
-1.095533
26.907355
57.171972
28.025127
27.089107
27.422821
57.391739
27.490417
57.462584
27.423999
35.429926
49.457999
57.974065
31.305601
-30.894847
30.519631
27.689154
29.707232
-26.482311
26.410193
28.876027
59.441900
60.201775
25.909675
4.408221
-23.640160
71.429698
71.728303
71.960862
72.130699
72.233163
39.396778
74.039080
42.852198
75.759933
75.760877
77.392608
78.934318
81.455979
48.516154
73.959264
42.768124
48.167901
80.696397
47.762501
44.803929
81.785887
49.897350
82.776175
-109.458670
-107.086669
-92.917478
-71.265163
-44.423995
-41.866196
-36.387400
-47.083536
-38.621966
83.665821
51.662663
19.175810
45.213907
46.641846
-42.551699
-40.118165
31.802353
84.453573
85.138359
53.046920
18.322027
10.039621
85.719272
53.593368
45.551244
47.797144
53.363369
86.195561
86.999797
85.328874
85.645202
85.856324
85.961965
50.768162
44.003328
54.810226
55.030960
54.804206
-52.040433
-61.975357
-72.375251
-83.268037
-106.654523
-119.187314
-138.687948
-79.184609
21.717828
-0.000484
17.170887
83.735849
3.055056
19.446575
0.688047
6.869640
12.441445
38.831176
23.762298
10.772745
7.919985
6.568877
-250.404370
-61.761338
17.432108
39.379896
39.901910
38.072564
-187.539264
21.075948
50.936444
35.229974
4.838513
-298.176189
81.563020
17.257048
80.402525
21.717530
-27.243995
-47.921090
38.853392
6.487885
6.098711
5.274950
4.111341
3.698161
-51.648011
-7.738744
-24.759557
24.877786
15.237483
22.072146
49.005446
47.545239
50.603893
50.749847
79.030661
11.274135
65.011396
6.301264
48.673058
45.150420
43.978372
45.002538
42.046789
41.131036
33.374985
82.319218
53.047173
17.269113
-291.681716
-12.449503
49.311689
77.427303
47.743800
75.762711
9.755717
37.632009
5.088326
39.923825
11.067445
38.694382
37.446436
48.814809
83.022368
53.777874
-8.983253
46.127926
21.548752
25.764856
8.339346
-22.763184
-41.516620
25.182840
6.543138
37.069224
7.033438
34.005121
62.062330
-7.778188
4.223435
25.577661
1.750750
35.803362
77.338339
48.361730
21.361381
42.395523
20.954866
41.565239
20.746719
20.541943
40.787364
28.601668
21.718710
-205.838870
25.148103
56.317506
25.043569
24.946445
23.238266
83.666253
82.189283
85.092303
53.697520
50.204936
14.490231
51.778202
55.422883
11.869089
-48.160136
-40.719610
40.553795
20.759188
78.912848
24.785181
-336.829174
31.151925
64.485538
33.766736
36.007360
0.802721
56.387928
82.181352
50.257167
4.704283
59.530813
54.999406
47.206106
46.012782
30.104708
29.881494
8.293892
29.598016
15.047690
16.691431
16.244321
14.373955
25.617659
26.915748
82.776673
5.038593
-20.539870
48.710753
78.093389
32.954761
66.086769
18.580205
83.631894
48.054885
47.782863
38.531535
7.512105
35.311928
7.902285
37.352194
26.164511
26.074325
-23.018321
57.191923
70.460145
25.489045
0.912874
65.658185
37.731623
77.463675
57.915220
14.942878
-143.282528
6.311354
9.422994
53.795024
81.456836
75.968293
60.651405
50.630346
24.654882
25.293502
9.612136
4.413782
2.582141
25.650054
65.025014
15.227144
-5.114811
23.158414
19.669277
53.676001
-51.560541
-70.658520
55.772154
27.289065
26.817790
36.922190
26.399089
24.342766
39.064741
-23.471460
7.812677
1.877873
29.785913
8.220865
-3.570285
4.476537
46.203573
-21.518640
80.382575
81.735170
44.318335
-135.770554
-151.138593
-150.217153
-103.347394
-118.008345
-148.377942
-116.747033
-145.628454
-99.442717
-62.964065
-29.193161
-1.903147
-6.744025
9.638488
85.832216
86.453100
20.210889
-220.015990
-193.387398
-185.308479
86.566626
85.961989
8.828963
53.448278
33.261824
25.008254
55.250326
55.248868
26.508253
48.147449
-10.928559
-238.355512
52.209494
82.698417
49.073164
29.621864
-4.896255
82.181566
17.971639
15.523833
-12.791773
57.550762
-12.460140
32.743317
52.821322
50.821785
52.219384
29.627399
55.024270
30.118310
48.488557
47.471252
18.112358
46.285355
13.378579
49.220093
-8.159711
-7.621265
14.177032
16.031062
15.747179
-10.930679
15.260448
50.815901
-6.641918
10.213697
40.431821
74.068408
30.250267
31.066043
4.681248
14.102837
-6.014029
-69.407985
33.860354
15.268378
29.179462
27.224301
75.226798
75.707523
31.911934
4.705410
24.487836
54.273214
-20.363015
28.995924
-12.751955
-11.478038
18.622376
52.071424
-0.337907
-8.355657
31.061886
54.825874
77.823854
57.792301
57.018532
54.535235
34.954720
45.666328
8.473658
-13.103207
-7.922476
21.157899
38.081119
-70.345072
88.388286
54.747123
64.688217
56.024484
17.147105
26.182246
45.480397
20.725301
82.656926
78.755883
84.145793
56.591706
0.045817
2.192128
-2.290894
31.834868
22.057834
-0.667247
-5.551189
-1.217531
47.334234
-39.003231
13.033536
45.765249
51.256623
55.294999
28.274182
59.066911
31.308524
62.548719
64.176584
65.720960
69.867343
40.794421
72.994706
41.803385
74.124376
43.580742
77.925201
78.715104
81.273182
51.236111
82.802833
81.885634
54.146282
85.572739
87.958412
87.078871
89.008343
88.141209
89.963830
59.822493
90.825561
89.988442
61.450877
92.270557
91.471840
92.855183
62.714284
93.348730
93.751745
63.614782
94.064696
93.631960
63.898375
95.071241
64.020270
63.876433
94.940151
63.601347
63.204045
94.239635
62.689497
94.135312
93.926667
94.451060
93.613746
93.196627
93.832854
92.675419
92.802734
91.321418
59.870528
89.493796
58.833086
88.379866
87.163907
36.804707
23.452436
92.989814
61.889392
92.125620
93.112770
91.030663
59.940439
89.688695
88.095191
86.237846
53.027495
81.690775
81.602106
29.446085
44.993228
30.790640
5.199878
12.085886
43.251487
62.588485
11.581847
42.676985
11.049791
63.979793
62.836969
60.576892
62.234774
58.211474
55.740171
53.166252
62.542501
36.348825
44.827605
47.165408
41.852527
35.609094
32.346525
56.504856
53.994150
25.539774
51.418470
23.191866
33.510594
19.851737
48.786652
34.455405
16.436957
45.700733
23.332284
1.283776
1.727215
0.905670
35.337602
16.778672
46.108949
25.265079
12.940337
-57.454211
-54.502367
-53.257076
-51.887598
-40.118532
-21.734269
9.903043
-0.340520
24.540747
25.818130
26.309619
36.162154
43.397116
40.022711
26.738243
-13.593833
-67.457474
27.102879
41.835298
11.677725
39.269071
8.346310
-0.644703
42.188969
7.986030
38.483894
16.730010
-1.838895
7.298597
40.954264
56.928289
60.946566
0.688305
6.589385
36.819468
39.693944
-4.155664
-3.225072
23.011926
38.413131
38.506931
36.685108
39.740538
5.833213
-4.801928
37.109232
43.129551
4.907553
41.104396
-4.547900
21.788326
-6.343047
11.503872
15.652442
34.462418
89.356611
4.824201
-103.664426
-100.034517
-89.477190
-78.736138
-79.753070
-75.355370
33.212412
33.126915
35.993718
20.757107
3.906616
-6.922448
-6.507721
-7.257097
60.682183
-62.944435
24.725496
91.226580
30.995365
20.294914
29.238376
31.552475
-7.479696
-7.917599
88.697673
25.800532
27.159913
8.928695
30.178220
43.762430
1.313242
32.512199
34.027524
32.829796
-8.015186
26.274086
92.203351
85.691639
73.865046
41.133382
39.738015
38.247210
36.082001
70.127352
37.695586
38.110650
38.470381
83.252736
-64.012325
-77.114520
-120.423032
-119.847314
-119.042138
25.376123
-8.533284
59.220718
87.958340
34.839944
-41.444273
14.160159
36.743784
-8.588542
27.456154
15.190601
24.785380
-190.052222
20.794162
21.289238
21.497567
-7.166029
22.746199
-7.586451
22.530091
-6.164746
23.367672
24.769956
23.732574
23.600811
-5.922392
23.058485
26.190781
-6.370332
21.961284
21.400265
26.121806
33.853688
24.466580
-8.661432
20.641728
-7.100596
-7.994644
-32.280481
24.814049
88.141008
86.813319
59.385157
18.385315
14.509414
23.551262
22.321520
23.304811
22.696955
-6.528838
21.438840
-200.799087
46.818448
31.568004
-24.115905
85.856395
86.991419
20.036760
72.253056
84.694447
-6.821507
7.611404
5.172875
-8.396722
22.613561
26.230965
1.991804
23.042208
29.687750
33.332926
36.779022
64.535685
68.149643
46.541036
48.277825
77.464330
74.196741
47.222491
21.687816
14.808900
85.645320
22.425821
3.145127
55.177788
27.117374
55.173887
26.888721
54.804338
54.798696
54.510527
26.358210
53.708882
53.203257
53.368492
51.990466
23.757239
51.288047
49.703859
48.828111
47.901822
46.929000
45.382918
44.379054
15.851522
43.281653
42.151761
40.993949
41.717276
38.612748
10.050175
37.397637
38.174401
36.171353
7.622308
34.937764
33.700818
75.949510
86.056750
32.464588
21.818124
-1.373446
-1.448295
-7.706773
20.443305
32.515990
1.075899
-0.438524
59.086945
29.231360
58.618390
50.604185
77.813640
15.049289
-6.592312
-5.853810
18.189094
-9.436568
19.940015
85.329040
86.566777
84.036769
24.159462
21.955254
20.983888
21.430679
86.523219
86.949799
88.050742
60.083268
88.692555
60.339361
56.692386
39.149676
49.289406
32.029503
3.141011
29.622851
28.415513
54.824950
87.327587
18.800449
-1.292031
-2.190900
-8.325655
19.305634
20.017578
-6.419582
2.591932
-6.492292
15.807424
38.611420
58.435043
56.818703
53.231828
23.591059
22.671009
53.726433
52.155094
18.581352
48.785284
23.210047
87.425808
19.064535
18.014958
-17.935586
32.956206
8.418023
61.308258
76.918017
49.584067
87.401484
31.592067
-192.135475
-220.242149
-217.766280
19.518115
20.530758
-10.076913
85.030775
25.839918
12.049185
83.582714
53.398513
21.561219
-6.313795
-1.135776
24.102916
-247.516573
-252.172396
-226.592490
-222.096883
-200.967218
-191.212666
-154.466769
-146.800705
18.297321
18.154657
-1.330511
19.320264
18.260816
-9.501879
16.974134
31.152465
-6.265157
57.588906
88.210804
87.000041
50.924240
-1.518054
58.839259
-6.554925
54.040343
78.584385
55.085400
91.171984
40.967123
16.797847
16.434554
16.059363
85.485636
51.881329
51.011548
50.064803
51.667361
49.038986
74.795919
44.428169
42.471023
70.176373
40.375809
39.385667
65.980426
17.805058
-10.692688
2.649175
3.008664
-11.240029
16.348372
14.705024
-7.728279
4.325351
28.549103
-5.310504
20.771774
15.444631
16.003468
-10.555770
-10.128455
17.107525
16.677181
16.252114
15.500728
16.279646
15.917683
16.201839
18.381844
55.173521
24.528888
-8.241521
83.366226
58.394523
38.312564
-3.682720
-4.445397
-2.787504
17.374722
23.522864
56.052674
24.044873
25.358455
27.303639
15.846142
14.760481
-11.609336
55.423276
85.572651
55.278937
53.999869
-10.876377
17.519650
-11.227039
-11.634788
3.411971
83.189370
29.138306
59.431766
44.635109
42.394231
43.734664
34.020746
20.191941
29.409715
0.393573
87.375043
54.857349
14.848874
93.138925
61.867661
92.419259
61.613865
61.043120
51.922264
3.986159
85.568623
58.504382
91.471730
62.105600
62.570258
62.735435
92.125715
62.949746
44.498798
75.878383
26.029276
28.686971
-0.914037
63.521458
63.783024
63.929583
-288.683102
-8.242653
-6.535218
52.010385
51.229715
50.394106
49.505944
48.567761
20.749758
47.379981
19.760264
50.507719
21.903620
19.430455
16.333172
10.963363
14.843050
16.662100
21.545272
47.662209
23.071674
44.401034
24.563074
-8.161926
-4.233957
87.250864
53.531016
52.112130
83.110067
50.602372
80.176243
93.276057
46.043020
47.461390
44.595677
1.934176
92.049964
60.379737
91.703818
30.504757
3.137435
58.646130
87.730503
17.873907
-2.300357
16.352330
0.850381
27.538515
-9.724807
-2.832784
27.537979
13.711760
14.983462
14.092132
16.447437
16.032288
15.682307
16.348538
-12.468543
15.580088
-12.882073
52.073319
-7.237735
-7.802488
20.040330
-5.970172
21.986623
-2.635042
41.973646
23.572678
-32.748438
40.787674
50.368636
70.959144
10.894077
49.003693
78.446244
82.282703
-18.858289
15.164851
28.207160
87.303811
26.458773
53.726419
25.343597
53.121005
51.644388
82.776481
-113.547915
26.012172
55.840500
-319.936241
90.412599
49.891675
14.735195
15.484693
-12.614760
75.968441
8.440564
8.875340
49.879172
-1.730516
25.712529
94.332545
64.175330
56.592795
-4.126666
92.802483
31.895919
32.520795
31.248878
-7.977952
-12.826700
-8.109119
-11.140744
15.691684
14.405919
15.314596
-7.897591
0.701641
37.802717
15.783604
84.235888
-74.207329
18.491174
-9.364910
-10.397156
16.116506
-11.604015
14.964779
-8.193434
18.004923
-4.894385
16.079756
15.071141
68.935960
37.926023
21.729159
27.089280
29.161547
88.240146
58.170041
60.241484
34.692933
35.874897
29.331983
52.476507
48.173871
72.475720
61.615486
61.596753
19.559911
54.049515
73.950118
72.496121
42.422984
39.369051
-0.715964
19.662184
12.287835
21.808529
21.409052
1.942202
19.936980
5.676044
72.478612
8.933089
10.305762
38.702937
11.710316
15.673978
16.215722
18.313366
15.323618
19.159768
21.830582
21.840773
49.367569
22.655975
25.871646
53.143131
26.952499
27.548097
28.530323
28.612225
28.873679
29.571028
30.724520
28.416568
31.312027
30.824207
57.401197
30.440939
30.130104
30.185971
29.388666
28.031239
0.923038
41.932025
27.246078
0.333235
91.382567
91.061500
90.037653
27.435817
55.034315
-9.896307
13.072990
14.377111
-12.677194
14.310489
-11.779429
15.843271
14.712449
-7.882585
14.262598
28.961037
4.945012
26.283223
-1.647788
52.197768
34.359415
10.441574
-3.352038
39.323186
20.399301
26.848624
52.818660
31.226231
61.680639
46.023934
29.661658
56.161499
25.448772
53.768332
53.261499
86.044272
57.863686
93.613590
72.698448
85.719529
82.109359
-2.977795
37.575828
-17.450100
2.135730
-5.784710
6.074896
64.359850
64.267960
94.754675
27.954882
22.679441
-3.735222
22.247094
26.659330
-102.338477
25.230981
87.941432
89.356147
89.091141
5.900156
-1.589801
27.183314
-94.711477
93.337503
89.886559
50.756442
21.914489
30.576876
56.509054
-10.881670
3.263678
-8.647033
13.708787
13.272202
12.341299
-9.825389
31.562755
18.409659
2.069663
83.597382
-4.079809
-4.416482
21.769476
-9.310104
-12.130178
93.925017
32.895594
36.697122
-45.776409
22.120184
45.876154
52.511584
81.273072
13.810139
-12.796358
12.697310
-7.689717
81.562554
51.117007
42.859208
47.447558
81.690860
84.606867
88.240663
59.191246
88.657736
87.304058
51.880419
79.774313
35.475764
22.590751
55.101000
86.453516
12.950752
64.409506
60.195649
87.590376
85.663517
85.663277
-44.105515
43.228128
-12.587485
67.642605
53.378499
85.343739
85.894367
12.007622
56.073910
72.334087
65.011619
68.992662
18.867808
72.880504
53.677567
22.012424
48.906383
-2.319885
11.174742
-12.221466
20.773102
21.559175
94.421795
64.044356
19.239841
82.349855
22.128817
49.934581
-247.315878
-0.050089
59.980737
60.117280
90.140816
10.134026
12.679575
12.139220
-9.206336
11.415803
-10.709211
-11.316098
16.675833
53.098823
-41.161457
28.223040
-2.814328
24.634937
-4.545445
46.200286
-5.182207
-4.818887
19.189584
33.963011
84.108271
25.176800
70.455935
42.665087
57.018875
87.003129
59.309240
82.459495
56.072661
46.027781
-9.394468
-3.722104
-11.744468
50.283771
-12.346312
41.292700
12.133163
-3.413116
93.926557
39.810838
38.251538
36.518810
34.974666
3.593229
62.964834
17.546517
17.957674
62.141141
23.829752
18.249494
16.531716
44.891744
23.472264
60.042815
58.478403
47.663011
92.125824
92.496799
60.885253
64.238547
28.768159
23.011258
84.660255
53.344826
52.050623
79.037177
86.910097
57.695975
85.634865
71.766267
48.623665
4.371409
75.550485
46.641542
78.442516
47.908595
60.518111
62.288755
61.678444
62.757241
62.865927
63.731751
53.593580
60.700342
10.557101
87.186166
87.130150
-0.001076
-174.343153
-137.238593
1.074172
16.072006
56.313828
-12.816708
35.586034
26.106646
6.502601
21.156965
10.516044
-32.205439
-28.970438
-22.914409
9.490251
10.347231
53.675526
18.342698
-0.087445
5.632353
8.746784
-37.837504
-19.598546
-8.853513
-1.942346
-248.757303
13.769215
9.423843
16.251552
11.721239
49.305281
7.509033
23.029284
44.167728
42.312375
22.776600
73.944705
78.998113
11.576357
44.544210
25.778493
-313.975521
17.066352
12.756002
47.662312
25.721600
46.540618
22.824807
-281.464773
-160.633316
-68.598370
29.330350
70.953113
26.201351
-134.995282
-185.895885
11.992148
59.752777
37.574698
-27.020146
15.383860
61.911867
74.713999
-4.404068
77.451310
47.019012
75.781216
25.472004
75.069865
24.219129
74.083461
-18.815888
-120.049734
73.634669
71.021598
45.211842
38.265051
73.142174
44.673362
43.625985
44.002104
-14.648245
44.347224
9.344871
41.925250
40.503730
68.076149
66.486477
37.436687
64.823524
34.094738
44.652249
17.229474
-4.338241
80.412079
69.275426
-17.450106
26.692425
79.800756
15.823651
51.587771
15.213354
55.765642
38.793324
-51.389338
56.239296
78.460636
51.422173
76.652971
80.203309
84.919388
76.117443
47.256833
46.600728
51.519466
40.821431
66.828012
-1.871693
60.827133
64.762054
47.344478
40.752341
-8.583664
-4.043911
43.609173
46.246496
-301.490382
-1.141012
-0.819229
-1.662912
-3.404133
0.220042
-2.921429
0.974462
-0.013382
1.461646
-1.336124
15.123366
58.516319
62.419231
65.433657
60.441864
56.672153
55.083272
51.778178
40.003410
36.577946
16.871069
-23.379083
14.176388
22.960473
58.726442
34.849916
52.423633
19.589717
18.220668
9.211145
-39.395623
40.961207
65.632843
15.318423
-2.730659
60.885089
13.138193
25.543172
68.203675
35.938785
35.031604
40.409662
71.803565
42.421433
34.097252
73.865913
-63.400233
5.904823
6.853167
73.200963
42.370991
7.746846
29.717245
-35.230918
2.178681
-5.201806
-4.564094
-3.691188
-4.152991
-4.166410
-5.984588
-6.432702
0.359848
-7.755591
-4.855665
5.839115
-7.991943
49.361360
-1.568730
-6.330775
-4.445518
14.223475
77.680252
-8.779400
74.917756
78.171406
17.278863
63.533288
17.323811
50.725509
81.203877
-0.509171
17.724538
16.897872
76.931625
-4.281961
25.959828
0.383462
51.645671
-10.762281
-81.974854
84.291762
-67.857022
76.529439
-295.254253
31.520451
24.719823
17.799552
43.827960
22.492762
-7.730297
52.252285
32.818250
58.180942
15.094786
25.113076
-2.509488
-16.582276
-0.922856
29.643932
50.889363
41.963305
-19.396371
-54.654215
-13.737529
85.707641
86.203290
41.620011
14.174343
44.772311
-73.268627
41.566481
52.602354
40.822158
86.692497
30.800211
15.097671
91.506104
-2.660984
-63.649601
44.409787
46.358837
44.760732
18.102472
49.826395
51.783519
50.136237
59.036315
60.689224
62.274346
67.864906
61.555316
62.570269
93.922553
63.244471
94.665711
94.933350
94.838644
94.635635
94.605578
62.767454
62.081851
61.175180
89.688675
84.031878
33.853975
8.148053
63.053834
8.944762
11.318352
7.349365
44.353711
13.724978
-4.028647
-5.389986
39.902460
5.969844
72.276136
46.191912
78.763029
79.867335
50.867954
79.092842
81.255319
52.849306
53.697101
83.022001
54.447920
84.382400
55.654518
84.907753
55.279969
84.402664
55.581702
84.874224
73.586013
46.390640
22.323372
-19.202929
64.494609
7.992953
-133.504550
-7.501819
81.775275
81.314072
51.672361
38.688836
-7.272250
-50.541179
-72.930090
83.111134
52.801006
79.896178
79.290340
62.083919
-4.706600
81.542965
53.080420
80.666247
-46.413112
68.838683
73.947826
27.598540
47.968599
52.286196
54.448281
80.666646
41.931185
3.953731
12.441546
-8.289017
56.086769
32.351385
-24.270373
54.883012
78.468415
-273.116074
-21.072579
25.293526
40.866357
13.240809
-46.996621
-216.602772
40.753881
32.111726
46.121039
-1.284900
35.427628
20.920495
10.769498
5.204590
-28.709808
-64.418171
-10.235219
24.089072
24.390722
-5.429236
55.765279
55.883890
84.664595
-1.464543
-119.575921
26.440620
38.474121
33.342645
83.112802
33.231250
32.786963
-242.402346
-1.980212
52.262539
32.676270
33.308534
65.008363
16.791017
56.867561
16.336710
27.276295
31.005576
60.607533
30.503425
38.136291
69.859669
35.543503
52.196622
59.986269
-89.187256
-8.816390
-93.083564
60.811426
41.207181
-1.552925
-14.516813
-8.052456
87.002662
86.153265
68.383171
63.171179
22.511510
35.052657
61.629336
4.344829
-7.195595
33.963514
7.668480
40.887438
51.869443
53.313059
-170.726402
84.461049
57.611028
55.581817
84.402795
-88.244808
26.291013
54.536188
54.683099
55.972160
-4.258899
-144.724564
24.162161
56.462619
86.195765
57.168384
85.828170
89.327768
90.172410
22.632870
57.284105
-106.006405
60.805153
-10.686893
59.253573
-11.004849
-11.482564
89.863142
62.210359
40.747406
-1.054893
56.012526
83.502995
82.005124
51.920944
50.374081
-279.286521
61.621984
58.034767
88.852381
15.108656
-9.249666
21.006435
59.423438
-345.664202
33.425177
54.896636
15.633435
52.032074
21.205520
-301.391197
-238.972309
37.964525
39.326439
45.448929
49.328081
29.764553
56.180230
60.124632
60.379850
-227.681926
-5.547209
38.502652
0.794026
55.654770
76.623890
49.667234
21.460072
28.572404
56.813412
57.964096
62.865722
55.765636
41.226856
55.173092
13.844055
91.284943
13.673227
56.360648
58.749851
87.747831
90.633779
21.945326
10.494568
-13.553828
30.789985
34.285254
91.360969
78.388886
-14.534757
25.788989
24.646726
65.109689
-1.558766
63.550842
-3.002647
-0.013928
45.815022
21.822268
21.031195
17.586202
-7.056238
50.227168
-7.220841
15.491902
41.434817
8.845843
20.729139
50.736670
27.802901
30.598539
16.826456
24.157156
59.063535
58.809419
13.310995
30.418991
61.208867
55.174554
26.565106
39.296321
1.590626
41.095927
16.143167
15.060893
0.824700
-132.061419
-145.498539
-159.491191
2.593420
-236.380175
72.760429
23.269012
-223.304712
-2.481478
-3.250512
-5.490738
2.731689
21.559172
38.535663
-4.558143
-5.237392
18.431521
-36.926269
35.235364
18.947277
18.750727
-29.358657
-131.769124
35.233777
11.736306
4.267733
83.541365
48.049523
15.113045
-85.883514
-3.670774
-7.965970
17.316700
59.354732
-4.351521
-177.806265
17.107527
-247.117892
65.108143
0.918321
-6.359849
5.947132
20.451305
41.417434
13.809955
1.255358
39.990930
39.276060
68.366747
-75.028122
-34.610352
-29.923943
94.331217
21.772893
-82.440321
-113.475730
-112.220894
47.969914
17.949476
16.921230
45.020578
11.938854
6.400281
-11.036993
28.792407
3.926326
12.960430
31.800256
-92.924786
46.216566
-125.656077
19.405876
43.978698
37.827325
17.819587
-12.236157
-294.316282
55.296904
77.719309
-167.894893
48.963969
-6.709033
-2.860775
30.151945
17.383786
54.039983
-143.878109
-8.052569
-277.317924
40.820166
35.177961
60.731495
-46.638569
24.250374
30.268758
35.866820
40.793164
-10.512515
44.815103
41.526259
19.437124
34.932358
33.097819
38.689612
-1.209674
20.638462
42.390312
82.256389
52.285790
-14.524699
53.646584
-0.304524
-8.114319
61.289492
43.818886
16.833452
-294.941631
29.862361
55.599849
15.814107
8.342714
68.235323
-363.124380
-14.778165
1.519050
-264.774495
42.078748
-58.722591
-249.669402
-3.416723
-328.389112
-285.097507
-387.529975
-11.130016
18.751686
-9.740755
-125.077076
-142.169430
-228.983450
94.754670
15.647115
-1.829255
63.700466
93.539562
63.106241
92.907628
62.710279
91.855474
60.141210
55.157778
37.876071
64.984598
64.139503
64.298962
64.171032
63.152339
62.318354
15.029916
61.302533
61.244284
17.505252
60.117731
9.318705
59.981158
8.666513
59.733288
7.061353
89.091543
59.363907
32.933312
-0.499524
61.124419
-7.284316
-108.597532
-149.185992
-2.395798
-4.230314
-6.278720
19.415848
-10.508313
84.659552
62.313104
90.147601
93.922568
15.121158
-68.578590
16.026612
52.228476
34.429360
67.934204
67.029101
54.256221
13.075255
36.005716
37.625545
-119.875390
18.842112
-33.072597
-4.659731
17.943964
19.951360
89.620442
60.682588
38.243360
1.159116
-14.737907
8.287764
35.335318
49.590392
68.992459
35.258289
3.671443
4.366394
-55.379544
-8.727834
-69.646793
-98.203841
27.228450
77.656989
-217.347662
56.788954
15.933978
-17.840415
15.818485
47.114302
16.218927
-37.886436
32.410183
32.507962
6.883570
29.685986
88.714072
58.582101
0.432471
24.035617
83.203911
14.700335
-6.098533
-11.656588
11.862118
-12.149246
37.588022
-63.921376
42.702388
-12.677947
-310.114448
41.752001
58.269354
60.689443
70.194712
46.430964
49.562079
-3.916996
37.008561
-11.550039
47.425098
45.320589
33.933233
43.803576
35.866846
72.698332
-17.606438
0.222437
-159.531460
25.475193
-197.643527
-234.968591
12.332234
-7.157243
17.787677
-241.699076
-234.722825
-176.067189
-95.578629
-11.717770
-11.390049
15.083741
17.322483
49.079762
85.020853
-317.533699
-189.285435
-202.224209
-130.975998
-9.810266
-178.761758
21.418786
-12.490949
-338.022455
-21.292666
-16.879708
-12.272874
-159.491560
-151.094504
-182.903299
-1.493299
18.007303
23.995523
43.677599
44.604150
45.443779
47.222076
48.913756
50.517365
54.790494
89.110763
60.894151
60.682430
90.775167
62.128074
62.453578
81.734963
65.047768
-48.617789
-37.886561
-37.040535
-34.906670
-42.484282
52.146385
11.694114
-95.495126
47.110987
22.892486
27.287729
2.273092
50.704145
31.123328
5.364143
43.127963
-30.638271
-0.667845
25.618252
26.239999
25.472576
33.468783
-36.248884
51.081632
39.329163
33.850347
-0.784774
-227.201121
-234.094237
-204.525860
18.300921
33.298069
66.844494
20.564943
7.152194
43.289052
-39.298521
42.807476
18.202219
-93.268064
-282.968407
-11.181234
39.040043
8.956091
-4.075959
32.499994
40.431894
25.148548
-38.319063
-8.925186
3.025788
-8.312114
-279.884503
86.523746
26.036270
11.186829
24.057765
-289.735768
61.597382
68.514717
63.403205
9.131578
59.238422
30.733060
92.808348
90.665662
65.765600
-82.701844
-243.529256
-0.731077
-0.770097
26.036111
1.403780
-25.768502
25.645996
67.822276
19.903636
1.189484
-138.709261
-37.391324
-187.022938
-9.767969
-290.293401
13.619777
17.823516
45.820065
-325.695114
59.391134
15.822073
-100.819589
45.387884
29.145827
54.571575
0.023456
37.856949
1.165841
8.002326
38.786571
-28.566737
15.137909
-70.580123
7.422895
35.932223
32.500640
6.525429
-69.655599
-72.377525
-67.007557
31.654125
49.422414
-6.199129
-27.961367
-48.795019
-8.011442
51.552722
-6.733709
-6.466993
-5.725965
-7.661950
-4.662511
-3.694065
20.525808
-5.259864
0.378951
22.865171
-6.465478
19.108772
25.593827
18.742773
-14.197187
25.860018
-2.003194
27.246806
-239.475747
-171.496264
-65.836747
-271.926484
-0.377850
-66.514025
16.876387
46.943665
-2.049775
21.317884
53.307465
-64.560292
-9.897093
-0.306344
-12.266933
15.296583
10.987827
3.455691
2.640545
16.675305
-0.967198
-78.797557
18.734313
45.090807
13.421709
-2.344060
18.255282
10.439947
51.525042
-7.021305
49.221842
-299.662364
54.858339
74.895073
-304.493763
56.483611
55.815512
3.986327
22.335389
-126.997585
0.023987
22.269437
39.746684
38.556145
37.409165
6.113100
-90.519301
11.524148
34.515677
67.928376
63.091209
-94.710797
-107.740384
-100.957572
62.638190
-29.366264
-6.104643
15.511315
45.104814
-213.330240
80.078708
21.648508
-227.201170
23.197452
86.343930
55.917207
27.730938
48.660656
20.207020
8.183422
-162.056076
11.214485
16.681393
85.634255
-201.035034
-181.406156
82.134711
50.548791
-27.999173
-268.678635
1.872304
82.994237
-15.943104
-4.855562
-294.316299
55.259237
25.797692
28.095869
16.392640
62.850358
78.756125
92.270520
-78.797748
44.449534
15.213748
51.663000
22.496998
-114.013160
-42.340223
25.779863
21.718642
91.594194
-21.063521
40.431625
25.888207
10.239252
15.425576
25.693344
14.935835
-20.149958
-16.435270
64.289007
55.525169
88.051130
-302.843478
9.180655
37.792227
57.324001
17.433087
86.066543
-28.878559
15.411325
9.797246
-8.048561
44.118677
-10.859095
12.442158
25.718348
29.897149
64.480532
49.197915
52.799967
93.903750
46.767823
13.502306
13.019234
70.444281
12.640878
54.001614
46.387686
-0.836634
24.223308
-142.211944
-2.523459
33.123850
33.800929
-8.331210
62.541478
35.178009
47.172884
17.951337
60.155584
-98.522254
36.906068
59.665601
-91.453349
-74.215889
42.758633
-162.468305
30.906001
-333.632365
26.186510
87.958913
0.562565
70.667482
41.886045
13.241965
86.832104
1.483245
-199.180136
5.029110
15.614891
-189.780740
-321.499582
-300.625915
18.383715
50.065108
-6.621018
-99.442974
25.673860
57.932544
29.661130
44.175772
-3.725543
54.203551
54.548537
21.045713
21.917607
17.525879
-230.283919
-218.786749
-194.231408
19.443149
9.275202
58.709497
-1.293405
-105.529666
1.527764
25.994097
71.976419
70.801580
41.539960
69.732510
41.108634
40.592926
68.671942
8.895004
34.643711
30.566642
0.850327
26.295082
55.019198
-17.091643
-3.467764
6.421809
55.365702
20.486797
20.777467
22.936914
27.824731
-95.576164
-96.189571
17.118307
17.539149
-11.199555
48.172978
-6.822091
50.375604
13.531302
15.664235
15.483407
14.755079
75.486689
-62.939346
-153.490095
11.891304
40.840562
45.561736
7.608933
16.343815
46.020977
-270.325421
-8.411675
52.606962
36.906028
77.176291
53.001233
72.472867
-14.403315
-196.223150
-9.111949
61.950549
-9.190890
16.786389
71.679537
-22.593868
60.646484
55.846127
18.074076
-63.170283
75.060177
1.071076
0.578614
-57.847779
20.304945
-74.201583
-174.613210
-3.232184
-65.834767
-234.094214
-230.797686
43.087206
-159.396815
-72.916140
-3.037071
-323.687003
45.127940
47.256721
47.821259
52.113450
80.630056
-8.159916
55.090707
32.347350
34.136295
19.751658
-318.214031
83.436130
35.688414
-73.204517
39.898095
-14.511423
-119.189788
30.933422
33.997414
-112.104934
82.490712
62.928794
-8.062330
-3.089480
39.312701
39.787059
45.085287
10.017075
24.838506
2.936189
31.572849
29.915992
40.146544
-170.314860
47.305037
76.190277
-6.944161
-92.313553
-102.649511
-89.458097
-155.053407
47.173339
50.217299
15.916468
8.382672
19.794469
0.727505
43.608681
71.938135
71.351423
69.859278
68.287113
66.638339
64.916680
63.126181
61.271229
63.119732
41.491558
44.095746
17.556520
28.875469
46.956818
45.854130
46.600614
63.063834
53.532159
23.428772
38.339059
-59.013070
-12.501388
48.671854
-39.570786
29.228260
49.197795
-27.285574
16.283525
45.465306
-8.620967
-6.174018
80.751611
-14.891517
11.472439
17.551938
46.996372
52.297339
31.473220
-9.428145
67.537242
38.035855
61.058116
61.096144
81.317295
22.825505
42.529209
-2.862284
-172.884657
-9.055523
34.248573
46.933902
-81.998513
48.933125
28.850871
28.816207
77.801052
82.546254
81.419191
68.529159
-42.811595
15.379122
67.195562
35.912950
65.784683
64.299701
14.552108
-0.739903
-17.227296
50.936340
-54.770128
43.900793
72.054179
12.473902
12.172651
-21.553319
25.164107
-39.825249
-21.050023
5.225656
40.722681
40.919383
41.055031
42.756267
68.528770
42.878409
44.542627
46.126533
44.465615
77.445598
47.627108
49.041634
80.540128
50.084705
49.737462
83.302771
-95.783584
-51.749909
53.080066
-7.479245
-21.734064
53.777569
52.403024
54.377270
86.468451
54.878306
56.108644
54.041553
54.390816
54.640653
53.448182
87.044529
-2.215358
26.445011
6.244530
2.226184
-247.573833
24.973952
56.893675
23.564838
-57.454101
14.019806
50.986127
-4.914568
84.453944
16.288496
5.739033
-200.455945
-30.651749
-51.887263
26.429463
-10.854979
-283.973550
28.017943
47.699560
25.150759
-343.106813
36.879389
65.390870
8.815828
-55.094807
-75.350951
51.426017
81.562768
-90.286650
48.362645
59.354580
58.605024
-12.647742
49.330073
-9.681892
38.169546
-2.184429
80.620985
-39.297265
83.758507
40.987375
72.407342
36.791479
63.498907
34.731070
-1.428311
34.691115
40.408804
-51.054898
56.050233
-5.842457
0.086498
40.145734
50.367676
81.945188
-150.792909
-120.883973
-60.961126
-27.997777
83.435128
-2.155406
59.435067
-55.599746
-125.076160
-3.338755
30.016049
30.400889
31.411450
51.866395
-12.489081
-248.757267
5.274541
50.889558
-36.118130
20.903021
-5.179825
-37.040375
48.055673
12.900937
39.608031
54.162293
18.258705
87.730218
21.131837
25.710631
55.817384
-58.166320
-7.503718
34.366055
14.807194
28.504733
18.214237
-69.954029
56.966892
-118.949534
-13.926269
33.648721
14.759747
-6.042756
14.881765
-9.129173
7.345687
55.602783
85.200600
52.774988
14.981411
-263.091779
35.193858
-3.386849
0.341141
10.253396
44.352696
41.930073
28.737770
8.995948
-55.619317
-30.570055
27.638133
20.581174
10.830644
-98.700504
-84.055494
69.653211
68.201760
67.193207
53.062947
66.748289
-77.114534
-120.768702
-135.989315
-135.333307
-136.950063
-151.253867
-183.914300
1.633015
-185.133701
54.640738
54.461785
23.533433
54.390943
-62.320985
26.179988
25.450595
-10.467491
-16.903595
56.910542
18.582260
75.184512
56.337797
86.173636
57.023213
-3.452289
-2.532035
55.170530
54.224827
80.885827
87.745555
18.771512
26.474161
57.977001
-249.989813
58.307974
-206.905854
-161.907341
16.712069
2.141053
15.721947
88.584897
56.878270
-10.992571
17.156769
-22.445702
16.552554
13.969281
25.635319
-9.171017
39.294837
38.354971
23.698100
-16.550756
-286.489962
16.690574
23.616692
89.672190
-1.089626
-12.118068
24.877366
51.489764
-139.824888
-338.650907
7.605397
6.501376
-291.968986
13.203209
32.965784
56.389410
-60.765277
-2.895472
11.023183
40.008886
55.670638
59.213361
24.188121
-279.286528
61.633441
87.476528
3.432527
54.878515
27.391493
4.117145
-100.957781
-103.347525
52.347340
-162.454438
12.904145
10.788039
91.596735
3.931951
-50.549160
50.599072
58.200272
55.060259
-7.624142
32.004118
-332.277215
3.362472
48.617598
35.435923
-316.900730
9.402149
-238.968995
60.125760
52.382846
90.099739
56.360239
-3.268960
-155.321244
63.146962
13.572044
46.062298
82.133054
3.299658
0.727521
21.975704
76.190882
36.791233
65.541662
33.836445
32.388128
26.946893
54.173979
20.447899
20.288201
-38.581962
-49.879660
-30.652200
-38.815958
19.446323
21.901348
29.167863
36.549602
-183.359865
25.442515
71.432669
10.914575
69.696261
61.670320
67.911287
36.752830
66.090410
64.237520
8.414228
20.982433
47.927435
-11.488352
32.694135
12.901552
14.352206
17.356662
17.312616
-147.398325
7.496812
-11.770461
52.575611
16.785631
-42.132282
42.847061
28.817585
73.960666
19.885396
33.691447
-12.664611
51.976487
18.805648
22.369495
51.745001
-0.985582
71.466558
59.665259
58.265181
56.893337
7.751332
56.584111
7.814376
42.116069
19.884589
33.845301
19.642357
41.850942
32.861800
56.273400
40.535477
74.252944
27.756261
51.229114
50.432510
4.097825
-53.949439
-4.815347
-59.947148
-24.824058
38.697955
34.834333
37.063907
25.363381
-7.825273
-76.532008
23.030317
22.776746
-24.639415
-38.111618
3.432595
26.695989
79.071366
77.447199
39.213916
75.761577
77.394047
33.211961
14.205138
28.447457
51.757286
23.906798
17.042197
60.737184
34.993526
23.828906
-27.074184
-66.414662
-189.780499
54.553220
-3.724702
50.368625
-51.795015
-0.453386
71.431523
15.030023
-49.208759
54.350513
48.061481
-92.093192
-118.833698
-49.509919
52.381774
39.006733
7.169332
45.466537
21.935847
-146.282538
16.141358
-16.432828
-7.415772
45.565972
16.490073
-274.561411
8.350836
-0.003083
-54.518517
4.391254
-3.324520
22.327755
14.739770
-93.063090
-47.154023
48.518815
16.151900
14.411721
22.540633
27.840276
4.828188
82.077887
21.142672
15.379103
14.469615
16.152028
19.529357
-287.734319
-21.458663
58.509512
64.762647
60.651481
-85.760701
59.028595
84.792817
-362.141956
-0.556443
40.423653
42.430463
57.500012
89.729628
92.251488
92.902387
93.459257
62.949754
94.292676
94.876151
94.239613
93.697559
62.525124
60.042847
58.668744
69.073577
71.069436
72.407315
39.381664
70.618153
14.613583
13.697194
1.292131
12.094899
0.008916
-25.736253
37.371801
11.501884
10.878382
-69.511618
28.042728
-2.294245
28.520095
23.651882
-10.163496
-5.732898
46.115989
21.405938
28.468613
51.750032
26.794502
-4.484270
52.521281
31.344469
61.247898
41.925569
44.653230
44.348100
25.379351
-6.895025
21.609756
21.075203
20.540467
19.687651
26.413360
10.449140
19.365708
4.756063
55.966480
4.340650
21.670611
49.483169
44.604174
17.418896
44.855172
7.206943
-5.524223
16.934115
-19.652807
-214.999734
54.633020
19.876058
15.879263
-25.368649
-5.201722
28.100045
55.223315
55.670256
-29.574524
24.429473
91.992290
16.652082
-136.117733
22.582784
16.319851
91.596652
30.748892
25.284032
-12.175865
-10.482578
23.181737
26.658465
-181.880184
86.546503
90.680527
90.841488
33.387157
65.888874
61.246599
66.543080
42.523539
42.657900
4.765011
55.544272
22.184097
0.884914
62.453375
7.028223
-265.694395
-13.778833
-12.405872
-10.063335
-13.205475
60.726275
90.825510
44.762580
84.590469
22.864401
17.591482
50.441486
54.738114
2.135755
-0.457620
32.319986
74.212949
40.219466
69.451740
25.379835
67.915503
55.693083
-174.183422
22.433250
28.849642
59.362381
60.155597
-264.997886
-88.440183
69.627117
16.761408
-9.902649
1.633019
20.431996
66.499474
-18.245116
-9.107150
31.399583
-76.721297
15.518258
68.450835
-372.953531
-4.977358
-153.863061
-171.516859
26.771491
18.614605
47.114759
-24.047657
-5.779613
19.653433
57.907022
60.057541
18.741372
-241.420795
84.902565
60.408141
53.377355
-107.468406
39.267209
15.388155
-234.387801
20.097502
50.428865
53.135131
57.052718
45.165201
-0.522089
82.967957
53.633353
-80.639793
43.476840
62.288505
92.097292
64.474556
63.504501
-325.239660
-335.310962
49.189398
56.473704
-277.316497
-200.957364
-18.223876
-12.800563
35.365311
64.514543
18.151237
70.618166
-110.221328
33.130499
70.215256
1.581715
-2.279846
-122.645731
89.729680
17.428142
60.737578
2.290250
55.015292
-106.009917
84.148445
34.608383
-5.817164
-8.527552
77.680059
63.172356
63.614838
18.304761
21.144638
-126.129368
-12.714036
-11.935729
-143.916121
-7.469700
8.054324
53.456573
18.114657
55.695799
56.336655
57.676698
14.087781
-17.842471
-85.951382
29.954477
-7.807056
10.394399
-65.111456
14.681185
-344.572716
14.506612
-299.248336
-0.266034
-10.349085
2.652933
-9.803273
33.696143
66.100350
63.943576
32.807473
30.547598
75.411206
56.072882
11.239000
30.564328
-4.067854
-0.116035
20.875540
49.591581
-5.408331
78.957276
42.557259
41.288511
12.188143
45.773419
14.458675
57.200478
-7.099520
-11.140095
17.109896
12.151095
35.700321
36.121015
-72.788597
57.781699
25.371063
53.597677
13.704974
-9.856662
34.885416
31.895855
-3.555487
7.702577
-5.693023
-13.309089
-30.149058
62.752748
55.660776
55.365938
54.350772
56.383458
56.465248
64.318344
28.448884
-20.192363
28.430811
69.512942
-129.736642
-44.109115
22.298159
-11.712468
-25.125591
30.841342
-346.776821
3.823298
27.549074
29.184515
-9.747141
-127.187389
-131.075470
52.154392
13.706607
29.686963
-177.123202
50.334978
25.926082
-3.725149
-88.499531
6.074581
39.845898
-150.217233
-95.494239
36.685358
11.972768
-418.779330
-384.275450
-1.239317
1.889289
61.622310
89.328290
90.172852
70.961139
37.709645
39.993867
49.098076
16.562111
41.802121
13.926175
12.680064
22.253554
48.522662
44.498446
30.784885
59.420623
-6.027832
22.762847
59.822679
40.734202
-8.325567
10.894071
45.976515
39.236193
-4.012401
90.506457
56.273482
56.592372
57.863378
52.637708
21.117158
92.855151
52.677073
21.651682
49.791855
15.346005
39.717142
-8.311267
-12.710303
14.491652
42.010911
53.251453
-358.545506
-10.364571
-192.204457
27.001995
21.918877
14.420364
30.423558
5.975698
65.999597
48.265762
51.049623
38.053646
-0.479081
13.848852
35.365763
-166.204257
76.057344
16.818719
61.451009
59.843413
-0.669767
46.561553
74.810127
-37.034393
25.857067
-204.959842
-2.170456
-96.769901
-57.852129
-128.170748
-2.120370
-103.680769
14.174362
18.937265
-11.692228
-51.275624
13.344036
52.169843
-408.694850
34.487618
9.472905
24.966027
42.973655
38.974785
57.462386
78.114687
-90.518491
-77.470145
21.348084
29.299968
12.648868
10.442167
51.208580
14.925752
14.732933
11.858286
24.912371
42.993270
61.709221
50.879700
9.795914
-7.236636
44.583384
23.222942
-377.266828
-14.662867
3.788570
5.389044
14.132332
42.910591
18.316447
20.213673
24.804250
28.319272
39.704650
41.568249
42.666198
52.031819
53.456357
58.248888
60.102259
63.209770
63.929541
94.332500
64.267904
64.409478
94.135247
62.689471
94.605615
63.053932
92.133380
89.067754
55.515725
92.784619
64.768981
60.076942
88.063813
50.655123
55.222675
33.260675
-7.718593
18.953607
39.294770
27.554802
55.994790
26.585444
40.225107
20.914395
57.964671
80.854775
22.840901
13.770218
62.235599
18.204662
-4.611804
8.223455
36.618549
4.369156
60.496041
67.643854
51.548102
23.832517
20.787277
60.365964
-239.787067
-237.090667
-223.691099
-230.797720
12.612572
-238.355603
-7.260443
-219.108492
-54.779092
-270.058230
-7.378336
17.124326
-0.387140
19.056453
25.295951
-314.987677
4.907866
92.820353
61.247008
-289.592794
28.858769
-2.738085
36.831374
-338.650821
-321.499554
13.969080
1.125800
25.563542
59.627641
26.365361
18.315277
5.296318
37.809854
44.089742
70.937235
-258.721417
44.106375
20.619509
14.591801
51.023966
81.005536
62.803573
-3.009921
58.506841
58.032144
48.307556
85.970149
56.819824
69.275867
27.910671
-13.433053
5.890083
59.729905
-162.872723
-187.865042
62.201475
29.703338
92.251517
44.827222
-15.116863
-88.764505
23.702775
8.204615
10.470559
-3.727944
-185.937994
71.466534
-13.111196
27.748740
38.337984
-7.740422
57.849671
22.170774
54.144180
37.906104
65.476723
13.205269
-440.782791
1.063354
1.013890
63.783351
12.679245
48.964855
-80.004966
-73.270078
35.798405
34.045587
-73.007563
5.177838
-208.595965
74.123244
-25.418798
-60.483510
31.785271
-286.677468
-21.062017
35.278097
-7.357253
31.957731
21.203940
32.080067
-11.465856
46.244383
-30.492124
-354.817873
14.251780
54.208148
10.354235
29.844147
56.640007
26.083887
-18.058615
-0.313403
24.937014
34.815908
31.922174
-229.902142
-41.514817
-80.659286
52.568665
58.619490
49.468112
58.483714
44.371102
75.553506
55.176759
22.892999
-445.418159
1.231548
41.039033
46.390629
80.472199
34.795538
35.304849
32.387456
57.547112
0.285314
25.552968
5.003972
68.467841
66.745114
25.790285
-7.521605
20.199287
33.045884
32.090782
1.176712
16.389175
56.633149
-3.618752
33.485847
-214.999687
-11.316615
32.084699
-10.770583
-11.096180
43.541715
51.735846
53.882522
41.099168
20.843316
42.557518
26.681982
20.530316
16.091749
32.517817
33.255073
-221.953419
67.822259
-90.051731
-85.869879
56.689256
14.227765
53.656321
-7.718460
84.031987
21.549729
-328.920732
49.421930
-5.098111
-321.399213
-12.750968
24.819608
14.681473
55.425388
-286.419049
16.636708
3.010563
-0.126817
-29.486518
0.885540
12.087453
59.630913
31.575440
-60.268225
-7.899462
-150.983948
-0.941900
22.861514
-187.865098
-26.035741
5.543825
21.356923
17.719521
16.659842
80.177727
82.006421
-97.717547
-331.857663
38.018625
46.139958
5.152486
13.408538
-11.953426
-12.333900
23.556789
16.880570
-343.491220
60.364764
25.370826
48.085864
13.924709
39.869804
43.927645
76.941412
-1.343384
57.187279
32.278197
60.607594
57.547220
-5.073173
59.986412
-7.790204
51.925562
51.421746
77.092409
34.219381
65.767945
63.861733
64.520076
84.849612
47.821364
74.762107
60.194041
-38.982523
36.659316
80.078118
-197.737746
1.564827
-2.585743
-0.672760
86.237871
19.141318
40.664484
-3.681078
23.170120
-136.812885
15.324875
45.032557
-217.347382
-6.325029
-43.597474
93.417550
18.764881
82.777465
-12.273285
-12.586380
-12.198109
82.134278
16.572443
44.087561
-5.821507
20.303467
-195.882550
28.507525
-3.283068
22.511192
11.453115
27.240252
13.321443
39.341227
-0.346626
-0.322225
-7.400706
9.519340
-125.775392
-7.182478
54.813617
45.444266
-239.204415
32.455401
8.353317
63.493744
-37.572540
-4.278006
-6.527125
-50.690475
38.016567
-16.102397
31.874720
52.403320
44.104012
-7.793624
-48.999903
-135.275291
14.153532
-118.832427
6.320587
14.091591
62.146437
-217.254925
52.087647
-0.485754
0.215329
-0.126048
22.209248
6.146486
-18.005213
71.765618
68.148854
70.863232
42.881228
68.327629
66.062915
66.841815
38.309014
-39.747289
27.889561
27.073720
57.703892
39.181658
-121.129896
10.439939
34.463410
84.821810
-1.018198
40.469067
38.772791
-4.014470
32.528448
37.037080
32.455069
35.269640
34.997629
18.203247
40.387400
66.270827
-4.605832
50.001702
9.537578
81.165900
-21.350049
-169.110794
52.550523
8.951482
6.444728
15.312428
12.762196
42.814798
25.654675
25.471879
20.344976
45.792757
42.880211
39.389362
40.542656
3.996755
-228.637004
37.572662
-1.317472
42.769356
75.572902
-89.475494
37.646450
29.645707
7.242701
60.985757
64.985764
-423.300356
36.339791
-188.821753
36.521703
55.138016
18.274818
24.650355
21.695925
36.604189
0.185548
74.699698
54.148409
14.229306
-3.290710
-120.596888
23.901604
44.693425
6.088556
38.250454
-303.021665
1.183913
25.224666
56.371900
57.591098
27.330650
22.625602
55.750930
-450.702444
-345.502081
-225.218149
-0.198581
0.121064
-1.458346
41.536425
19.745126
49.147527
21.546283
25.011332
38.839683
76.985940
49.646171
85.922880
93.029813
94.657122
29.227984
27.905924
26.876299
91.067225
58.605405
84.108217
86.180786
8.145513
31.478234
53.878791
62.541942
24.022889
49.796980
32.506528
55.272113
-50.550430
-0.791284
-20.488847
40.235158
11.614227
49.678742
41.135209
35.731678
23.496107
34.746543
35.350472
36.982391
3.076085
39.623946
29.470939
71.100973
28.809177
41.565637
21.162270
40.408312
41.787452
40.344222
71.098919
38.818748
69.555219
36.681385
-131.414020
-117.820493
29.494518
25.570490
63.632019
29.704873
60.657899
33.163719
88.107934
59.344587
18.514028
75.160887
21.702319
87.841590
57.506978
50.870754
32.089188
14.256686
-5.171594
27.553950
15.221088
36.727790
32.996139
54.882044
16.715907
35.280389
54.805689
89.493264
90.384541
-277.193314
26.240085
79.780168
87.750411
75.601609
20.542440
47.932058
41.561605
17.761677
55.084850
32.706901
5.666253
-59.395315
21.444847
17.387549
56.510226
45.046174
44.957876
32.548031
15.939849
49.344091
72.246853
72.565687
46.502000
43.015162
19.981977
23.321103
51.814568
50.759774
53.596561
13.978966
-136.860125
18.129695
19.171306
14.798210
52.177343
47.798718
46.193514
24.766943
20.523824
79.859712
84.606422
-114.961200
42.593927
17.694672
-313.235818
32.706710
32.360378
85.828748
61.678124
14.723071
14.189693
-69.173463
-36.858426
15.102076
16.947212
26.707277
21.862503
46.876490
84.854009
-55.095234
40.869182
43.888892
40.417909
21.777638
-2.838994
12.848909
-11.181221
14.850910
-9.806369
38.423096
3.988946
36.952686
44.752891
20.206096
41.042262
84.127511
2.700915
47.318347
28.310984
57.923248
6.761540
55.568598
16.120734
-10.513756
-10.014921
25.632751
35.662296
13.513817
14.284900
23.890853
29.077779
29.687579
32.780890
75.950510
46.395533
64.452086
60.102336
54.742667
62.538861
85.485116
84.903537
64.218173
49.888974
23.592750
6.702963
13.895588
23.355824
37.751202
27.932995
29.867092
60.946185
51.411235
-8.382771
93.196422
89.509541
54.230449
75.549474
67.861922
-120.423083
-4.733572
1.729544
25.665791
17.053722
17.726355
10.479788
59.769440
-90.051646
81.145918
63.067179
63.276704
62.128184
71.988338
63.209843
84.900726
86.546007
-380.162110
0.355076
75.601259
2.164912
-9.996269
45.307785
15.835019
73.036251
72.038402
27.890177
-39.422777
31.150263
1.922541
12.710121
52.146850
33.853714
46.433729
70.957200
28.364605
28.264243
39.031796
38.321522
0.567087
26.782009
-59.947958
36.804134
35.170208
24.331400
35.998960
35.164508
22.011094
45.026148
20.014731
-36.926337
-5.282563
20.517444
21.135184
-4.729663
19.904629
76.958558
-3.737870
3.781453
-136.708636
10.766841
36.959104
31.664168
29.627292
43.267940
28.029052
-195.380612
18.433358
72.371082
-4.377372
78.441131
25.566058
-4.899288
72.176670
0.374448
0.668896
48.740440
23.559323
31.028829
-29.723087
-8.341072
-39.198016
16.803196
-73.204950
46.112730
29.201525
56.086472
27.279663
10.116483
2.230576
55.959020
-8.469170
-71.026569
33.698634
-57.846025
35.144272
62.554719
33.661181
-9.076859
21.089350
15.130850
1.165867
3.789148
16.202316
-26.133837
-8.404935
66.207214
24.089983
-115.047047
3.287169
14.217368
16.400445
-139.330261
-77.633429
35.627155
23.867178
-63.993932
14.317647
14.511481
-274.846817
9.944603
40.218074
-451.197091
-447.236245
-418.778672
0.077449
3.996125
59.254096
60.652034
62.864875
61.835492
60.723490
56.202343
53.381812
1.567533
2.763868
2.690472
3.263851
-17.287837
22.267990
53.004347
37.510326
9.726391
36.547430
55.910953
42.844971
78.226607
82.188860
49.310313
44.908764
15.824171
51.926178
-171.496277
7.514807
18.344407
26.759352
8.308932
58.031960
-60.882580
77.095552
-18.244950
13.531273
23.730065
58.087211
-100.401454
15.582590
72.202256
77.336475
-170.315480
61.670253
52.359028
10.218327
-365.372642
0.045040
-0.913729
0.678182
65.519529
-1.610680
-11.978777
43.796485
-12.724105
-11.491904
-7.439943
-167.904693
-10.003045
24.520366
88.968107
-99.022178
58.053515
53.794384
0.930726
-2.431497
53.486706
29.295012
29.988239
25.121142
52.755731
-249.989871
88.167024
56.299044
25.292511
68.838668
19.678293
54.741677
31.732813
-12.199356
31.888678
-34.866833
59.978194
31.697577
57.330006
-8.340301
89.555837
55.591596
30.667521
-349.194651
-255.323936
37.857094
11.374356
5.111331
59.940374
14.401806
-0.251526
-71.429283
31.005546
-112.713598
0.665902
22.145444
43.464300
-12.471995
19.880830
-217.315923
-183.309334
48.647884
-1.172833
22.057452
26.739624
20.085149
17.870099
-7.861208
7.520763
31.438194
-66.008783
-80.845869
27.374510
-26.059023
21.053400
-5.686052
-15.918155
-238.356973
76.461570
-1.963090
-24.147744
40.282560
-59.601413
50.826991
9.580346
-87.067086
-58.644894
3.088566
18.297985
53.029474
-8.558357
13.677297
-303.951136
19.675604
72.184563
-1.582306
62.365337
47.447539
50.411924
13.345113
63.290069
24.766131
86.832003
41.773103
56.018500
-7.211696
49.562840
54.345134
20.640539
-12.312401
39.415791
54.488252
33.866378
1.547259
81.523796
-59.041025
51.047470
84.901211
44.410778
-11.858909
-85.100130
-148.149613
32.280284
33.510077
81.468312
-8.565960
93.337673
-449.877747
15.114625
-265.644312
6.772994
37.639636
34.251621
-181.406670
58.608154
-196.822512
-6.655452
37.444113
16.925544
10.984129
11.397686
-236.513314
-116.490558
-11.385982
-42.911934
22.352462
50.935793
87.144172
73.870324
37.344034
-369.891934
-434.806229
-427.476687
-1.630249
0.233173
76.234308
17.082408
59.067722
59.589157
-158.560715
90.486365
-77.842529
81.812990
55.515034
57.188740
52.218098
81.532953
25.379232
-10.551245
-13.408737
29.393137
24.736205
-1.205991
50.063627
92.688618
29.647154
-61.753143
-5.267518
-12.816661
-7.166263
46.799588
20.537473
19.099620
91.939575
91.090312
83.895473
16.384467
57.456795
51.906326
-413.911684
-40.523315
-402.397290
-36.044888
7.042651
8.748272
10.509190
26.592245
34.586057
35.980120
63.700443
50.630366
-39.513597
-81.922865
1.941157
6.356909
35.758848
-257.167868
19.760432
9.270581
5.605405
37.809130
43.664966
15.852963
35.309009
62.714374
51.279594
13.877566
2.745929
12.990883
-10.687009
54.961059
-11.150278
56.485351
-31.641116
15.320740
62.616697
-315.563400
13.635677
52.185209
-7.759641
-198.957566
-185.133613
22.737805
89.483873
1.358376
0.216005
17.047747
25.864551
31.582757
16.626345
-289.592835
16.760169
33.208160
-5.896396
-52.586888
-12.966765
47.198726
14.869114
-3.021878
57.974622
88.584732
51.936346
-450.702409
0.167407
0.748764
65.219957
29.406058
-1.255421
-111.082121
-53.775050
-88.915717
21.006078
-8.007051
28.397390
20.092590
20.475000
-12.451141
19.220613
-3.184286
35.837915
3.553265
19.517694
18.013664
20.643509
26.748157
-6.671212
66.292056
18.792089
-9.516128
1.721022
25.480114
-62.319564
54.045963
-4.388421
-6.805564
14.833771
14.791553
-1.785968
48.059390
-101.996681
-7.643306
14.846848
-3.628920
-128.271075
15.307453
22.833659
29.275565
-2.592217
47.353650
-11.865013
-61.166695
14.288869
18.171862
69.525456
-34.187203
12.903005
-161.854248
-11.729846
53.878017
23.476656
49.818712
18.324395
56.483769
50.827371
-11.352646
14.588064
28.065971
11.529082
11.293497
39.149574
-437.962964
10.438713
69.066271
60.083369
-62.987611
64.917073
35.531898
22.865983
-15.006471
8.692634
78.224794
93.459276
15.216635
-11.156563
-7.050220
-7.107013
44.443596
49.140201
59.377564
27.192393
8.380197
85.706909
59.020029
-46.685212
19.707974
89.003269
69.128782
85.832580
-338.536868
-14.016922
-2.958039
57.265418
-377.269055
-3.700981
-1.951062
48.199117
36.494265
25.120766
42.447966
-189.505284
54.979851
53.151178
71.963505
56.108844
33.798973
62.009336
20.510850
93.374115
90.680639
68.287508
-8.208215
13.657941
19.776696
-233.159493
66.332859
31.709588
31.029864
13.041986
43.724225
31.109138
-197.752060
-1.044288
-12.438685
9.929083
-10.774016
30.869907
-3.779460
-133.805847
47.236486
47.676335
-434.806534
53.652458
-0.372102
6.899040
-209.818875
-193.653394
50.989690
16.554669
14.951629
15.833890
-7.444806
24.803936
52.087403
16.319160
-13.316630
54.172001
73.803278
13.949939
45.586936
56.652941
27.482635
-174.345555
26.842390
72.373061
28.851964
-70.339028
-0.796026
68.013431
67.554904
38.986284
-150.894649
30.499952
15.729333
49.094294
-19.489636
-260.568632
-11.459026
15.185485
-3.264117
-9.190502
52.060327
41.314624
67.271183
57.392307
24.638826
-34.127205
18.456905
36.837947
51.949705
17.122620
-14.320249
35.749165
71.885467
-8.531831
-59.238470
-76.743796
0.261139
22.054014
27.157138
26.320177
20.902111
-13.433065
32.435231
23.247389
66.541482
18.902345
33.029925
-0.087687
9.714787
-14.491004
-46.862622
28.362720
-26.579023
-31.864943
-3.268782
14.632814
35.630203
6.196438
-299.662129
10.933652
67.917930
65.541890
-5.602357
41.314176
27.593494
-220.242110
-28.424210
-39.437677
-6.919930
-8.172160
59.886157
-84.424687
28.224389
13.032918
23.560390
65.049930
-39.124803
-48.160189
-57.903224
-7.044280
-77.471012
25.039226
9.916095
-6.473916
16.147495
68.455611
-5.529387
20.747292
33.575956
24.524167
-10.587903
54.050100
48.446193
24.492310
-214.613047
-49.045358
16.753754
76.531376
-34.962599
60.195413
51.106344
-166.501698
-3.461330
35.768234
50.206692
-6.620441
25.730612
-10.060861
82.489926
19.558681
-5.011730
-11.277408
8.352174
49.845026
-1.522153
56.318001
37.662550
-1.834532
-202.218019
59.178056
-9.736461
56.037497
11.590697
25.867259
-4.751168
-27.630422
47.646116
92.433731
5.955662
-25.845243
14.735085
53.659752
14.097906
48.041211
91.423159
48.157272
49.584997
22.857527
-81.820279
1.687942
46.288177
40.730507
71.637852
39.070079
0.561126
69.975820
38.114604
-24.825884
52.514960
70.443680
15.639287
63.943086
0.802529
11.091529
-4.842938
-403.124936
54.819631
21.086807
34.368544
18.146973
10.777340
20.749534
-10.221573
-17.045382
10.381068
75.555649
-431.311865
2.479024
3.259547
52.767580
29.079461
35.387867
-91.303674
-123.665478
-8.039221
-29.923137
-7.898282
57.950810
-13.421639
23.822229
-57.843219
14.333551
31.233703
5.664846
-316.883779
41.307987
-10.138122
58.417789
10.936859
93.803603
44.566835
13.739501
70.411854
-4.637007
18.441772
52.466786
28.798415
-6.914853
26.446659
-4.024639
39.708791
62.386595
51.237253
47.377790
14.533799
32.278381
-13.959850
24.588478
94.192934
90.147786
27.879411
20.502835
54.506112
-1.884799
17.669296
18.251699
21.283259
-12.446412
-2.224102
9.426150
18.586772
58.260284
25.366105
-325.694854
29.295241
-34.187351
53.434294
-270.786685
64.072008
55.785036
-77.633667
-136.224335
19.684963
26.621200
49.258595
21.709545
22.790390
73.920897
-11.103640
16.035749
35.844853
28.225430
31.809229
27.664750
12.923884
20.191845
47.639104
46.083312
-427.477139
-2.849976
19.444386
16.374622
41.915155
16.025922
-11.344735
14.587901
65.834413
65.008350
25.001419
67.941536
8.203357
-30.489727
40.219472
-7.546008
34.396640
45.809646
29.976079
41.057422
-24.022679
33.338232
10.076235
37.811017
67.333215
23.585930
-116.837706
42.527445
-283.453631
-4.592909
14.660473
48.084326
11.575239
53.328599
3.933399
52.014841
-12.257087
-10.511315
-1.740712
36.955542
-121.974314
80.458052
0.918154
54.339050
31.520609
61.159711
14.550362
45.500812
36.160381
49.657019
74.282999
1.518969
19.318006
58.056522
20.882609
-37.319777
19.630805
33.950354
50.432941
-3.221710
47.474785
16.566743
38.181054
47.475152
11.895114
31.898900
14.642996
67.642325
57.915762
17.768510
6.142358
-45.071322
58.022326
37.849836
41.319247
37.690285
31.419396
-80.785386
39.643916
-290.561848
-346.776849
-200.966891
57.737608
47.842982
63.701608
5.039826
-99.038756
-6.656758
16.987658
42.918592
84.290914
38.265477
46.927494
42.160795
-97.087367
-153.059122
-0.965303
23.900764
20.981220
50.003288
48.799305
20.655111
16.736760
15.398826
82.110634
-8.249537
-1.736732
-155.054493
46.329271
5.613057
27.036759
57.283921
-102.891950
-39.706638
69.782561
16.920699
-315.868383
-282.967889
-226.010221
5.218345
22.054514
-229.566324
-11.010326
-266.991923
55.953207
0.420656
37.298264
41.536156
14.171552
41.143671
50.998380
37.580702
22.454207
51.985199
-58.726157
20.507072
3.568531
22.026000
52.307851
-7.399435
-7.077226
34.139395
-5.927677
13.556347
17.980407
-154.615807
6.421733
-8.086802
27.036683
48.798372
3.591975
26.282424
25.821453
47.583434
62.488666
-249.669399
31.502351
33.799859
-155.774122
8.111502
18.180824
-3.743053
36.502383
50.782625
-309.402335
25.711781
14.657298
3.426679
49.459423
-4.640684
4.822455
5.260278
14.762204
-3.213392
16.414009
-5.829542
-443.267472
14.496052
2.653105
14.714043
-73.715379
48.257101
41.460983
36.346596
35.921637
-9.202164
76.530406
-451.197073
1.150308
53.686561
55.533898
57.316279
43.490247
42.406880
39.784274
38.964891
12.264177
39.382560
-5.090432
26.298338
28.205933
29.460253
-208.596018
36.116415
20.543971
33.688230
20.725660
26.638404
27.227898
-26.490785
79.691171
6.861951
54.885586
13.917323
46.850743
19.718905
60.729499
-295.978458
43.055567
27.686847
65.029353
15.161190
71.993719
11.867043
35.149880
6.851584
55.959209
26.510283
46.807272
-269.415122
23.441497
51.588237
49.223091
44.137615
19.042237
15.234928
15.855209
32.156625
59.344705
-148.084043
-12.008620
-292.126694
-157.702711
59.291034
14.408783
-9.761144
-58.010414
76.027861
14.399204
66.270815
94.684224
23.863995
24.191788
20.797642
55.073270
-5.170743
-420.507982
-0.290613
69.447162
37.671646
37.066069
36.432365
32.699903
5.958611
-4.573854
42.594526
41.715499
24.243646
17.494655
27.155193
18.713937
27.603271
59.265034
38.116981
51.500264
51.208770
52.818497
52.675490
21.652597
26.363437
30.624234
53.001535
63.529110
35.340720
33.931648
22.166214
65.888822
17.990846
15.243009
-9.996521
54.214151
43.257298
49.540413
42.894734
59.473520
28.865673
18.161792
-216.966780
15.181221
-11.356022
50.880978
-7.915346
10.528382
-278.810465
47.701422
14.755908
-445.838024
51.022405
12.901974
35.952595
35.682257
33.209648
26.588411
27.778373
31.193258
67.276110
30.507666
62.279979
31.598560
50.938783
12.216793
35.548997
46.232193
80.203281
60.158923
36.756203
35.886351
20.068337
70.236437
35.232078
-9.495060
59.072278
37.436975
63.853005
-177.123212
34.219411
34.490524
45.819982
10.067368
15.116388
27.934836
64.299185
35.652188
52.663934
-149.412005
66.291970
33.827014
-13.157331
25.253347
42.836062
-410.753620
1.010026
-0.618252
44.529337
41.318738
69.226317
40.000167
39.312657
37.109374
35.682108
64.558229
61.534255
19.280824
15.044659
12.204718
33.849544
34.639831
57.251706
34.353198
9.305268
-0.045960
-0.950843
22.256791
70.261393
4.646864
-10.993436
52.157935
-0.403719
53.373896
19.558629
39.013478
42.607103
31.800167
45.431321
13.660087
39.920923
57.955592
31.438155
51.227729
65.401831
32.693272
34.295342
61.950577
37.441783
10.685371
7.123983
75.690661
17.494093
14.324838
43.442549
10.894635
63.861723
41.044947
74.040959
8.042333
58.952919
20.334777
57.213501
72.235312
19.999297
18.763867
44.330459
28.789625
34.730593
41.536432
66.059380
31.801765
44.519198
-8.470965
29.598146
-103.662936
37.657241
48.337838
-10.030147
-9.838329
35.781938
55.314269
49.268984
-33.624781
73.397155
38.305438
36.720864
37.897331
38.240060
-189.118621
-2.484085
1.121728
0.765191
1.034080
82.990990
43.608790
70.953069
18.260062
13.429518
51.755902
5.594498
28.747083
27.298025
45.735997
64.215426
53.085491
27.402663
26.578822
25.051385
27.469488
-23.213572
84.248358
-42.245639
73.429659
73.108655
54.516441
54.984102
-2.281055
9.320976
7.377022
38.473945
7.756296
21.057287
53.307220
80.089382
59.832624
79.861138
9.747562
-26.107842
40.641881
70.481174
-55.356438
13.344925
-8.287286
34.424698
28.686730
10.069220
16.673715
-5.103074
19.220217
15.898079
54.612766
29.628806
22.757201
58.074055
-10.082779
63.929472
31.901533
0.409973
46.911722
3.197965
-165.976429
7.898718
28.959592
73.683027
73.868022
10.979145
46.010641
21.778213
28.085784
-4.408845
5.503373
46.137973
19.061488
56.391895
7.587784
-171.464100
26.263177
26.265396
-4.239257
82.698241
23.426029
54.868809
85.853952
49.335885
35.433578
3.485241
-7.369945
-10.982200
31.013706
73.069662
20.211990
7.304514
51.098467
-5.578069
17.626920
41.289221
19.051681
48.603173
-342.482644
14.802047
-9.510009
59.061223
83.564299
-1.267282
-23.679514
32.845907
45.812765
27.734911
-235.923383
89.556131
34.065473
-1.709022
51.501663
49.190637
1.347833
36.339874
14.817574
36.607364
46.202696
56.692085
94.569962
33.854320
13.009544
42.068480
61.592166
18.334447
31.029838
41.419988
40.737881
-3.010840
41.758108
-3.892813
34.294534
3.952170
28.025723
39.380401
33.658994
4.003919
10.588654
70.630099
71.066004
-7.415261
20.137621
24.669421
-7.241442
23.202422
-8.312281
-6.460331
21.442020
-7.006868
3.397238
6.391496
3.958785
74.608551
55.091579
55.089236
52.629708
18.551824
45.912702
20.655040
20.022817
19.708735
2.287871
27.939346
25.311718
-5.123474
28.023827
-8.074255
19.003310
22.433495
21.628252
-3.134124
26.214713
44.002888
13.348362
28.375246
27.911377
79.502786
68.369668
-11.545657
16.319813
15.844695
19.316413
18.629362
36.224071
22.958983
55.453155
56.602059
24.522729
29.915418
16.451491
-11.238499
-11.739815
26.741416
-4.130521
46.402713
12.845848
-5.481493
63.067054
55.202278
29.138850
-7.189943
16.293224
12.729885
14.482251
-8.227061
-12.409465
-2.400877
16.007363
15.971458
58.975027
57.908815
25.257349
42.732986
39.057083
26.009914
56.582005
43.405932
19.963044
9.418154
54.210610
59.423298
-10.473467
14.827015
-8.932651
26.349819
3.718710
-11.430920
-10.989253
-12.177276
43.905364
63.581881
22.469741
72.493327
83.540302
74.578772
-8.633487
0.793594
32.952777
21.774187
6.165866
7.548389
13.159724
23.828576
30.568835
28.733178
-11.126932
-3.458504
32.050639
59.729877
53.799404
25.058587
26.643554
-4.171313
18.176153
53.261795
34.580108
-12.643566
-12.709034
13.058765
-5.190784
-5.872350
48.991050
60.723594
60.151213
38.359491
21.185529
70.099254
-42.247794
44.872046
19.082711
18.404142
86.134477
43.576531
-75.179376
-352.644467
59.529395
-13.294563
39.621247
60.339502
-13.191723
23.764486
24.552631
24.890892
28.760501
22.771488
24.944417
81.822060
47.195290
13.653835
12.351170
16.297410
-4.269885
68.768855
40.939615
72.178429
23.635635
2.666495
32.106051
27.041612
27.005421
42.135041
42.094659
48.488878
60.845167
55.941991
7.657159
19.926220
47.218559
35.727161
-4.425127
20.834639
15.122167
-1.604117
47.315545
23.190344
5.641297
4.828130
22.263318
45.033253
19.839379
44.627790
12.195161
-2.126827
-126.128785
-151.407653
-206.523655
-192.135272
29.236868
8.128367
69.588953
35.798139
14.122078
-6.076442
32.204919
57.954453
39.178396
-19.749224
15.393958
-397.201019
-0.960949
1.966240
60.179140
62.621631
49.743550
16.228922
-23.021425
58.169617
-67.857172
32.705173
-55.361314
49.727188
-3.233085
20.792960
19.777722
17.520333
24.725456
15.798267
27.285671
3.062845
-74.833709
-2.862108
-361.027593
17.790194
67.676896
-17.838282
-27.761749
33.128246
-3.111328
68.915432
67.322675
25.655595
57.698612
81.061535
-72.452358
21.460124
46.351644
0.154227
-143.660245
41.965456
30.899752
-4.615223
9.100244
60.901720
17.322583
32.159401
-360.999627
-1.629570
49.726881
18.293071
69.245358
25.791953
24.112091
59.034775
31.669399
15.336729
-29.921971
45.065100
34.325396
66.778340
11.503306
-408.693905
24.026770
39.993875
47.656682
36.728732
-11.692612
79.290158
2.233540
-5.676059
-133.264372
67.529954
-49.142942
1.734481
14.446811
-225.923590
18.508345
16.569538
50.125942
49.920098
-148.126120
-9.338543
14.892648
22.072728
-310.617041
-7.542488
19.766509
69.127936
24.224036
49.335309
77.867326
51.395946
1.420003
-223.321979
92.902410
78.758420
14.109905
15.116860
40.247865
-15.326079
55.244975
23.739175
50.206425
-103.648763
-93.264060
20.819329
11.246131
-348.206720
-107.157504
72.193280
10.158700
-230.801394
45.277433
37.936408
15.536449
66.211031
26.941523
53.548131
52.551703
70.824090
57.244425
13.438334
58.287618
14.743984
85.894184
18.613982
62.671641
62.364760
93.704431
37.115087
2.318154
4.470846
14.800226
-9.864564
-26.861809
-441.529028
-450.798155
-415.804433
-380.160017
0.460948
-1.087606
-0.863871
-1.669751
0.569279
22.526006
30.119609
5.118435
29.101538
60.989911
12.944906
12.055400
60.184356
64.688046
31.116466
8.892146
-369.377979
-300.179933
29.711419
87.024185
53.253445
44.239805
0.816420
16.741384
45.453196
10.073675
50.100447
8.691140
24.383792
-4.290653
-131.051200
50.597991
16.133045
25.302963
-144.724962
14.661206
-27.251730
28.454935
33.658801
75.059836
52.733261
20.303970
45.404712
52.341501
89.739925
54.630053
14.578972
53.874400
-16.316488
48.331419
-4.673880
-0.351987
47.056230
61.662493
23.980430
50.380037
26.106598
37.686674
66.124918
74.308977
-181.179461
-0.239358
-0.173870
1.594895
-0.357465
0.934397
0.365058
7.626659
33.400280
36.379597
37.901811
37.026080
36.615753
31.099029
27.494793
24.189295
47.037876
18.512215
22.743758
24.040625
-372.601487
-16.116399
13.621905
14.650268
9.127561
70.633120
28.227453
33.150400
-72.451133
52.248668
45.308701
-8.300266
-13.349374
-321.398200
15.008609
13.147821
1.124130
1.621475
-98.518780
78.370960
15.324305
-7.790597
34.591983
4.666035
29.790610
3.404714
-241.019677
-48.924049
-8.372308
30.423374
-449.807188
44.434638
6.825879
-53.908194
12.568226
-22.914252
21.539251
15.196351
-30.149058
25.569688
29.740493
-12.944438
41.635980
-19.393831
-18.006479
41.361874
-84.424392
60.321964
30.546539
52.238337
29.789724
33.613163
-175.975693
48.267214
-46.027334
-48.795518
-0.985860
23.855200
87.969510
-94.619809
-121.526277
-182.019463
3.535415
19.498260
31.800654
33.498362
23.249141
16.668314
63.014509
16.708304
-14.493080
0.140488
52.442731
-19.984598
12.623303
-6.927909
53.895110
-3.626213
17.458683
17.647128
59.059596
12.133593
14.594074
17.028579
1.255409
93.886455
30.967410
10.949579
48.561059
25.017230
19.703205
-7.632658
48.521133
28.639952
31.098703
55.417663
19.367603
43.907772
54.528232
44.448034
27.939080
-32.323409
8.906204
10.086233
46.075049
31.104403
12.480654
-41.369868
36.120285
64.308942
16.559725
56.661899
14.146021
6.663568
-106.947260
-9.706395
3.029594
-64.969621
25.861748
37.712909
-0.747791
66.446601
0.454982
-3.478795
19.180264
34.585651
-2.682295
18.266031
58.368589
57.556346
-7.352991
63.459033
-6.270247
2.189440
68.917796
53.425064
22.684759
25.645974
-134.533307
-17.934124
18.416732
46.200279
-30.729435
55.252689
23.405765
12.897856
0.227484
48.291486
66.937277
15.203208
17.157662
-310.541666
62.900154
14.817388
16.296708
86.950251
-41.704884
-450.467865
-432.547883
-424.864068
-0.957559
-0.136564
-0.595038
51.248656
32.069689
53.646526
66.747580
36.567719
3.496443
-8.713747
-89.331166
-12.066977
-39.747267
37.509447
58.854845
-94.907762
17.536965
15.951769
-7.742567
-13.787617
54.819279
68.471316
2.229660
22.715797
78.584074
58.475604
23.855177
59.375517
38.571889
32.440554
21.235560
55.245691
28.327238
3.759681
21.909991
-105.078233
15.453608
-8.970892
15.624052
-11.321698
-4.982774
48.286657
-27.853490
-105.801196
-35.362487
-177.212898
-13.482997
-8.687259
-27.053141
19.059283
18.677706
-0.742868
12.964303
38.679725
53.468187
-431.311492
-423.299810
35.797831
63.606458
8.320654
-11.928322
91.671023
17.256180
-24.109244
34.727498
37.243643
26.981126
37.690675
-435.879362
58.548308
11.851367
-171.516851
1.678819
22.746453
-10.749539
-10.946193
-11.555921
39.610396
51.716173
46.153093
64.020357
-96.708489
-10.318953
15.366942
54.805831
-133.327589
47.276327
27.805426
15.251969
36.363451
26.482209
-17.680453
-21.618795
43.710012
12.895948
89.278353
56.782487
-451.361939
-413.910894
-3.390597
-0.902665
1.107368
1.367158
-341.159777
-168.573881
20.449418
19.068164
50.096568
-8.103404
36.549934
55.925811
-2.025236
42.885658
54.112241
43.581310
26.435141
53.830056
51.525857
24.136766
-9.737969
-2.196133
5.090811
33.030108
-48.041958
-6.752509
66.064746
42.772550
10.154856
94.933402
13.632156
53.869216
87.841981
36.412829
36.682522
-272.356699
17.417816
42.655205
-12.512163
73.983697
74.711721
-137.613252
21.207195
42.416755
11.478107
14.423344
-290.561895
38.356877
33.822097
-296.090150
31.566042
44.579170
33.955149
56.708028
43.653148
-11.561316
25.128977
51.400703
17.946673
-3.115981
21.642362
-3.445201
90.037422
32.079596
-6.445524
2.374325
-63.166500
12.423432
-18.338138
-122.067645
24.082838
84.870443
35.699639
27.782115
72.715294
44.000730
-20.583575
-14.171470
44.907665
-37.120723
1.304865
-96.652655
-92.783374
31.633291
77.290806
-393.476755
65.768972
75.306873
-46.862715
-45.572395
-90.979990
-113.234691
34.480325
55.481275
23.337614
65.887042
18.270021
-247.318694
33.977074
13.443663
50.480135
35.743938
59.219672
50.061198
81.473719
45.548918
25.410254
41.048456
37.813086
43.698360
42.368535
35.384405
94.287956
34.588678
-10.662010
-6.352144
16.380730
-95.940837
87.969417
30.440603
37.777785
22.319029
-1.701938
29.524007
-5.960648
-85.773103
35.460828
58.788396
94.838692
-35.203950
83.646512
19.734829
35.711867
50.896386
34.753391
14.694222
-38.331438
41.121125
13.853160
-39.185776
-19.598523
17.032362
48.428647
-69.653897
61.440750
41.057115
-2.567309
29.302539
55.840638
94.940167
70.775738
3.506317
47.892246
37.469181
68.081936
57.507244
-9.050217
-162.161249
51.774467
48.138009
65.029517
15.409839
-91.453534
56.592012
52.654691
21.984770
-14.353335
55.287085
4.882740
26.558455
48.129555
37.060604
28.363408
-116.465027
-2.140346
-6.656694
-24.852036
-87.906371
-7.372225
14.694692
43.721725
28.688084
18.097524
25.175202
35.857121
36.560366
-106.575476
-124.308080
43.955797
-4.191453
-187.168435
-307.870651
28.430571
66.124925
0.425235
31.920571
-5.188535
17.131817
49.521411
52.661941
58.781629
27.772139
33.467466
-9.415275
55.428299
15.607647
43.317590
19.817976
54.810405
-91.136821
28.037796
40.240926
-5.494867
28.750180
-152.549997
56.994712
40.461220
36.095857
18.054588
11.475307
-184.234810
17.389194
-115.641565
39.147018
-322.807124
21.990796
61.284867
14.910572
39.300432
22.217989
-8.728674
56.409816
15.309834
18.481819
-27.412393
8.811635
48.516933
-1.717333
24.343186
-76.387771
-6.733682
-112.113574
54.891063
12.802164
21.192168
-4.430981
21.799324
-309.378810
16.808467
28.954746
67.024237
63.876513
64.023142
18.507842
11.433568
12.158069
52.376673
24.150150
39.611159
23.835061
-125.899591
63.783009
47.569633
52.088107
29.581118
-10.875741
17.549596
-6.346932
27.063178
46.958494
93.925170
-317.643038
29.704494
-135.499209
-182.903366
-217.221081
56.423127
56.730488
-257.520777
41.234266
3.478945
51.365692
-86.024599
35.143690
81.822746
21.076527
3.245190
-3.391374
-35.363154
90.480003
75.067574
-405.349548
-340.347516
35.729729
16.931861
19.555155
-7.482731
-8.804555
-7.532947
57.109701
-4.269745
15.957991
45.467376
30.502004
1.205583
31.932963
-25.841767
34.515503
-11.809450
74.893701
2.656101
55.038129
-0.068242
20.933681
35.695965
65.015295
32.829459
74.701920
31.159121
53.099079
90.004090
21.555958
-7.134737
17.762865
44.525538
46.709968
31.566088
26.298398
-23.019160
0.497831
22.478466
13.602469
-149.073226
-206.856074
-16.585565
5.540029
44.441540
14.422605
8.803535
14.735528
-9.515855
-47.574423
31.550353
-5.606998
39.617591
-153.068099
19.556842
43.574957
19.466256
49.575474
29.690626
-352.644196
50.990372
9.009574
23.580328
30.177882
-11.790686
1.438051
27.558993
11.614632
4.449128
33.968140
-37.624954
25.029981
-291.968634
-35.203835
-350.403175
0.885536
-33.613994
30.254425
43.652961
1.483516
58.343905
-16.549174
2.642771
-23.652657
-10.559576
7.009513
28.802331
89.278206
30.536071
-31.890044
24.844956
1.066087
-51.276240
-1.175725
19.656187
-26.673248
-125.075145
17.743729
32.879604
-6.404295
-10.248766
-106.575576
-177.527705
16.133244
-4.228259
-300.179731
-3.125971
31.154753
22.069754
-5.120312
22.920075
64.488721
14.376527
-2.892025
18.144572
-307.559050
-2.618468
9.571396
20.793064
17.368982
33.207754
0.945551
-87.923656
-191.052398
-60.963512
68.961167
-0.836860
-10.844467
64.212753
-428.877281
41.635319
13.321807
19.831411
33.334633
46.496718
19.352943
60.810680
14.938389
52.857383
61.000816
25.757807
56.721289
-9.349967
28.701774
16.927812
-4.912973
0.919111
42.110480
45.551917
43.442478
6.075664
-0.426172
1.181650
3.622480
57.690911
-78.526114
50.576162
-318.805865
0.038766
30.601770
50.827151
4.492511
40.959020
15.637466
-7.621728
3.822505
-147.719949
62.962994
53.791868
15.327453
-65.460788
56.128475
51.454529
-125.206562
-117.992272
45.042918
-277.974081
30.264762
67.271091
-6.398848
0.355136
0.161549
15.979286
16.064760
27.123351
85.970151
28.425194
60.729068
15.973560
-12.524784
23.491262
34.016700
-31.865182
63.632142
44.284272
48.050881
13.136928
58.621649
24.117350
63.151911
39.549677
15.921926
9.097939
-34.807552
29.593653
-70.018261
-3.229871
61.175142
40.988375
19.939179
20.268975
-283.453558
-10.414283
7.023628
40.839849
17.472302
47.914835
14.415377
-8.171651
-286.677523
80.229579
3.925920
26.709711
-72.851872
1.923016
26.801523
6.742244
55.064519
-297.059492
22.573832
50.519588
3.262549
-307.875529
70.846311
-5.033858
-97.717234
56.480551
5.661609
19.760994
-7.732526
47.304267
50.925056
66.524338
42.850786
14.111850
87.569130
37.887948
11.442849
-24.759750
44.004493
17.123688
-5.338212
18.594002
50.829052
15.913085
15.698077
26.453975
-358.061105
25.322389
29.484242
-5.256838
32.320008
85.970671
67.672591
22.316104
-11.567654
17.313026
-10.898536
-9.445970
4.264249
29.179187
4.545429
10.249370
69.829958
-238.280654
-13.133918
-296.491281
-11.254426
49.575125
15.540160
-118.288876
53.836111
57.675511
45.867599
12.347973
47.055712
4.993796
53.638916
14.305749
23.794610
55.789451
26.532149
-121.422922
-9.412869
-147.679913
11.969172
-114.960903
41.044142
4.808818
83.395360
20.929967
28.497661
44.566816
-19.418555
76.549035
60.649490
18.292045
19.167552
47.911707
14.852671
49.421011
24.735902
17.035352
-5.137115
16.526477
63.569993
36.494182
15.515624
19.663844
5.497430
68.402709
18.456371
49.964161
36.040104
59.680433
35.630462
83.582096
36.808935
36.549470
-3.241286
10.868937
28.857761
54.201929
60.634499
60.739936
18.840726
55.451713
26.320211
34.290195
61.714021
54.242881
64.377130
34.954481
50.603483
84.461854
28.875326
3.016342
45.280751
0.403471
24.560624
-22.144383
53.745781
9.315761
-118.147587
10.363205
37.650360
-4.856256
16.902194
78.529208
-82.386636
14.987060
56.072031
-34.906421
39.936752
39.609361
8.711033
5.210646
60.266923
32.880194
50.597659
8.704095
26.598750
20.808167
49.482738
5.693771
52.940701
80.383678
49.752804
24.248462
-6.404792
-43.997962
3.043880
46.505249
-164.153630
46.322113
-4.243109
15.857398
4.291702
14.445247
43.760523
25.897801
23.105781
-116.839764
-183.322765
94.903551
56.786152
43.789955
62.547945
62.582959
50.197018
36.636750
25.640375
-0.187961
-2.544021
8.058083
-6.815270
39.062642
-9.010622
-5.017046
54.223012
52.245416
3.959018
18.699802
9.274087
-1.267146
31.233269
57.745655
22.490321
19.754041
-5.447069
51.901504
-210.949626
-168.574493
77.825328
46.246268
15.669998
40.280076
24.962566
9.247702
39.013344
30.577249
60.707907
71.708433
37.294626
62.525088
37.096957
20.981757
20.133197
23.724635
50.341374
72.193142
73.242066
-6.342894
37.811701
26.605292
-2.458409
-3.116995
5.851088
7.500660
25.592172
32.705176
32.943945
36.055056
33.175691
27.288600
-9.081718
14.517847
25.707154
28.265512
-6.407999
-8.527282
29.971063
43.320087
2.782762
95.132684
44.002375
25.397299
73.483731
64.333909
45.914686
22.833321
83.724337
0.915378
13.708440
68.564394
31.537643
7.751380
29.654894
23.489572
26.739826
-10.159166
88.515759
30.701087
19.250728
-8.961775
17.527147
14.031244
-12.665646
-2.037354
58.746024
-56.764600
49.469058
94.635716
89.795169
9.849122
-8.592868
27.219958
63.346936
1.376596
-106.866281
-11.491980
14.758578
-11.208841
-34.816297
21.289248
-138.688376
-0.845251
-6.957896
77.096644
23.315594
-288.897195
-43.168828
-8.620465
38.127549
63.157589
14.508152
47.169915
83.904166
-192.323393
8.562432
-262.692132
58.216163
14.458438
21.171301
-338.390312
94.335272
54.555154
-29.723090
51.081032
34.314378
57.633942
52.547581
-4.927551
14.710151
-9.417009
-307.404820
20.267511
23.129074
53.333654
-281.158171
10.391466
42.900495
-28.736684
47.236995
-19.973799
64.829101
37.229989
1.236116
-3.024516
-2.066950
40.939057
71.666017
9.134387
53.947338
-218.478445
-114.167676
-48.945721
18.603100
24.207372
1.387645
17.070275
14.309784
9.336396
59.709221
0.855030
-2.916102
-295.254249
75.212819
1.352233
-119.216066
55.142825
43.722776
29.212125
-149.411894
18.488061
42.850482
7.848475
25.862890
-24.325143
-9.666675
-87.925484
-177.861161
35.104851
35.411032
-277.193325
69.054056
-2.070193
-12.479890
-167.052758
8.373629
-135.509338
-57.169383
55.247301
-54.017304
0.044414
-3.321780
12.756016
1.473767
-355.760786
95.093726
43.357710
-34.426964
73.199183
44.370107
44.896162
71.069456
30.108606
67.559169
46.942980
42.760542
-332.028449
83.742269
63.578078
59.630954
55.017774
49.678730
32.516470
-298.176178
0.402778
-12.798015
65.652091
-128.278996
-11.678730
-7.072218
-162.291577
14.977552
-151.138619
-348.047885
-7.240582
-5.170634
-6.266342
76.576454
55.217668
10.262709
15.283582
7.514472
28.349731
56.257325
-37.034942
8.104485
-106.905878
-86.031442
26.577415
31.019967
13.749784
-197.685853
-44.580030
63.454743
-142.346393
18.353759
-58.738656
-0.973084
-187.539225
-38.622416
23.824004
4.757647
33.264283
20.615433
12.567678
16.769605
-39.225832
57.747935
-84.070389
-16.582284
-8.187445
-11.939724
64.456676
77.977715
4.537547
62.081816
-246.076757
25.141977
56.609028
41.842670
40.850751
-47.927717
-7.234377
-13.536960
24.446154
15.258447
17.785458
-10.714245
17.508767
50.828223
14.933714
31.590958
-19.185250
21.044774
8.252926
51.552623
56.069181
21.439187
-270.786447
-4.224183
-54.650920
28.157843
28.688846
2.868592
-141.914713
10.466091
49.431512
86.246902
-1.853114
8.078390
29.503190
19.429441
-9.146145
20.807665
7.606079
-46.850448
42.456570
21.109463
-12.345805
52.354796
32.901863
70.099395
92.784556
38.838261
-3.897657
20.417866
41.753858
14.851021
-14.068590
-9.978792
2.107430
30.745357
4.815012
27.482633
14.873873
-117.048452
-31.242483
-26.861766
-292.199975
-6.878213
-37.625004
26.287945
28.762741
20.843717
60.737664
16.263000
-100.820748
84.291002
21.770768
48.304747
-4.143217
-287.632300
-148.078210
28.511580
-365.827140
-217.456567
87.811764
22.955926
26.539739
50.115486
43.677087
0.215073
28.186298
18.184654
-39.124735
-38.211389
-28.280979
17.012682
-7.488516
78.701131
35.783928
47.464234
58.981100
-52.662370
42.883039
-3.863264
52.001615
43.328095
25.383048
33.297931
38.233027
50.392293
67.642800
64.905627
66.544710
31.146945
-9.759611
10.890443
47.093378
33.785369
-76.310925
56.915132
30.039330
21.247225
21.998693
-8.923844
-204.623874
-5.345589
3.296113
30.574255
37.175244
54.709670
58.805517
38.027974
29.864437
-0.005353
17.315614
-197.990850
-6.550943
-145.793823
49.480954
33.387975
84.900262
60.719591
-11.436061
-8.871395
-74.947349
15.991158
40.779301
55.841329
26.110631
36.531181
42.125508
29.398195
54.842137
50.507255
62.003409
-5.692976
61.889338
-105.311052
47.169032
15.403493
44.316202
53.336446
77.054996
82.298123
29.455643
92.989772
92.125579
-43.174855
16.751554
-37.321508
-2.776650
-15.790826
15.248628
48.277025
2.381044
-34.210703
80.884995
60.719231
-20.613845
11.039724
-43.362785
90.558146
18.351450
27.125004
11.203891
39.492194
2.316885
54.462581
42.128361
33.914316
-295.949544
55.200734
61.271585
-244.265850
24.925450
-5.342334
36.108972
16.445255
-13.110980
-7.596913
20.245383
3.359625
-49.033899
82.793145
13.595756
-372.279349
40.700933
51.038097
-157.710511
17.819427
62.767428
-134.861752
37.680952
-120.768727
-295.978170
1.988319
-311.811557
36.519432
16.526309
-45.071169
-44.071942
-16.647493
41.799267
-3.974239
21.797962
46.172239
-157.569883
-106.688546
60.590601
30.112136
20.764638
17.247242
53.834559
-42.553898
54.194440
36.731498
-69.166841
0.782051
1.358908
-2.177918
-233.159177
49.817530
23.469017
-14.310240
-63.842540
8.470669
26.960870
-19.758349
-21.081629
20.764583
55.302342
2.143343
-6.553358
19.679644
49.942174
-2.423931
-175.975914
16.296698
-1.638026
15.752079
54.632520
58.161623
-12.262773
48.431874
81.204937
-68.708483
61.308329
-340.412683
6.053596
52.375748
81.197842
15.039989
-44.196606
9.513457
18.052691
-240.500217
-1.060333
-13.351965
40.149173
-211.081075
59.264800
19.029315
13.521792
8.465285
45.767104
3.054536
-44.104587
-83.029183
-6.276057
6.899198
32.827392
10.405951
52.558893
-37.157763
28.814604
-39.191662
17.295652
-198.003703
28.996947
-64.104392
-23.548702
14.840859
-73.488295
-38.683295
-10.778669
63.362291
26.714429
-9.513377
-39.704092
-10.133318
35.693460
-15.943211
-3.583543
-14.703450
15.243390
10.339059
-90.286881
15.125129
1.790801
-12.906941
-12.961553
-76.103630
6.509949
-76.311217
60.491075
-18.856956
47.206980
61.303587
-30.537358
34.462406
21.318927
-17.227358
-237.935870
-197.685260
74.192236
48.087880
55.531045
24.829871
-8.438487
46.578762
20.753627
-0.468737
19.706055
-117.347688
-12.951106
-10.973330
-9.912393
38.298153
60.247428
58.718488
91.969868
21.038672
22.188628
20.914974
36.344560
30.965122
26.068544
-10.353316
4.495260
14.185574
73.849046
15.821291
-11.676112
27.507160
58.022035
18.244926
-168.007456
49.435942
-5.625950
-318.328885
-146.282753
58.268367
61.298298
14.907704
88.240687
43.139326
2.619249
-10.738474
14.624888
-162.871546
28.311835
40.667603
-5.774847
-147.407502
6.700964
32.818462
49.771571
-88.765142
-54.023265
20.261945
41.969171
2.070843
-95.939614
31.165610
37.189308
50.781429
2.828176
29.988278
45.931662
6.127931
-14.215890
14.849306
36.219819
15.495641
48.806233
-189.132169
-4.172902
25.987281
-89.942315
47.490981
22.491842
49.042713
20.385252
37.157495
-7.315343
94.846981
89.367546
17.900414
6.535105
-12.091587
23.232062
23.770813
16.176761
-7.185017
14.988413
-39.204792
-6.288159
10.760673
-222.674905
27.894112
31.326410
-17.831243
28.145037
57.387609
64.968534
-9.705335
55.921391
19.617707
20.465849
14.774811
26.785780
13.116156
49.547455
5.676747
38.854235
-205.110581
33.045944
42.131940
-44.016890
35.544048
-131.882845
-283.981960
37.407653
36.661865
34.247492
-8.887186
33.704316
8.471662
35.800431
-10.248854
9.897335
-59.029517
-20.987761
9.429941
66.691441
46.927514
19.645885
11.111728
76.535586
-2.891156
24.053078
28.555180
78.227425
22.144637
20.874808
-1.832031
25.073204
-3.178566
-13.593752
42.267091
-6.990010
-14.209757
29.782158
17.590133
40.300715
26.025762
39.550534
16.399660
-84.723242
-53.256803
29.320359
14.702852
52.552928
22.951284
44.817945
16.677090
70.305393
34.235625
15.694878
-49.044202
60.838566
21.311499
23.035298
-5.386913
24.252923
6.838538
43.952883
24.354113
95.168766
64.452076
-8.586307
-2.545212
20.610658
54.860888
-6.267666
27.293920
73.417400
-6.466250
-12.085240
15.273739
-12.580105
-12.786691
57.299159
-1.373258
60.124462
14.426485
-4.125909
3.387373
2.673453
2.397407
21.788228
14.964435
14.394737
35.896353
52.691595
25.698770
31.921369
-12.135166
18.757406
-11.940495
-4.786345
80.152720
7.391341
29.980318
-259.158074
26.724366
17.089094
-5.116375
69.294018
73.923430
28.515391
51.855141
29.180786
69.272087
43.757858
17.063143
16.019525
40.678557
17.126819
26.566786
63.306395
34.455303
21.535861
36.328578
24.533043
-166.762243
-39.589894
29.954907
15.044897
14.998346
90.737350
16.181241
15.303642
58.057773
20.845137
26.790382
-18.784490
3.144352
29.470807
1.669656
-71.376814
-293.378059
-326.885747
26.589074
51.689626
14.731633
17.710858
34.670670
54.359078
83.491358
-163.819485
-31.797401
-54.752085
-62.965139
89.510045
40.347047
-35.225340
-289.737973
-159.421289
7.107647
56.501730
37.755323
-22.750705
-211.081437
-5.738490
-134.912989
-9.374033
-0.981890
32.103806
7.777256
-59.601405
-10.012729
-2.378883
70.308646
51.854376
-12.843171
-0.801567
-1.114055
-14.379245
-30.083729
17.276553
-10.830534
3.432282
30.233897
1.594984
-276.078364
-45.921035
57.611183
14.638838
19.372751
-8.417537
20.750052
47.132106
43.410566
32.777536
-138.308883
-14.002872
-397.812768
4.290456
15.571578
-131.414233
46.222703
85.201235
-3.687595
-21.351063
52.551249
-2.257565
26.398046
2.945869
-23.487806
72.175524
-9.329524
51.689760
29.046213
-6.273713
21.415934
21.427797
18.870504
22.508480
25.201247
-28.709799
-174.849305
-125.898645
12.112211
-59.169393
12.180349
-41.368817
-244.887073
1.856738
86.994378
16.721473
43.725514
-11.802945
15.822084
-2.084235
57.264185
1.171668
-167.751492
37.174839
2.732553
-32.324506
-26.224067
91.030838
-5.776588
-95.944258
-259.158067
27.499239
23.340928
87.958833
42.498927
75.837852
-209.642198
-319.936278
30.529230
18.763006
-310.522164
10.760369
-143.213653
27.598413
25.279800
27.218485
63.296504
-74.923639
9.432121
31.601448
42.118811
-5.448425
67.028302
-10.980574
-70.202077
-1.867112
84.291342
40.015889
4.419173
-84.571189
-109.867110
67.181750
69.312205
32.996025
-74.908159
-115.045559
-355.548696
25.665165
14.850661
-8.237960
28.812733
-336.828587
31.301544
-102.259711
-8.407163
27.404318
27.104556
60.583748
23.266635
25.384778
54.103430
-0.558626
79.781516
13.540950
25.079317
-124.476544
32.405828
20.777475
29.784764
33.521056
43.343132
39.142317
2.275216
14.996738
47.274879
68.956820
-54.594585
25.577715
68.320074
58.520901
54.359305
5.604415
-9.481378
49.436622
10.217170
-88.947192
-262.280333
12.671830
-127.188254
-177.805807
21.593415
37.564521
35.541530
-10.418990
0.068453
17.087912
-12.766884
19.081197
21.128731
44.943878
36.803100
17.373617
26.934925
18.222561
28.059822
32.719666
36.520464
72.564395
-96.246450
-6.125082
45.913262
40.240829
18.897674
22.221254
-115.642856
-324.311720
53.681728
15.069291
30.967856
23.004951
2.359461
-278.018357
89.553742
35.892109
-9.700866
41.845736
29.155811
75.704749
20.647875
32.755580
5.350134
32.725556
58.287479
43.718137
-7.701391
24.349315
15.418451
30.739052
-11.690170
61.177005
27.180750
27.532814
10.766845
2.797367
44.801656
90.920772
54.726650
59.087142
65.956806
52.169655
54.541680
11.931286
70.617135
55.000325
10.154463
-16.897030
4.697645
0.264350
56.013382
84.821766
81.197376
42.532024
-17.175287
-136.708119
43.194263
64.188879
30.799911
-9.054628
26.038887
-64.939603
7.818622
-297.045104
-10.198324
67.326181
-51.859353
13.724220
-14.648295
54.001310
-6.139504
-4.841603
31.664336
68.316513
-31.885894
44.490766
-7.400221
56.474297
45.300657
0.577854
13.505209
95.046188
21.766686
-6.031106
-56.764247
22.830912
50.520317
43.218448
76.529331
-336.712004
14.705615
-125.208742
-44.007358
0.226243
35.726197
24.650940
-313.235895
78.935578
15.610650
-3.192813
91.131601
23.991483
-19.391025
7.982450
21.426976
84.901811
42.132349
8.503851
48.390142
-4.366466
42.468560
16.921591
23.362811
-66.187547
60.016698
4.884090
38.191135
71.562402
34.290900
22.004980
-190.563663
-166.106124
15.348512
30.219402
6.343843
58.074061
-0.959979
-204.624728
16.354991
-46.887596
-12.242773
-76.934747
25.536695
16.220776
-12.875953
-7.846174
15.515353
64.968315
19.773154
25.486732
-342.523923
-96.181046
-205.440687
52.073841
7.866770
73.778397
64.359819
-171.239409
-363.124267
30.546239
-311.804596
21.663311
-280.183477
-281.903189
46.912432
-235.914709
-189.208254
-10.339718
54.219745
-229.056771
-13.275170
24.435553
7.229504
-22.271432
45.447558
50.282883
34.761344
-118.949379
-0.534213
88.108241
7.485103
11.683032
41.299432
-252.216477
15.123636
-172.777778
37.825039
-1.270790
-90.268587
-59.551315
-21.302323
57.496829
88.199332
27.224538
52.834692
29.871711
-30.913261
46.284877
15.429196
48.936942
35.496155
34.821443
26.195132
-77.857663
23.805411
17.500145
17.131830
-149.085858
21.833519
55.415029
64.970045
40.249955
32.900306
-160.479084
74.735896
26.402664
29.409080
34.592708
22.107011
44.141268
44.140526
-148.127086
57.230850
23.848871
30.539575
33.442643
-12.715258
26.373525
35.029320
9.110507
19.511771
39.434721
28.959943
50.812895
2.649537
59.474062
62.816122
39.148233
60.583582
36.014404
-225.232336
24.487808
72.249381
-43.260775
71.069042
-5.848786
-6.378203
13.922504
0.846772
19.483545
-1.625325
37.685438
47.628334
28.993905
3.606044
28.525493
30.050746
25.434763
20.648325
9.117858
54.647485
0.896044
22.644732
36.383634
-115.225159
-2.646293
-103.651773
24.507319
-5.472252
22.900777
50.868889
12.433112
30.438024
-7.338152
-150.704303
28.805723
58.504854
9.772611
36.981176
-3.299492
-9.670634
21.698378
58.468117
-113.235051
18.826379
-2.138848
26.351139
17.820595
54.680763
55.333646
30.683232
27.763063
34.788449
28.100925
11.986364
-31.756432
25.733050
46.687870
21.859404
23.857398
24.464945
5.090909
-8.914449
69.050440
25.310876
-189.874893
32.526413
31.632222
54.011772
64.288994
87.525596
23.723600
52.329302
15.864678
18.587687
39.092805
21.790918
24.838082
33.134221
86.066415
51.935005
48.008735
45.551109
0.663339
56.928200
-9.768832
43.859546
64.051189
58.691690
30.090841
-167.573901
-17.434399
-288.699262
-215.102400
36.317321
88.647284
-368.478132
33.173250
-192.501128
17.605602
71.565248
-73.063906
36.358182
39.067390
54.471934
-11.394752
16.546770
12.230668
-271.130974
-3.247066
17.699392
-28.708149
-187.345972
-10.547449
-367.530316
54.726082
17.381694
7.968061
-10.452993
60.317293
29.876947
-303.950974
87.130504
2.095625
-244.838401
20.630590
18.352194
87.375759
47.108022
57.307986
73.486273
-30.556580
19.369143
22.275986
-4.214718
46.597513
24.061962
34.423140
-135.502367
55.464966
-344.571553
43.569723
-4.243125
38.777421
-44.159428
-266.693088
-197.991880
46.581144
-13.051124
-64.417881
-9.266538
16.104604
26.944861
-65.107300
-42.047936
6.313327
-5.370239
-93.892885
61.029480
16.009906
-247.118531
-59.541151
55.714947
-76.722532
37.087347
14.868253
-5.095189
54.490577
23.920896
15.910604
35.956493
-9.332884
34.485865
-247.329704
44.824087
18.486766
13.327092
14.159257
-168.428598
35.864255
-132.717404
26.310508
-9.511104
-272.649530
18.915470
-346.913297
-72.973357
-1.501138
-333.631723
-65.886102
20.733095
-156.694196
33.872386
40.276857
38.854417
-5.267636
-9.929006
-191.053636
28.282101
-241.420023
5.105846
-18.400989
-19.193867
-11.327874
-12.833106
-104.602611
1.124516
17.973003
12.958370
66.938223
15.428559
-2.346854
-11.525191
17.024571
29.409554
-1.026288
64.766191
33.507212
-3.191379
-71.725055
19.675122
-27.165858
49.510322
-92.784815
41.420449
7.088883
-9.664445
7.339432
20.602498
30.573046
37.699662
89.066503
0.199390
42.573296
32.483238
-17.631171
33.331829
-10.685904
21.515646
-22.754777
-12.916944
-2.696780
6.844722
-22.419194
-168.416903
57.827410
90.506651
64.304442
26.450651
-203.415379
-3.672711
37.497421
-3.882090
60.264349
59.607870
24.434474
-66.343197
38.026401
37.741686
11.795455
-9.028269
-9.487463
87.525225
15.819233
44.942675
26.637678
46.875299
23.413699
27.619398
-4.072979
-143.217229
-6.801185
63.171219
51.505348
58.476069
10.922589
23.876485
28.099676
79.505658
56.614799
0.283094
35.528920
42.697243
-4.278864
47.827857
22.426168
24.849589
32.078429
-23.655914
-286.425668
14.796973
-3.299461
27.337700
15.338916
45.163144
24.466895
23.281812
-177.198375
-154.467064
1.452739
-0.046298
-151.886576
-169.936297
58.383750
59.753788
86.247336
44.583053
55.816914
-109.864888
48.238170
26.531339
13.958604
24.072227
-301.482468
-137.906810
-12.253936
-21.486602
30.206289
-52.936474
-1.618602
2.785682
82.792747
15.284832
46.198730
26.697952
9.812293
-7.356436
50.066677
-24.334761
42.623359
16.906692
35.336598
35.633729
-88.793451
40.918186
14.606743
-0.360658
14.153634
18.309824
17.476401
2.599491
18.110251
-12.656654
43.015508
-9.265339
-3.526344
-23.495439
20.165482
34.267611
26.044645
21.811303
-51.441991
0.717508
-294.941621
-264.823154
-0.396901
30.572099
-4.606553
66.749132
-2.661991
60.771154
10.466559
-336.711894
-29.193534
-30.223890
27.823645
35.756574
7.122962
32.028448
-4.275713
14.839822
12.003109
52.676578
20.664442
-2.549263
23.707463
-9.987017
15.230047
17.531718
43.853036
-114.031228
24.953666
43.976976
60.883681
-217.220883
2.661681
43.855502
-9.233701
26.101350
-167.227118
-57.286090
28.221112
-130.200477
15.113345
-12.350597
66.638678
15.494759
-7.674634
-3.450842
20.238189
37.084474
3.724007
6.878405
25.649455
-111.314952
63.504291
-114.210169
29.522785
17.413654
-39.513553
43.903423
45.762891
55.416402
40.275157
30.597790
9.515312
19.590961
-7.987140
44.297074
28.313368
19.290174
21.812546
39.481627
42.897725
16.916153
8.501286
12.735219
35.415064
20.921245
37.346440
-4.359824
5.900412
41.414352
37.391338
14.300852
26.581429
-7.365629
-28.412860
53.164746
-43.565401
26.530889
15.130225
79.149420
-11.792155
-347.571300
20.654529
39.123879
50.868571
23.661917
9.267690
-5.830590
24.140088
21.053916
48.373543
25.101609
-10.394360
15.118185
17.042079
3.876097
23.669125
-12.498783
-13.053160
-4.074878
60.701466
45.885913
51.348433
6.892271
32.773483
-2.982413
-9.170884
-9.563770
48.151118
34.566249
25.983977
66.960121
-2.697241
-0.137407
12.428663
25.127067
53.733233
2.325848
7.476395
8.457287
9.360659
2.188378
62.619726
85.970946
28.113808
-2.768029
-343.106374
79.423972
-10.387444
-222.096765
-341.288301
-13.370288
21.855421
-74.908003
-2.079463
43.550918
22.654175
34.781043
-16.561178
31.331629
-338.393924
43.465224
-246.512946
-14.527988
-8.440718
21.186498
-10.491705
-151.840497
58.619799
-14.155953
65.541055
29.476373
4.735593
-260.435148
-234.178718
86.994624
65.637479
58.170656
-3.724980
28.763293
-246.511679
-105.690673
-1.666915
-14.019174
8.092154
42.893690
15.822498
-13.015624
22.808772
30.034127
17.615955
-93.690878
33.648258
7.407700
0.363245
26.615452
-40.705814
-159.062401
-252.216089
-71.225343
67.502757
-35.936777
30.306002
62.473633
14.179206
4.014610
-2.191456
14.842387
-4.623730
2.752364
85.691929
-166.501637
34.286170
-164.811248
10.438659
-150.792961
-300.625910
15.035213
-258.721431
26.422797
-162.292241
-24.722971
14.453858
-10.069755
7.057203
13.597082
2.754373
78.595070
0.621349
-256.063097
34.864315
4.372931
58.343546
-152.981996
-3.687097
53.991581
44.184344
76.534148
37.833762
-10.058617
-135.792126
53.591265
19.652882
43.190716
23.219202
-324.968227
-4.493054
-11.425464
-145.628678
36.836862
45.366169
5.905399
57.330516
33.799421
25.793841
-35.801739
21.043437
-17.830823
6.779054
-4.496464
47.982759
1.703043
25.353353
-135.989328
72.727244
49.066677
-276.231267
49.037605
32.516883
-91.304210
17.082962
65.135946
-75.327430
0.799523
-93.258370
-58.646867
23.931060
30.479723
52.704660
-37.567716
68.580333
19.823537
19.687544
-11.441840
29.326451
3.990240
-97.091291
75.781683
1.065243
30.783827
91.547816
-159.052682
-261.002809
-253.940680
32.517894
-250.567371
26.385607
-10.821613
-100.810956
22.851640
0.407048
-13.221417
34.774259
14.728878
-84.568714
1.652383
31.570963
36.485619
-10.157994
-205.103381
13.425058
-6.825977
1.256772
48.126039
-2.291125
15.245404
-1.371611
-122.644068
12.476103
-17.841303
-39.360587
28.449818
27.723777
-115.259796
52.237425
18.149112
16.009909
31.115013
-4.523711
13.711313
-3.816264
37.074528
-1.390676
48.904908
-154.553941
36.716897
35.999657
-153.357112
-125.647638
10.588208
7.992841
24.681541
-168.883390
24.176389
-25.410511
-176.067189
25.421401
-134.533419
21.032469
19.801280
18.103291
-9.311888
-135.499293
20.011179
-204.526326
48.811370
-26.223501
-10.915581
33.498110
33.995744
-50.797278
-67.572085
-255.665049
3.191807
31.710474
16.719698
18.193069
16.444702
89.305925
53.833761
-10.091784
-365.827039
9.667087
24.973145
24.651275
48.289456
26.532449
55.557240
-3.267470
43.182866
-9.710016
68.653528
34.480587
56.992927
35.996559
52.454872
46.561199
46.674421
35.208198
40.373092
39.759263
26.128229
37.683190
26.174613
30.615355
29.494331
-8.957457
76.886733
36.165396
18.462076
28.228495
13.617574
28.496896
-248.017335
5.681739
-115.217082
42.484660
35.209628
21.766453
16.458477
24.020454
-4.132131
21.784894
-7.819775
-12.307186
-11.367976
-9.968312
56.024972
12.535770
0.481063
-17.112056
26.440871
28.692864
14.231860
27.615327
57.189478
27.008095
92.432546
32.695235
-4.191682
-3.363848
-1.639446
37.755117
-36.141796
55.591947
-11.072628
-32.715984
9.743703
-112.131166
-268.316383
-12.991343
60.573346
3.557223
45.252978
17.742075
-14.192665
-119.578244
-42.924603
28.769641
13.242975
61.864787
-234.179440
25.080312
-270.839016
-169.936236
14.677674
-162.055891
39.656780
70.174145
-271.926327
5.390365
-250.268057
-6.923944
9.274842
24.054610
-44.163481
35.846848
20.190094
-147.679742
-7.810087
62.590043
28.542189
-355.887717
23.516327
-82.701487
-317.636616
22.654304
-157.269072
17.951449
-209.646329
-18.269971
30.800786
-388.420594
-4.173720
-99.101675
-154.611018
86.061706
5.125303
-134.266582
-126.234805
-7.676508
33.237583
-94.902908
-37.952982
54.197858
5.109780
13.886031
93.903692
30.129202
39.485340
-0.158764
45.459848
4.304526
17.518786
-59.049769
11.657341
45.212054
35.301340
-10.489815
-10.997530
60.155196
32.780658
47.305435
16.792735
-5.225630
-238.921915
-200.799040
-85.767118
94.335166
59.363600
-4.145941
13.589003
50.689879
21.731216
-8.853606
59.254116
-7.222497
27.717965
-196.212673
-317.721758
-263.080226
15.796501
-61.768227
25.500825
-11.539511
17.714789
-10.946346
-146.216263
22.774372
25.558649
58.162120
-13.250835
34.522325
60.657106
18.042832
5.845910
7.321366
36.308527
-153.357071
8.307373
-1.367962
23.101737
-11.973887
28.693977
37.745874
-19.184915
0.132034
-12.551594
51.406289
-414.964144
-26.688563
77.276407
56.867511
-59.394091
24.795076
19.792345
15.684945
50.704043
-5.714586
-133.500924
26.220825
-257.609149
-3.775494
58.260836
12.694220
-13.320964
42.583913
-9.100402
9.589804
27.237586
11.957185
22.473180
-40.268134
-96.621383
-4.870396
-5.394731
-1.227287
-0.984147
15.741253
10.071712
54.505710
36.547105
47.288629
50.186010
-67.220771
-1.545167
44.955576
19.520085
61.289386
-180.883947
15.758520
-267.464239
-136.814424
-365.369750
16.006332
55.200046
-62.789465
19.553980
-32.334358
-6.024956
16.732539
25.163485
44.280611
49.618207
-2.266743
4.470534
-259.303621
14.742143
23.433347
-17.047150
55.083297
-9.306958
26.837251
13.612023
-122.604621
44.829921
11.016769
25.571553
-266.992883
56.412208
14.612900
8.162451
16.081717
-14.014722
57.230431
-12.715369
41.432424
-45.572092
20.383607
14.749603
37.503844
28.687586
-66.026679
36.123601
7.475012
29.884407
16.262818
57.227569
14.992765
62.240436
49.539801
21.450205
26.800301
0.123439
31.467633
-34.412680
-162.161062
54.384475
55.166595
54.747680
-2.778737
24.582851
17.937257
6.851235
-0.452398
-0.777764
43.170198
52.559806
18.956534
-3.041727
29.484909
57.704871
16.942496
0.418052
-1.492887
22.830152
23.292310
26.563964
64.144782
84.869937
25.282733
-6.644629
18.998007
26.285707
15.106910
37.220970
40.065877
-80.785816
25.245681
-11.241875
-14.059581
57.172724
38.030629
61.124198
13.708524
57.894047
-139.662685
-25.773648
-160.478856
63.731627
45.980998
46.494347
31.510042
-7.039510
-2.643214
4.538180
1.873830
48.558460
25.818414
-201.034980
-286.154167
6.065602
18.406513
14.277373
21.263453
18.465116
-6.557711
-5.925712
-302.637455
-8.606943
-166.985252
27.089653
94.684146
-87.071401
-27.742391
15.847204
16.058903
94.583399
17.551561
27.648859
0.848422
5.990826
93.704321
25.329272
-182.951017
-117.348833
0.362885
41.351628
34.500148
24.638208
24.955758
-2.706119
-104.588562
32.830592
4.500488
-247.573835
60.409203
35.460562
-9.724648
67.282911
-6.368240
35.057106
20.025713
93.886318
-7.379479
21.148985
8.694208
-6.448406
14.064638
80.808456
-152.724958
90.314952
13.621983
31.698592
88.199123
62.081121
-141.280533
44.108830
1.368876
-177.860979
20.431004
62.070835
19.057613
12.926850
-80.936610
-9.871999
25.113961
23.927319
36.955052
42.319930
14.276321
4.788854
34.851783
29.460401
-254.678025
-221.262005
-1.926061
20.735468
31.698675
27.855189
-179.497395
23.717598
-153.736559
-4.197596
46.461176
90.412428
6.498825
43.567522
86.343837
-6.430557
7.086150
-142.343496
44.487068
27.612011
13.900363
15.663653
-5.562404
16.930289
16.117818
-58.507854
55.927385
-94.725562
-149.316987
54.963268
-10.411796
50.614276
-365.825085
-47.736452
-114.208095
57.738324
89.886643
13.116187
0.410109
55.992567
37.947104
34.270498
-168.433444
-117.983062
8.793589
59.901929
77.512556
-11.116150
-6.446932
10.076497
35.418286
-10.858722
15.812168
-10.619491
89.012918
1.357940
83.303346
38.038173
35.733067
29.153654
15.371149
40.201103
37.823298
60.290488
88.922383
3.145333
41.893691
19.397263
22.969582
-86.960872
-1.664276
-11.474451
-8.613208
89.993906
45.686658
8.587211
38.615053
38.116986
-99.102069
-250.268056
26.449207
11.457871
8.810653
23.478007
27.773339
-168.982340
74.258239
16.518290
59.822230
-100.238909
68.450845
-10.990004
34.882322
58.036136
-118.008485
-398.758306
-112.221376
30.583651
5.228889
11.136112
-168.883309
-362.138884
30.758428
-9.947220
0.545187
66.332863
33.976795
13.751640
91.855161
-10.124888
-36.232339
37.595661
-252.493473
8.904596
22.904097
48.793988
-104.602916
88.431464
-279.884499
13.153460
-201.325527
54.680183
57.236112
-262.691882
-75.952086
19.115243
16.410805
13.450174
-167.568081
28.160340
48.293221
45.854238
-350.177106
39.485649
10.647318
1.138301
25.588630
-422.203994
-155.774834
30.247625
-229.900096
19.448644
-5.583011
-6.805119
-2.256247
53.308343
-164.153475
26.881333
2.971768
-17.833749
11.319648
5.631967
67.506991
-189.505257
84.759800
22.008942
42.982978
-272.356696
-43.577598
17.894504
-68.497979
-37.169977
15.580949
-54.016553
91.226453
-260.570939
-360.557323
15.491445
-286.952684
18.273819
7.970907
-25.842778
18.335967
-66.599807
15.317733
-10.243561
36.042738
-226.012750
47.650955
30.543213
-98.206598
-34.883773
92.040735
17.570870
-119.785260
3.437753
-441.528842
-73.720489
-91.116261
-61.162495
55.369169
-65.813359
25.887547
-7.007922
-10.584759
-65.708789
22.808886
7.295132
17.422990
92.077709
0.284231
17.933977
-87.437351
55.510292
-57.282249
2.820356
56.785981
-11.990955
21.762313
-7.126492
57.654049
24.577825
-314.630195
-9.660261
-6.455775
53.335787
21.251940
-0.379576
28.215558
-13.258176
-145.793616
56.065062
-4.374209
-145.147717
5.697346
13.006682
-9.368551
-217.997542
-12.112594
-211.905543
27.774012
-27.975505
1.699709
-180.883829
21.754226
46.769241
-331.231392
43.480134
-294.499339
29.019095
19.558401
60.771024
29.383424
7.515543
34.496444
26.530864
9.090688
23.165142
35.517936
21.441481
60.737508
15.144791
-0.041919
-0.489009
47.402528
4.750491
28.271511
-2.424790
-4.096614
26.283856
1.703039
58.391069
16.747054
41.331614
16.512842
49.716837
88.704644
83.394770
16.398224
-12.566927
5.720052
19.436063
6.657692
27.212378
7.814905
-187.018166
59.735218
-72.909622
-50.760955
-175.500504
16.343800
-52.449912
-11.967109
61.746641
-166.175402
17.434764
14.671357
33.869458
57.041111
-55.198878
-165.776837
26.635662
19.728718
-134.746630
25.942081
-54.762190
26.151302
42.160777
13.774413
-40.497351
-12.563719
14.931869
24.479494
-106.656025
-47.568599
9.309766
40.783827
17.490714
18.265106
-12.651422
-11.028057
80.697040
-150.704192
15.027541
22.231055
-9.264275
-9.934489
-8.939653
30.565312
-48.666594
28.446176
31.922465
30.154902
25.811051
-6.747248
-262.995113
-164.811130
-130.986927
-165.776749
2.555939
57.192255
0.571993
-2.785593
33.207386
19.935259
60.123615
-108.494385
1.211540
37.735892
-218.690302
-2.265189
50.776348
15.267248
56.136860
39.395110
-7.958198
11.140566
-229.055661
14.494299
-82.451336
-180.059560
-233.686323
-183.914278
4.687590
15.649562
39.809053
-5.899755
-171.253311
31.734605
-213.684315
62.142948
-343.168845
58.740572
-156.407584
6.594143
-165.991200
2.187339
11.264180
6.555147
15.856292
-150.981631
16.248995
-3.253173
15.042023
57.490441
0.165210
44.656616
31.281670
-233.684177
40.394316
26.601637
28.207479
19.686634
26.799655
-41.438093
30.346970
58.809026
7.102736
23.024518
82.134606
33.011754
87.425620
34.247561
22.859466
-176.269934
-103.895066
-12.138804
51.407372
19.231196
-7.984229
57.628818
40.942382
89.785043
-257.409186
55.754908
-440.782589
-10.646539
-12.635591
51.526410
-286.490040
15.577917
5.924149
8.298323
-11.688533
2.786233
-10.296304
-142.073263
14.256489
-12.610521
32.745290
-357.411781
11.383486
-148.378086
-285.741645
25.295832
47.988390
-12.236736
-257.547384
-95.322490
-345.506259
-48.100423
21.207652
-281.090792
-8.084697
14.593370
55.995526
4.239477
-1.729125
24.872508
14.812604
-8.665279
11.219099
-113.143661
5.394887
8.011706
0.997889
42.756485
13.961215
50.204357
61.563255
30.451340
-237.531005
7.968601
-237.529289
-11.264663
34.043740
33.151976
21.940149
29.668076
57.618130
-2.486623
15.201768
24.725350
-163.605567
15.191081
93.117625
-1.208483
26.631974
44.620353
20.065905
-157.086100
34.821850
34.354697
1.292801
37.006037
59.732914
15.416741
-160.302221
-227.549658
38.789326
-12.687327
-11.926578
-0.940529
51.305208
56.030842
-80.022201
-238.437957
-159.699630
49.885823
42.822362
-9.993371
-36.042408
50.822722
-342.523956
-301.850311
-58.483614
-3.208347
57.588775
26.273999
12.922907
34.576317
28.049863
26.723461
31.074948
-286.163540
57.792223
58.850185
48.283813
15.611065
40.997295
20.313487
26.224619
22.118632
90.766425
28.844240
4.642071
-2.948108
6.324715
11.103024
6.241986
-12.905618
13.584403
-10.974026
14.197503
62.757056
-394.580622
-151.407187
35.304975
-394.998166
-274.829783
-54.006533
-150.280525
8.212539
48.380416
10.411985
55.222534
-347.571317
-23.723343
17.088907
-325.278707
-109.459053
-1.051847
8.244082
-402.593851
9.112876
31.722786
18.442485
14.611133
-44.084787
55.809599
26.250302
91.648875
26.202796
4.445887
-14.790734
11.821076
23.196184
-172.774472
13.504288
60.630839
-208.086937
-41.698870
70.407253
-209.243747
-125.070096
15.279227
-109.204183
19.868577
56.331208
44.259794
41.467176
-225.746049
15.491932
-380.498699
31.198805
-0.410201
43.761228
44.859603
88.852271
-1.679545
-170.726359
48.785750
62.332269
88.065613
12.401690
-5.948675
50.869495
-59.929299
-268.006376
-1.853307
28.026377
67.155881
-2.758512
-30.223353
-222.148822
32.309335
30.264482
32.980199
-2.538718
6.881549
31.150904
11.448149
1.298324
15.993625
63.529011
38.567374
26.015240
18.933404
-200.453723
12.135713
27.422660
-11.808819
25.893637
-166.757977
37.317195
43.147601
17.972999
-12.387411
17.515186
25.363641
-151.897460
30.970666
1.881666
-198.001809
61.434205
55.510054
1.674134
22.114991
92.758137
-25.232874
-189.698404
-93.694788
-302.640682
-279.589960
50.196789
-107.479099
-170.439143
22.486805
18.222001
-183.535064
-182.019371
55.603263
32.528421
-11.027729
-246.082934
48.153116
15.545935
-251.822122
24.191970
3.506351
42.627916
77.434927
-12.427757
23.573615
29.733051
75.318293
54.066320
-2.316749
-7.367913
0.167767
-14.903691
11.699965
32.793323
60.883753
-181.179068
60.921289
46.159229
58.483356
2.841609
37.389603
22.104404
90.912587
8.929423
-117.950268
47.108790
2.144572
17.852144
88.275215
41.978537
59.589583
6.841792
-4.931755
-388.420454
16.583331
29.398922
-8.765915
-0.920742
46.389379
47.449789
-298.582138
0.549968
-246.973881
-175.649058
30.758163
7.478267
-4.214055
89.993878
25.703434
-10.922324
-3.797259
-7.626749
17.076484
22.319831
-182.573356
25.208140
-11.192737
18.077518
15.032926
60.246067
83.424013
56.697937
12.473093
-136.870921
-10.904326
0.607680
0.127494
55.910814
41.650219
38.183560
27.135633
24.220496
61.867770
29.378343
28.874762
-157.564890
28.703902
-396.509745
63.276555
20.526200
-348.538717
31.590727
28.382222
37.873796
67.537244
15.233020
38.243441
16.173201
32.009395
25.582299
-0.638936
-1.334359
50.412439
32.393747
64.031924
10.996664
16.287608
-1.921749
92.259205
36.096191
25.783870
-9.913724
27.419592
62.512361
19.601734
26.031478
93.379010
-11.672126
14.916170
-60.252208
-258.484236
41.773338
14.832785
-11.195041
51.825736
-214.345476
-237.513550
4.797302
51.507127
26.033947
25.443140
-57.449456
39.409516
87.864590
-288.701631
-255.326322
10.038589
-8.021681
-151.840412
28.536325
-222.388789
-4.380091
-1.524773
73.099283
52.239715
-1.930764
-1.316057
38.764462
8.709767
-205.837302
21.744969
-52.127357
13.599941
42.542448
55.027412
-0.140957
-9.596266
-339.401690
11.740956
24.965286
-234.331541
63.346774
14.432125
47.193182
45.923149
45.715370
-4.636323
53.858450
28.910133
-267.316948
14.411176
11.797596
61.746617
31.160622
44.673495
45.132861
35.708419
25.322691
90.554060
35.493133
90.633519
46.117013
34.857687
-384.746800
-331.856792
-247.880464
52.849786
23.937407
17.204715
60.321794
12.802127
-138.657157
23.186735
-191.932194
12.271156
-63.846025
89.012972
-366.388841
8.183275
15.659918
10.265828
14.044326
-7.883536
-0.875150
-134.862313
47.714393
49.628452
-392.106192
-2.410419
54.275717
59.019847
-30.591547
-158.560440
-92.234462
-252.905731
18.793438
-85.903998
-333.407854
-443.267310
-44.172507
18.900143
-276.016917
11.685304
45.626174
25.413182
78.064194
-392.040858
65.390868
75.509968
39.329030
27.686773
79.691617
7.106722
11.424153
52.359666
61.258814
25.444973
-327.319772
32.709060
26.432910
-373.329075
-28.474235
30.970730
-173.842873
14.985435
-294.378604
21.044572
26.274329
29.710966
-168.841231
23.856615
-106.867568
0.561027
58.086945
6.851613
-12.589709
-10.436407
93.138951
-9.590914
51.396406
-108.308652
-409.246356
-392.040943
26.667829
26.468537
14.859856
4.018684
29.624685
13.799032
73.036289
26.837236
-13.289073
26.697907
57.085926
46.268698
-131.053115
23.083525
27.337330
16.698443
-296.211934
86.153812
27.225308
22.452286
10.880047
-10.543324
-282.077438
-3.241519
43.166028
29.171584
-151.094149
18.944426
50.602070
-390.396139
-122.977607
-423.189270
13.190464
19.823046
-381.631941
-418.521769
-379.971888
35.062224
74.212932
27.022607
-93.645079
1.501328
76.093139
5.085582
-1.413274
47.680834
-368.476773
-11.806994
-293.805327
5.624335
42.836060
-2.187477
47.763013
14.348982
57.617651
3.873883
27.148935
15.689645
88.210580
-0.767574
-1.226739
30.493005
14.791500
14.164453
23.682611
53.795915
-45.744977
-109.615727
86.574758
12.976656
-13.810041
-139.329951
8.494350
59.034864
15.128184
-437.962715
6.745743
-123.719562
25.447373
57.620756
-184.231717
43.490235
-412.066772
-354.011296
26.174134
25.735376
33.107841
55.508962
-101.012097
-3.566526
-177.669398
56.073201
-445.418288
-121.102388
56.136923
72.373063
48.056608
39.461581
-5.394536
21.045801
-11.566680
-105.078688
61.247091
0.367570
-368.834016
-77.935176
18.450851
-384.403817
17.516055
92.820482
39.389251
-5.274528
-12.090850
2.546724
25.362928
-154.022362
-254.654015
-420.889678
-118.149521
94.192847
5.386850
58.444880
61.517726
-149.187218
-266.560754
74.306898
26.266635
7.132751
-143.659997
2.170997
17.138134
36.535157
-201.824249
14.342398
-3.061578
-0.754363
32.049267
87.477042
92.419312
18.752682
-305.614225
-196.464600
78.460559
-0.416963
-362.193518
27.720034
14.014596
20.295416
22.769074
-389.982732
-29.578569
-12.599626
31.599674
18.700718
61.614031
47.045926
17.187045
0.244034
92.502149
-11.992063
-124.092935
25.201198
-124.819223
-20.219576
47.353579
57.634068
5.201605
-149.031526
15.883457
62.020073
68.232132
-11.104924
-209.528558
-132.132825
-119.217097
-190.309586
-395.326500
4.185920
51.422127
87.745422
0.848811
31.282057
-12.056611
26.562176
28.015771
39.700535
-367.263009
32.357880
35.209060
-243.256418
-418.521667
37.827258
-122.159653
22.860859
39.765362
24.055180
15.466892
5.780813
-137.583927
25.447374
-6.070724
-0.939659
52.000821
56.462470
-132.410652
-10.917575
24.959381
81.786454
-219.225479
22.790281
2.160246
-374.401839
22.257694
61.259039
36.423471
92.077951
-105.509239
-32.728860
60.803053
77.092338
59.386248
-0.626729
4.983759
24.030692
17.111318
38.597151
24.463336
22.146020
56.715534
9.479174
-302.143308
27.837326
14.608238
-424.173995
21.206376
21.158928
25.741135
9.934196
0.481313
48.947068
-390.058609
-11.490230
-181.463046
4.321506
60.196481
-137.567979
-276.722488
25.353472
-423.845785
-136.118382
93.032785
91.548118
81.317248
46.666268
75.068678
28.865916
0.851053
58.817931
57.551648
36.118071
5.092525
32.010941
27.881265
44.906215
59.117058
14.261094
-9.685771
54.455349
45.087736
0.508249
-8.305652
-10.445911
3.650596
-265.652891
54.828458
46.643751
58.799171
22.889969
-11.831098
54.125607
-393.355753
19.238669
34.436183
-398.412508
-6.723846
-0.834460
-96.668064
30.951596
36.229991
25.180822
-379.041730
61.043260
8.885413
74.309023
37.060415
41.268554
89.863565
55.646772
51.368568
52.101773
26.734267
57.925081
36.672803
-9.280406
54.172118
91.992453
49.056705
53.356084
2.364142
31.841051
-0.673085
-151.115986
55.971685
0.793015
53.486708
-206.586912
3.411360
42.343514
-354.058396
60.330429
23.210008
60.737707
-420.008209
-108.646242
39.305168
7.416894
-421.988531
-10.580263
54.796294
13.552012
52.209391
30.670528
10.015206
25.014324
91.139770
91.619227
54.498305
-137.260615
37.742924
-78.453597
-371.634894
2.995769
-385.189888
60.330690
18.403146
-122.379093
23.994089
-151.142049
29.184866
50.989311
0.925792
24.495443
-378.183978
52.692116
11.805949
4.351113
21.689021
18.907825
1.933941
-131.076694
-370.282336
-106.782409
-447.492913
91.619004
59.822556
49.949358
28.568462
-121.130339
45.398597
90.912956
-397.812782
9.749537
-389.418007
30.124547
10.517023
9.485218
2.241256
8.467914
-325.184337
22.571824
28.214080
-164.332999
-395.368953
-422.648152
-80.024024
28.694779
55.513818
50.633575
28.658591
-93.280024
29.660319
25.623149
25.241722
-417.270699
55.100538
34.196219
-10.881110
26.137789
20.242469
6.458483
16.697908
85.658291
89.459814
29.444362
58.034545
34.334966
34.821868
13.966134
76.382955
13.395406
48.741507
5.858290
24.943888
52.266240
-143.103799
54.256708
24.634780
55.204725
-138.710156
30.821922
-373.541538
7.742564
56.881693
89.350554
41.163519
-2.729410
23.412927
22.198759
-144.097492
23.767816
30.583850
-393.478251
25.418777
56.472084
5.786517
90.554410
-14.185804
-136.710313
-12.001953
14.887457
37.669105
-336.611390
33.581656
-211.720232
-104.589961
-123.744631
1.729182
57.894021
-268.324730
29.256177
51.491313
60.246421
53.801113
28.592044
-377.189081
-406.089261
21.530888
-1.907473
26.019854
-125.914872
84.248858
5.113464
21.242830
14.266691
22.225042
31.304948
52.977700
23.734298
-10.414953
-12.600860
32.803398
3.069510
7.366452
55.455863
-409.351811
83.759162
2.193629
-406.043439
36.638724
23.493558
7.112928
-1.974140
4.380451
18.611005
24.453302
47.578847
14.159650
-370.667909
-131.769873
19.520527
-389.982867
49.029347
-126.957469
-4.389304
19.291105
26.160935
2.223252
19.453453
81.255799
-421.163676
-372.279332
-236.748120
-1.411761
52.661793
2.911614
-6.588432
13.373835
1.400748
-108.641466
-94.684616
52.288717
-392.106299
25.371684
29.677709
49.804437
29.100494
22.622256
-89.460246
28.152101
26.728363
-196.478625
52.673673
26.196243
48.363014
30.946895
53.308469
-365.227887
-237.519443
-11.186677
-445.838141
39.487119
24.574034
-374.401347
-5.135355
79.093449
-438.872207
-412.324995
-383.473011
-419.245496
1.825325
3.387111
-331.523056
-399.593195
-416.703364
53.063962
-417.270563
-3.581000
-10.515986
-3.613672
36.373391
50.492701
-137.274812
-15.343963
31.995485
59.213757
-46.630915
21.557845
3.451802
37.804180
1.696881
-13.596272
-422.483272
-12.571058
20.247050
-230.634490
29.735641
24.436054
20.342104
-9.387404
-338.395345
53.637814
-397.975595
-344.463481
53.262554
0.225055
27.242339
12.938413
-11.873966
-257.527462
8.355506
-132.688539
5.159914
54.386079
17.705666
31.096574
48.155332
-316.772079
53.022883
-12.643376
-288.903651
-3.308059
40.119542
28.553539
54.282412
-422.483254
-297.067814
6.770240
-394.341403
-121.748305
-164.348418
11.565805
24.955495
25.807665
24.707096
24.205100
-11.610041
21.995631
24.517062
3.645059
53.878898
-416.703233
-394.086797
-8.697849
-2.850204
54.684886
-395.326492
-12.750625
-393.901325
39.174248
25.982442
-414.551970
22.623232
-369.555242
-257.418572
0.002771
26.912175
-302.146477
25.793605
-424.173987
-387.530143
-279.599958
23.901593
0.631793
-129.054310
28.842677
-2.870720
21.027329
-177.683113
20.572564
-30.994668
1.796615
24.527612
11.927068
-4.125019
-225.755730
54.781125
-2.896674
-134.748140
-10.479848
-422.204054
26.172172
53.642950
-386.113337
55.017397
27.667417
-108.550084
55.495640
78.619433
30.313797
26.188528
48.875739
-2.070723
7.804716
-406.089572
-4.186251
-409.246609
14.880574
26.667874
26.603972
-5.419117
-394.341361
55.228852
55.223206
13.478018
26.589812
14.447109
26.946313
22.288899
54.540206
21.692724
-12.342685
10.125005
27.115952
-378.184292
-92.966832
53.023611
-374.401730
-0.458392
-370.282800
-11.250583
-40.535487
1.179292
-369.555723
-3.866966
-360.558022
-409.352070
-397.324255
-448.722578
-361.028270
-4.491200
24.441417
-143.879231
28.625941
-396.509790
-266.566543
-373.541935
10.940706
22.140730
-166.190250
-134.996330
27.314412
-75.346961
-18.811609
18.987444
-349.076574
-354.060345
-420.008286
23.201898
24.506451
53.065090
-365.825647
-9.747569
-395.369015
-355.888530
55.015370
-365.228468
-119.204549
23.762384
-414.552135
-1.550705
-390.920578
22.353815
-285.101823
55.325281
-412.066977
-107.087124
25.686131
-346.915596
51.090253
55.586358
-340.352093
-11.144970
29.454518
56.068960
-355.542067
5.104037
35.927039
27.662750
-414.964314
-368.345202
-384.747009
-135.290093
-122.990799
-355.550604
-305.619219
-318.038911
26.957538
-390.396029
-333.410954
-398.412975
-397.324226
-419.245390
-389.418688
26.188611
32.758468
-381.632198
-402.594229
-393.355815
-214.356246
8.446443
27.235136
27.429646
-360.842160
-140.228972
-182.965298
-113.706924
12.021225
-394.581175
-373.330242
-164.627409
55.558605
55.868412
-423.845810
-390.059275
-380.498966
27.911021
-219.238488
-190.322443
-394.998191
15.359379
-348.540967
12.365619
-75.326003
-394.087362
2.746962
-385.190688
-367.264397
-256.968717
-398.758764
28.052894
-383.473228
-412.325205
12.467468
27.840242
-379.972845
56.191694
28.171921
-217.269157
-243.267209
-350.404148
-325.186328
-403.126065
23.342650
-402.397676
54.630997
-189.711823
9.695147
-256.733089
-384.404634
-159.532067
-238.294160
39.495844
-111.941456
55.714613
28.165717
-274.840245
-213.581540
-324.970173
-201.836468
-354.014885
8.998553
-222.161355
-224.944200
50.631172
56.198880
27.544352
-338.391696
-350.178108
-16.571198
26.254050
27.560927
-379.042707
-15.896663
-1.341416
1.276327
-206.600876
-106.789418
-202.546134
-123.734766
-317.724054
-341.162422
-296.217698
55.794442
-278.817830
56.237023
-11.874799
-13.909939
-137.805107
-19.817891
-331.858435
27.596185
-246.519301
-331.970689
10.680837
-231.459843
-234.343067
-294.382369
4.252489
55.720828
-290.755340
30.590106
-124.316598
55.797325
-122.169461
-16.292496
9.400572
-276.238826
34.138170
7.327735
28.083821
17.594782
-101.703994
-254.663679
-310.117149
-137.451064
-148.565395
-247.337321
-122.082771
9.602847
-69.639657
-108.499005
27.920701
10.495408
-152.155115
-121.975083
-4.277427
-13.006716
-5.785241
15.427011
-92.233536
56.077371
11.424322
55.564613
-362.195131
-29.541663
-339.404394
19.053632
-247.885333
-151.131945
54.879026
55.588133
-43.978600
-151.900532
-310.524921
-16.323314
-39.191932
27.442548
25.984174
55.329630
-374.402981
53.767754
26.604302
-7.685839
-154.567004
20.336572
-51.498952
-12.876946
-125.073891
8.455955
-26.832432
-193.545978
-59.521436
-7.163086
54.416111
26.700671
25.194058
14.297216
27.263983
-91.141062
-77.941107
-15.323490
26.099388
-276.021926
23.757474
25.852783
53.675852
25.316651
-246.978994
54.264475
-109.629452
52.314539
-104.250279
-209.541958
51.635135
-139.673960
54.991587
-93.288994
-267.322781
26.415156
23.811676
52.366516
-80.950556
23.955658
-142.212707
7.205859
-246.093392
50.835215
22.999724
11.760726
-95.334754
-325.282326
51.539247
10.465123
-66.628139
-129.348546
-276.727551
-16.901965
-323.267750
22.125079
-62.348385
-132.062082
-14.691533
-41.094157
-10.897120
-23.687240
-9.631277
-8.480244
-108.320086
-137.219194
-118.289399
13.635047
26.962113
-75.546483
54.629640
16.204013
-11.048498
-14.112355
-18.233946
-11.692002
1.482234
2.135032
10.594001
7.838403
11.166072
12.313821
13.871099
-24.065679
-13.634075
3.341398
14.571351
3.190195
7.415788
13.382777
12.758176
-8.940747
-10.224890
10.917373
-7.710607
13.448765
-11.393295
1.503152
-2.279388
-8.023233
-8.333435
-7.903857
-9.996257
-10.445950
-12.426606
-14.316113
1.911258
12.296087
11.585401
-11.388594
-10.862561
1.236927
9.261798
-24.108502
-6.401776
-8.703621
-24.048718
-8.225804
8.892356
-4.045008
-3.770748
4.141540
13.041285
10.676310
-0.830703
-13.717334
6.183681
-2.151718
-2.195056
-12.006947
4.508601
14.118645
14.879173
3.018789
-7.582846
-11.262065
-18.666060
-12.969213
-13.818842
16.579002
14.125808
12.110136
11.297276
-4.623777
-4.085971
0.175242
0.303782
13.077048
-7.314927
-6.881383
-2.960132
12.005340
-3.910566
-9.047298
-13.153745
0.637537
2.839717
2.907281
1.294125
-1.562136
-0.721747
-0.627852
1.144904
-3.923047
-3.976890
-10.234555
-9.984355
8.687893
14.311669
-3.223324
-2.046646
-13.364193
-8.568307
4.204946
9.329222
-0.434684
9.944232
3.606587
-12.740975
-10.869155
13.183324
14.410449
13.165743
-4.390733
-9.073907
12.109444
-7.016147
14.583272
-8.944787
12.029677
12.994467
-15.067698
11.218885
9.194880
-32.511630
-31.973411
13.690505
10.732456
11.691996
13.494127
14.077770
-12.138626
-11.777362
-13.683463
13.878363
12.929307
13.778931
-4.643109
5.042029
-2.637197
12.838508
12.026400
12.716518
11.365913
3.692332
-10.155352
-11.899384
6.213879
11.071440
12.698377
-11.942033
8.177913
-2.974122
1.822159
-2.105539
13.713162
-6.566183
-9.857083
13.040211
1.552671
11.849265
0.883704
-9.490893
11.292836
11.274040
-8.081585
2.232635
-7.846504
1.155302
11.126051
0.682780
-9.382723
-8.318818
10.190716
-10.348483
7.311308
-10.904837
11.573206
11.754081
-2.940030
2.371608
-7.652872
2.271764
4.042005
10.466744
10.659479
-8.602065
5.529532
-0.807107
5.442000
9.360646
9.414087
-10.956978
-13.324622
-10.472894
12.302253
6.103041
-1.592838
5.497526
-1.604228
2.858626
-5.840063
-3.597921
-3.084600
-1.714128
4.006588
1.899775
-5.369734
32.800418
57.027205
57.325179
27.966206
21.490592
18.048285
26.794596
55.378463
19.298539
-15.773265
1.840088
-11.579223
-4.451483
31.333318
43.661337
36.910336
32.818849
17.032081
-9.390588
5.416303
-1.258333
57.158420
16.986138
26.255633
48.081938
12.209892
28.004139
44.103828
26.100568
48.296310
48.545161
23.793289
-8.209478
5.398958
-1.872473
10.430439
-8.807888
2.115210
2.689435
5.894679
5.991432
1.841064
-5.104474
7.912381
-2.851001
3.304866
3.938587
-0.794246
-4.276487
4.043289
-11.150822
-9.798733
-7.583196
-8.011569
6.024871
-1.648776
9.712876
-9.045667
-8.836875
9.293460
-12.394473
-11.674495
12.885677
13.371294
-11.678682
4.790915
-3.517275
1.589728
13.223324
-1.347269
1.468327
1.086670
2.080427
7.017582
-0.293503
-13.924280
-7.454067
-2.065692
4.762419
5.827123
57.620113
32.944230
36.603035
2.688134
18.016425
-5.181890
48.282951
61.009354
45.564856
58.990988
1.224923
23.029956
16.746226
28.224010
56.986568
12.081754
42.157788
26.252691
19.192654
31.755999
30.981238
22.507348
-7.267026
19.565673
-1.639193
26.519351
4.536422
-1.137176
0.181982
0.915815
-3.880825
2.965385
-4.579309
2.532785
7.834550
15.502787
-10.169299
-13.739862
-4.918043
-13.956390
-4.756144
2.612927
12.609815
-7.639544
6.990157
-6.353578
-7.030414
0.207082
8.425973
0.130992
-7.560919
-9.773511
4.670593
5.866871
-6.291018
8.155715
-4.011284
0.069450
11.887604
-13.767173
1.705321
14.026600
14.849163
2.093837
-2.210542
-1.611965
-13.381387
-7.875230
7.213424
-8.502207
9.065602
2.339586
-2.344018
1.425916
-10.183221
8.648874
-12.163466
-1.748635
-15.866156
12.234190
12.166403
-1.175102
2.706931
11.635426
1.245156
-9.853822
1.535431
-10.108033
-10.168164
-5.278882
-1.541330
-7.106734
0.408398
13.945659
13.513352
-2.943765
-1.080141
1.521660
-11.608472
1.624224
0.923360
0.465848
0.774098
2.124135
1.040590
0.256979
0.525558
0.140826
0.203014
14.376059
-1.392695
2.911706
-12.930545
-13.350655
10.906772
14.771961
9.505348
2.075600
-12.079194
-6.859766
-12.078026
-9.986237
12.218131
-9.946615
-13.434318
-6.398821
13.962541
-14.526951
8.988709
7.190608
-8.449214
0.830086
-13.488860
-13.112823
10.582649
-8.409176
-6.979988
-6.391029
-11.389017
-10.714106
12.663957
-2.066394
-12.296508
-0.785068
11.318086
-5.221794
0.307375
7.354695
-12.554276
-13.714209
1.366591
0.276919
9.109128
12.856918
10.900153
-1.693517
-13.004839
-12.314452
-0.769573
8.237583
11.436161
11.729052
-3.595833
4.032622
-10.552434
13.558527
13.093946
-1.556498
-3.765926
25.833938
38.320615
36.402016
38.243620
53.355427
42.387790
24.929911
3.444298
-3.102038
39.844656
15.244326
9.516513
29.045151
21.224078
55.775335
38.587510
59.198596
41.097897
17.450569
25.721495
24.130337
-5.627301
0.234264
22.993144
-9.111218
6.048815
49.130551
-9.213052
14.267904
-13.543832
-13.697438
0.517808
9.833289
5.079714
-12.189561
-12.381375
12.314527
-6.163092
-0.583614
-2.091461
-9.884511
-9.678428
13.094988
13.474580
-0.693352
-0.686618
0.272354
0.850100
-1.834253
0.431840
50.803255
55.149547
36.983269
32.556417
34.523194
47.113463
43.516676
18.644699
-3.270169
3.524340
24.300234
8.209427
14.884316
15.674924
20.954753
62.078528
33.123827
57.763285
41.494228
23.946065
23.944010
27.644970
17.794722
50.204607
23.555823
0.504291
-5.471537
22.070736
-11.707059
4.944495
1.341944
-0.338722
-11.391931
12.571854
-6.133843
-6.346320
1.008516
0.733931
14.106081
-8.594611
-0.945602
-1.852678
0.111015
7.000003
10.010327
10.756040
10.953998
-9.262451
-0.295999
-10.543908
12.419353
12.379708
-7.856172
14.644398
15.291864
13.134149
-15.360827
-14.828691
13.604635
-3.527862
9.387155
1.037365
-1.523936
39.482439
48.718188
51.458427
38.444172
58.207979
39.162225
42.476416
15.170217
18.890033
13.193291
53.187211
37.771572
21.602849
28.815687
45.689535
24.685215
35.460884
16.577697
10.007920
9.504137
-9.850614
10.791214
-8.694883
-7.844103
-7.011677
12.204156
31.664309
19.875433
-3.191512
-0.554766
50.717647
17.326868
56.376819
36.610580
32.291406
12.420319
35.697475
16.238991
30.019482
34.989018
55.951090
55.847225
57.564053
55.237669
35.821186
38.863122
36.514380
58.028316
38.678020
49.283276
-8.648529
-8.980908
57.223692
37.246327
52.042510
50.814193
29.759374
12.213521
10.859426
-7.338068
-9.063583
24.156973
31.501592
10.251198
11.596763
-7.949516
32.856258
21.934101
-8.948770
10.428615
-8.698251
12.976354
25.567070
-6.610208
45.975330
-1.663217
-6.731111
34.926219
10.411326
26.514232
37.010265
13.552528
34.020981
15.073688
11.832802
-6.720855
38.420809
17.282008
10.671487
30.304694
10.151298
8.402473
51.354562
54.100863
33.208804
17.770821
-8.584107
15.032485
11.947472
55.495190
35.532521
-9.275472
36.582280
9.907774
-9.936107
37.863491
-8.380905
-4.099597
10.235277
58.055841
56.262405
11.112014
57.264395
39.208088
39.146995
12.431774
37.047718
29.215639
55.735631
49.329889
30.261402
32.997936
50.078186
32.577526
10.021868
-8.071390
51.972689
16.319833
10.343232
11.296009
46.089838
13.995943
35.312957
-9.054933
-7.189844
13.336165
10.172328
-9.062569
-1.235841
15.186280
32.251029
-7.789476
20.301393
10.709936
10.175810
-8.308610
-5.230731
11.098037
11.922239
-8.229899
-8.612516
24.316763
46.500169
11.409521
-4.386148
18.227740
15.828751
-8.035212
-8.287069
33.874910
19.197878
48.546824
36.616973
14.061804
31.842259
30.434936
11.830245
11.317029
11.467435
-10.050148
-8.549699
13.489113
28.950163
9.172289
56.020820
36.796318
58.230437
38.602364
33.949197
14.534852
12.666060
-6.025475
-8.496115
10.155928
32.149202
13.285786
11.090548
-7.600970
37.582263
18.174272
19.532905
27.469731
38.133541
58.783051
31.278679
57.752285
-4.562065
21.546791
-1.231754
-6.535552
33.578746
17.792269
48.874878
1.459283
0.267027
57.336089
37.925534
53.179822
28.070043
28.034444
38.729784
16.326526
23.291105
37.057419
53.425919
20.500218
36.982184
34.330351
-9.881750
2.916596
-1.809942
16.306215
-15.326500
46.347563
-7.442526
1.509638
24.949383
6.561918
50.139827
40.404199
14.594015
20.579531
-7.408713
-18.424078
12.683919
-18.739561
-11.988257
-0.142782
-0.073311
-10.822934
-12.942100
-10.733906
12.819815
-8.129454
10.125056
2.572221
-1.227391
0.002202
0.298455
-4.605872
-4.115890
0.308079
-1.900487
0.342958
-0.541953
-4.092847
-2.245284
0.879505
11.372763
12.917412
4.637008
3.940310
-11.516193
11.931316
-4.591085
-7.571438
-2.081847
11.103796
3.959895
-8.067205
-3.004579
12.632681
-6.236995
0.631712
-1.310335
0.957212
-4.124424
-6.994328
-4.022892
-2.908057
-5.923336
-9.896637
8.576285
2.957674
-3.766446
-3.044374
-7.902762
7.687619
14.664226
-7.826858
9.880466
11.248802
27.083811
31.871400
58.635600
57.218243
56.169451
22.950755
42.926552
17.906086
25.129004
20.505839
29.833507
2.336667
-6.999775
-1.952326
39.395905
57.838083
34.804582
18.531348
47.009888
0.993159
-4.953837
5.646122
22.087268
15.987222
43.774937
26.327827
9.199021
-10.314191
11.184751
10.437706
-3.253559
-5.224576
3.451159
-2.469546
-10.499216
10.850493
11.486794
8.732937
-11.790922
SCALARS stress_s22 float 1
LOOKUP_TABLE default
-4958.364487
-254.920379
-6061.638952
-4958.967927
-9521.847726
-6868.492464
-7545.077654
-4918.496862
-4917.802599
-7545.814074
-9022.853119
-6363.674503
-6107.224413
-152.861393
-6852.511483
-164.175126
-7522.193598
-7524.095987
-5674.821475
-7904.172793
-5353.364455
-3674.534538
-864.702044
-868.780980
-3693.602387
-7246.085923
-7245.868054
-2516.511489
-6376.084394
-4632.160947
-2634.504944
-7822.737156
-8821.166436
-1859.365893
-1860.149005
-8271.441477
-1649.176588
-8990.762122
-6355.517762
-3853.221680
-7959.669785
-4428.939916
-6566.908905
-6568.439289
-7060.865363
-7060.010020
-4632.803076
-3898.964058
-9010.516778
-447.963923
-5372.947613
-9429.829622
-9573.621369
-1098.239908
-8198.409124
-2406.298856
-5156.287415
-5870.060193
-3156.551035
-3156.214113
-331.221190
-5634.209307
-165.193958
-5400.978248
-4425.998267
-262.283044
-5837.584310
-3269.586666
-2930.969641
-9648.016243
-1796.411374
-7721.879802
-9929.021445
-9929.337978
-6078.301121
-149.695095
-4372.199215
-3674.697034
-3377.432084
-5913.137181
-6627.651000
-867.695471
-869.240817
-3647.068327
-7300.103521
-7300.449967
-3935.471795
-2633.435000
-8173.460786
-6337.173076
-9521.315343
-1612.824887
-1696.573755
-4681.581888
-4681.208765
-8566.178631
-9512.461748
-9496.812747
-5663.402416
-3093.601982
-8814.777912
-1908.302807
-1907.456731
-5374.819819
-9291.594560
-1597.390624
-55.093471
-9622.121669
-9069.242214
-262.393220
-4114.390258
-4381.181490
-7850.448400
-6619.236428
-2569.985500
-500.757599
-8208.359090
-4217.430612
-8289.196607
-2930.372740
-7025.750860
-7024.938937
-557.407305
-3949.306801
-3321.158994
-564.402578
-9191.621165
-250.892389
-250.764822
-160.228345
-161.529841
-9442.327073
-1157.581991
-269.840768
-1802.921913
-1704.890686
-9861.816235
-9861.979691
-2520.001257
-2342.475408
-8668.055467
-51.572498
-5655.852182
-7822.629746
-7786.237017
-8275.263069
-5105.838351
-959.951227
-5924.521282
-280.158345
-3381.162428
-7692.011579
-449.731666
-3211.474376
-3210.340244
-6766.154223
-466.922859
-3482.318506
-563.717834
-3528.320728
-388.240101
-9828.036551
-9827.800484
-559.111200
-667.302511
-3099.426563
-8505.579670
-2826.206385
-1431.826410
-1432.112383
-4528.803770
-7810.319606
-4487.183035
-8030.657097
-3842.061671
-5213.611253
-2072.954980
-2073.134301
-3270.545664
-6094.454209
-9128.887956
-8677.338638
-6181.725515
-5476.198894
-8973.786490
-2464.929173
-8263.656576
-9751.724347
-663.752482
-8288.883915
-3585.928497
-5560.494162
-4572.283051
-1036.064304
-5820.548593
-9548.379569
-8563.506756
-4835.973630
-4835.855551
-8096.620084
-2736.933544
-6188.224647
-8095.504202
-2738.264484
-368.186857
-759.579132
-761.399597
-9760.012066
-3839.857737
-8507.967224
-271.788860
-7440.467769
-7443.758083
-219.471243
-469.389804
-7123.381653
-7123.615059
-9529.334807
-7866.590179
-6084.350645
-3570.095114
-659.970139
-9242.883642
-7617.047804
-6259.481894
-6519.445733
-6519.720235
-5027.853110
-6174.302201
-4490.843549
-6775.719832
-8728.275622
-368.982755
-8037.016792
-4120.640981
-10017.290269
-10017.766143
-8979.053352
-5553.238288
-1711.066339
-4374.108308
-5481.558063
-466.110176
-5573.258380
-6629.570493
-1795.613132
-5819.008669
-8900.341695
-2250.871298
-1420.997776
-1420.570737
-2247.002120
-1793.725989
-8332.671467
-4209.807391
-8521.990968
-5661.889662
-4528.979207
-2086.062604
-2087.056449
-8516.606536
-4573.949952
-5736.346045
-7810.656160
-6436.216740
-6437.626609
-198.845020
-199.400526
-389.064568
-226.224974
-132.098306
-294.204820
-199.037748
-198.637540
-199.212706
-198.531335
-198.036726
-199.038172
-132.093679
-198.695797
-42.546255
-42.068176
-42.108382
-41.392314
-42.369970
-42.334488
-42.121606
-42.580169
-45.547091
-42.060505
-42.445954
-198.807226
-8630.473743
-7379.255836
-7378.810217
-661.375743
-8380.787968
-6255.853347
-51.199462
-9178.108793
-4763.126026
-4762.960487
-7203.903794
-7203.977366
-146.414253
-3754.800642
-3756.431996
-162.475905
-8733.474597
-4851.940508
-4851.534907
-1991.724834
-1992.597809
-9439.147443
-1513.945851
-8121.755826
-8189.956563
-6164.570773
-9142.657572
-4297.157049
-2642.447973
-2734.676446
-950.556648
-6699.658910
-8481.800487
-5829.981889
-2550.209246
-5652.602903
-5563.649773
-6942.351502
-6943.841264
-8628.548162
-4031.033175
-4034.817227
-9871.958198
-5297.214851
-5287.802834
-9357.650858
-5737.244309
-3048.456222
-7449.624062
-7449.329229
-3014.268882
-1513.864799
-5024.128579
-6007.161130
-6004.863730
-3295.563808
-7614.261741
-8506.143962
-9673.822860
-121.014043
-116.941997
-116.568447
-116.742614
-114.963091
-117.709651
-117.578599
-116.717618
-107.224698
-117.161032
-116.288102
-117.530009
-121.007780
-9740.498655
-126.136772
-310.848608
-219.686491
-125.985711
-301.143199
-205.558720
-126.150241
-126.041872
-126.030272
-126.423460
-125.066738
-125.763377
-207.638193
-9783.675562
-661.899319
-9837.544115
-4102.403953
-6883.745150
-3573.184543
-3663.122807
-8195.813104
-9186.404581
-5568.518717
-5748.832519
-5837.129782
-2633.213340
-9792.345221
-9138.135605
-2817.957225
-3473.882509
-163.385283
-2995.944623
-7998.119351
-467.190720
-8448.571545
-9711.568100
-560.162506
-3047.618353
-2942.896510
-9786.762608
-9784.805213
-5570.212784
-9767.707411
-299.525241
-219.343149
-1043.850558
-365.872541
-5654.092492
-146.580576
-8826.802992
-8764.116051
-1258.555745
-1266.798561
-8408.820254
-8451.172904
-560.683274
-5459.095294
-153.046556
-8822.912338
-368.013268
-9604.349415
-8356.130397
-5925.513062
-262.833936
-9741.453565
-265.048441
-165.242186
-10263.383871
-10261.632019
-10255.729154
-569.612387
-10253.651515
-2077.815752
-10247.416293
-10079.893449
-1144.584763
-10245.004182
-2640.612179
-10401.980027
-10074.323695
-2641.175796
-2456.566020
-1241.154694
-2173.725525
-10238.428572
-1240.940694
-10174.602842
-1241.352364
-3568.402879
-2077.260050
-1241.149761
-2265.144626
-1797.000975
-3479.489238
-10268.961759
-10235.672281
-1432.533288
-2453.452788
-2268.700796
-2173.531541
-3323.863297
-1241.524418
-10169.026068
-3417.544635
-9133.037188
-1145.082643
-2079.825937
-1241.330511
-2171.402281
-11180.609250
-6273.579054
-10228.747570
-1794.976015
-3601.639514
-2643.956878
-1240.704110
-6193.778742
-3953.055335
-3414.802803
-1241.670731
-6116.928597
-10979.128196
-2079.554985
-2945.653199
-1889.217237
-2453.047008
-2549.980428
-2945.781638
-2548.356130
-3476.287920
-3856.388997
-1241.482657
-3950.264235
-3039.732846
-1241.791271
-10225.636281
-2173.638143
-1240.687827
-3952.809665
-7577.904514
-3039.856251
-3955.289255
-3133.690058
-3952.172178
-4544.237305
-3565.063687
-3133.808819
-4542.299481
-6198.259007
-1241.606133
-4150.437919
-1240.441857
-4249.823031
-2079.741593
-2455.961957
-2171.427643
-4248.378137
-2359.758692
-3294.891483
-4347.901165
-3417.569361
-2171.725054
-6047.740578
-4151.766121
-3604.544991
-8005.358338
-4346.334334
-2267.655762
-10218.353045
-3365.867693
-3500.398980
-3464.477303
-1241.886217
-3592.634925
-7958.059867
-2077.404534
-3367.095560
-3571.408383
-7959.634774
-3857.272511
-6037.371949
-3292.115974
-760.777363
-3850.469526
-3752.254181
-3848.766623
-3466.480324
-1241.701069
-2265.389625
-3740.753357
-1233.123244
-6131.554503
-7982.351817
-3465.739741
-3947.030560
-4544.121299
-2659.600516
-3953.816911
-7929.870995
-7546.329091
-3949.891456
-2884.250001
-9775.442841
-3414.925817
-1519.822144
-3465.255965
-6190.078569
-377.268297
-3563.549039
-1891.338567
-3593.317876
-2171.234429
-3169.545410
-3564.774648
-7536.134211
-3323.839214
-7155.349342
-2265.862282
-3563.997574
-2980.814625
-3829.909547
-3951.116751
-7981.572732
-4048.111661
-1144.876207
-1518.257777
-1241.955977
-7140.611246
-3268.345997
-2268.049710
-8839.656466
-3168.455577
-1993.032055
-6997.788911
-9853.165823
-3954.297275
-10214.874712
-4445.329041
-7215.669284
-5230.037860
-7562.297279
-2980.814572
-3685.355315
-3837.965602
-2981.493046
-3921.860831
-5409.315824
-6277.128469
-5332.522791
-2361.477460
-4693.454496
-7552.746591
-3366.048321
-2362.078084
-9723.046270
-1606.430486
-4528.032829
-8262.783224
-3201.328110
-2883.555783
-2884.249841
-2974.822800
-4444.416518
-5867.440071
-3918.674612
-4151.465946
-3387.269548
-5821.121553
-7120.258133
-3202.316081
-10007.517878
-4307.692258
-4023.044900
-3389.213933
-5824.492125
-5330.355484
-3926.324707
-7393.201054
-7138.149803
-6899.718401
-1513.975558
-2883.292413
-3759.896135
-377.930542
-5953.733700
-10270.396210
-1608.526837
-7631.248879
-4781.887497
-3268.252151
-378.949609
-4787.999176
-4687.480979
-2359.009943
-4021.363254
-8047.371037
-2562.239284
-8053.058742
-3499.754728
-3758.521294
-3170.732338
-1241.767782
-4696.419300
-3757.869641
-9980.939155
-5612.096969
-379.346582
-2980.480441
-3966.504122
-9982.142279
-8157.832531
-3017.859425
-473.933131
-2755.540034
-1432.666122
-10281.725985
-3110.862634
-3759.301910
-2884.027826
-4116.293162
-1512.100278
-8152.374918
-379.038723
-4666.681267
-1606.496891
-377.815857
-3502.523042
-9984.837174
-10882.833252
-4052.249095
-6189.830687
-4118.052617
-3758.540233
-7153.030595
-9086.321077
-2786.483435
-4212.938195
-10632.423893
-1419.535753
-570.626212
-4150.244853
-2452.967859
-9906.963847
-3601.496681
-2455.533802
-9140.481359
-8283.564546
-5227.537096
-1985.696036
-6873.506001
-10207.222789
-2655.730597
-5951.733991
-4947.432624
-3383.714684
-3291.217870
-1417.713394
-283.962127
-377.795214
-9331.496130
-2736.691269
-3169.642387
-2681.005410
-4446.000085
-3205.980963
-2492.036837
-5857.732188
-3923.409431
-2733.847320
-4530.471253
-9735.818121
-7649.206709
-10371.407431
-8257.560072
-8032.665271
-1624.796729
-2882.453494
-2882.703846
-2849.460824
-8040.395840
-4936.954205
-2362.806489
-6985.555169
-8106.464332
-3683.356623
-3757.057916
-4337.285625
-7169.876700
-5882.292572
-3756.521909
-4302.100762
-6201.564291
-2640.038506
-286.328000
-377.823922
-3168.245003
-2455.227648
-3466.752133
-2642.773488
-8038.923583
-3754.962238
-10116.217736
-3511.106187
-3604.523750
-2827.711703
-2492.600132
-3954.831476
-3565.164814
-4398.326322
-1802.977597
-2680.361144
-2920.850179
-3170.719492
-3920.396907
-7747.408134
-8886.474271
-4053.352892
-10545.962140
-4620.431294
-2493.477257
-284.142012
-1700.836304
-2747.019763
-3294.936436
-6310.886263
-9017.550398
-377.936099
-3502.988731
-3369.515185
-3467.820794
-4582.238019
-3849.812057
-4852.674027
-4396.435863
-2733.842093
-3108.562578
-2492.794032
-3756.088018
-4921.881604
-3755.269954
-4680.622196
-4238.513427
-4240.605523
-7084.128211
-10276.778465
-1610.734385
-3111.871942
-1804.675448
-10643.727573
-4492.588248
-3753.683263
-4141.885354
-3753.859945
-10268.962371
-5890.978062
-9556.092836
-3370.490242
-1040.054279
-4542.523824
-4490.626291
-5899.687734
-2736.687230
-10074.324442
-378.244406
-9089.095850
-7932.335831
-566.383763
-2925.684592
-9667.726775
-3955.751114
-7814.439233
-378.742491
-2560.032455
-3727.940257
-4045.211232
-4586.690355
-1242.001017
-9134.641337
-5891.279898
-8856.788541
-472.373311
-2359.302060
-1983.222209
-7923.090414
-3945.226469
-2493.364863
-4047.083336
-3733.357895
-9376.183577
-3757.612851
-6886.155599
-10382.928470
-4211.105365
-9661.574667
-10557.163072
-951.732747
-7162.035591
-5124.880619
-5047.865141
-3951.624552
-11067.747606
-9821.796282
-2475.226275
-3464.854959
-2548.908667
-7160.774052
-2079.459827
-3017.057009
-3744.572317
-7805.336907
-9393.042092
-9232.564360
-9073.081296
-9117.785752
-7729.344401
-8033.166354
-3013.261967
-9979.279786
-9955.262590
-3366.805547
-2883.556006
-9322.773383
-1139.485672
-10338.278508
-10099.485703
-1994.807687
-1325.077753
-9864.348302
-2784.001278
-7698.832012
-2883.714207
-1330.924837
-4048.589422
-7802.192499
-2546.549863
-287.298029
-2466.636246
-2978.492140
-9645.497604
-9097.240425
-7983.208817
-7784.278906
-6113.879423
-4049.914525
-10292.041960
-1708.367105
-567.886890
-5360.466093
-10971.508720
-7081.610574
-7921.291015
-7978.103655
-1514.073151
-7383.432775
-8937.811318
-9332.398906
-4610.543298
-2920.851867
-2777.450001
-9776.431019
-4302.100342
-2396.384702
-6133.332357
-9955.261037
-1983.497282
-3871.086169
-2764.373046
-281.767880
-1232.132916
-4298.317319
-4300.039811
-2744.455139
-3465.895639
-4431.587676
-2396.559611
-7790.959823
-2361.469037
-6875.246375
-5032.511175
-6676.719482
-8299.365987
-2267.635322
-4763.135621
-10376.342764
-2981.434477
-1424.452904
-8697.926886
-8893.149331
-9073.062316
-8741.122625
-4584.661935
-6887.557493
-3954.653287
-6874.787733
-6756.469813
-7809.785997
-3202.909252
-2981.434375
-10972.340833
-5922.419259
-7704.601486
-283.112907
-2733.959032
-4548.314426
-9101.245833
-1242.021993
-7802.804672
-3686.079509
-10078.047728
-4914.511536
-3295.126106
-2494.049987
-3050.420326
-1612.535339
-6227.535628
-2830.059454
-2764.593328
-4702.129985
-3846.890928
-8545.781204
-3924.949308
-5924.440037
-7796.262371
-4433.907391
-2391.924926
-8525.594920
-1608.790469
-7797.076658
-4848.516191
-663.953316
-5822.630727
-473.674776
-2546.991174
-1796.451187
-10210.787335
-10049.193436
-1323.666514
-1228.813959
-1515.808534
-4577.703390
-3954.644049
-2551.757211
-1041.778327
-10440.010552
-5969.880091
-3108.561662
-1985.418421
-2922.625580
-8274.256781
-3107.540426
-10538.677649
-10091.125453
-7415.857867
-1331.628963
-6090.404053
-7933.197162
-7135.468905
-2295.805983
-3845.178668
-8746.339527
-379.154564
-10662.940931
-4437.573838
-281.774305
-9442.138543
-3200.291983
-2476.789355
-6874.539180
-2362.928440
-8225.390546
-9713.316422
-7834.385551
-1991.500841
-9665.418846
-7924.394360
-9342.345488
-4599.130554
-8640.929210
-10080.629982
-8746.818839
-10203.364019
-3742.300089
-8515.491082
-7809.111867
-2883.695539
-2549.196767
-4177.175327
-3870.256430
-4053.930234
-2785.761689
-4552.317905
-4593.304288
-2883.714097
-1613.692661
-5822.773788
-4248.577271
-2690.216522
-5199.718387
-8515.488075
-2392.529525
-5222.326730
-1241.818254
-4876.531337
-472.914668
-4491.506883
-7706.973220
-761.798528
-4398.326490
-8429.608001
-5328.605893
-7000.317680
-7008.664615
-10147.627573
-1420.217642
-4335.080646
-1984.308954
-3678.276757
-473.567963
-8005.985947
-1241.806704
-9420.281850
-7568.984957
-4400.327724
-3564.229681
-5193.340088
-3438.319567
-4671.768224
-10553.438812
-2171.237032
-3145.448315
-378.837201
-7299.547099
-1423.513425
-5449.967426
-2584.065277
-2452.967034
-10407.572855
-5684.660519
-6131.538975
-3742.994571
-3836.338401
-2278.817394
-5211.517766
-10338.280110
-6597.067481
-760.664176
-9500.353204
-10544.826241
-662.804014
-5073.049786
-5194.242199
-3347.939248
-4437.388332
-7918.512557
-7875.036899
-473.100573
-8810.278536
-10292.264648
-1236.514036
-7072.603721
-9996.933937
-8672.213006
-4982.265229
-6936.267108
-10270.395572
-9757.126793
-2879.563443
-4731.522525
-3360.872557
-3439.247682
-1803.891574
-4683.087444
-7462.345979
-1041.397520
-9549.084997
-1608.356265
-2827.705040
-5039.822139
-6512.721983
-3202.560382
-5023.214444
-6797.992235
-4624.407323
-6479.179559
-10707.556457
-5360.654975
-8166.425062
-4869.232404
-9385.003453
-3364.869344
-4198.068115
-4866.988816
-9881.649590
-9353.442160
-8544.615473
-9452.949186
-1325.516889
-4402.312064
-945.211217
-3105.592567
-5208.231266
-3734.759209
-3363.612974
-9034.156923
-10576.150568
-4823.841714
-3396.953000
-5230.898537
-9299.834992
-5187.619490
-9246.772898
-2641.854649
-10601.978136
-9440.751538
-8265.554126
-9460.155891
-5773.572140
-472.985266
-9540.164770
-10369.969757
-3856.815441
-10282.543570
-8339.284773
-9245.417157
-3352.106583
-2741.266413
-6596.894123
-2762.633137
-9648.731653
-7783.145149
-4779.300026
-10382.489337
-3344.346553
-7688.194087
-6457.690597
-3343.468290
-378.972449
-7263.584775
-1231.478228
-3969.352200
-10973.682622
-1426.009282
-7771.796579
-11067.747082
-2883.253832
-3291.570413
-282.837873
-10621.259610
-3774.850332
-10192.390743
-5680.047896
-2395.141312
-2394.803655
-5883.076162
-4615.281518
-3360.573675
-8768.159048
-4595.441222
-3682.427046
-7977.866577
-5187.012036
-4979.511169
-7810.871964
-1337.700575
-1136.333865
-1242.019454
-1607.728100
-4234.024872
-2589.019914
-1230.608808
-759.719343
-7025.608967
-8113.988329
-1986.528662
-666.270990
-4235.406349
-4823.140226
-10642.952498
-2760.916978
-4296.058357
-756.838102
-6730.227830
-1700.745967
-10382.099027
-10544.825963
-8439.384430
-5204.593539
-9420.423695
-4763.010285
-9690.674190
-4506.862404
-2491.757955
-8348.363132
-283.117233
-2781.399802
-567.508763
-4799.068134
-4333.912826
-10780.732522
-7650.438309
-7916.479420
-6913.369027
-3822.680761
-6417.202169
-6846.551385
-8671.836138
-7358.764045
-1420.052599
-376.672438
-4051.786024
-3406.715556
-9260.882394
-3937.778237
-3016.841380
-3522.814672
-1610.049808
-2749.704398
-4664.867434
-757.394348
-7167.314986
-1609.278201
-6122.524656
-10351.732475
-8973.089399
-4878.180687
-1704.419978
-10296.307168
-4713.873092
-3355.918360
-6841.343704
-8015.409391
-10275.655792
-755.865684
-10953.179995
-3199.480373
-1143.385208
-3203.735043
-3362.128242
-9804.340575
-10086.799498
-9544.542701
-3230.005464
-4052.527329
-6047.731028
-2494.084580
-4173.764443
-2786.158079
-2881.206091
-4732.233544
-3072.191526
-2012.151339
-4404.108384
-10729.737461
-10207.819330
-4052.776754
-567.368081
-4490.053471
-9650.309319
-7210.929300
-9437.445870
-1323.283315
-8066.612382
-3296.675405
-9353.098855
-8257.560471
-8248.726894
-664.051186
-1609.702698
-7029.789947
-7848.381523
-7134.299137
-379.445122
-1329.647014
-9657.331931
-5722.736889
-7379.164123
-6294.180846
-10015.092395
-3346.689049
-2881.880132
-10112.695166
-285.819360
-6677.422274
-2762.768497
-10203.365051
-4696.046340
-9884.964613
-7820.869869
-4698.520073
-8202.128350
-7466.686292
-10458.982718
-8618.687556
-1614.560513
-3362.301504
-9331.492133
-4460.732693
-855.390732
-8788.303882
-4143.868656
-3745.113154
-568.510851
-7913.936087
-2381.932684
-10094.142124
-4615.849638
-283.979667
-756.099800
-9249.468596
-4806.771100
-4805.745093
-7771.393369
-1984.604483
-10984.670238
-7257.247228
-7629.859025
-6102.867594
-6470.652018
-5732.340581
-7708.257282
-2773.998923
-5721.240933
-1709.232276
-5207.892835
-854.529854
-8847.312697
-9822.467670
-8226.464774
-9672.103989
-5723.671779
-9074.324434
-3357.116899
-4680.623447
-3828.440124
-5599.303699
-6282.134209
-10945.469109
-5225.292209
-1323.322311
-6416.696655
-3737.386726
-10007.519300
-758.561267
-5322.236029
-2295.152294
-5511.574483
-474.116846
-377.843316
-3016.456447
-1616.760549
-471.654574
-3897.420934
-2881.285062
-10531.524094
-2979.397984
-3357.676569
-4615.852490
-3253.656222
-3174.988269
-1617.356215
-3962.423367
-4801.759775
-4809.539119
-2760.872134
-2476.755676
-4402.924921
-2493.478708
-8074.973833
-1986.520430
-8528.931197
-7023.550155
-1610.716739
-6560.104918
-8157.832059
-8292.553246
-378.509254
-378.968692
-4756.408616
-7859.278845
-4615.278318
-2640.468670
-662.643426
-5429.219535
-5072.407056
-4493.434416
-5686.640007
-3358.901707
-1611.898586
-7626.700916
-2753.773961
-3804.489079
-2974.580897
-10670.714898
-8504.614295
-4711.216691
-4488.268695
-3048.651957
-6596.903511
-8102.789972
-1804.674860
-1609.399470
-8840.636118
-7984.613663
-3956.028621
-7791.440816
-3407.325861
-2643.838536
-282.353212
-4443.983914
-5401.839283
-8718.368925
-2082.557496
-9081.388580
-8362.886166
-10296.238681
-8905.807603
-9373.458837
-10780.851272
-4803.009330
-5076.520565
-3973.166984
-7059.501946
-9496.617581
-3679.613797
-8011.884852
-5257.671707
-3857.803995
-7790.985956
-7975.072228
-2981.258815
-1337.143790
-3257.638501
-4639.670834
-9114.258697
-566.375401
-2978.649401
-7874.629481
-9310.281587
-8097.781248
-6846.523774
-5899.844535
-1433.995889
-5764.088571
-8943.578138
-9918.267430
-2078.860964
-379.236129
-7786.822546
-3934.151682
-6113.420906
-1039.739225
-2783.995173
-1987.727839
-3039.734686
-1136.013601
-5403.811045
-10299.988117
-8911.067391
-1983.593659
-852.999374
-6661.082709
-6564.736968
-2561.646868
-10137.951895
-9943.349554
-9731.043610
-2830.054321
-662.264944
-1522.334755
-10304.698778
-2199.168492
-758.035078
-758.601886
-7946.375862
-3633.089151
-10212.295596
-11130.133576
-3359.329505
-378.076988
-2642.774464
-7891.133790
-377.318330
-2011.129152
-2783.219145
-1521.721764
-2921.646450
-7982.491271
-8749.105779
-3149.337561
-10161.668120
-3248.521349
-7478.088750
-3364.868931
-852.161804
-9454.067408
-3267.178275
-7739.427445
-1991.966576
-7990.279218
-7386.734480
-5449.839234
-7883.214050
-1337.954381
-2265.247086
-2833.229506
-6332.160040
-5310.306519
-5233.515072
-5960.204862
-5503.250278
-2359.269172
-6046.107557
-1607.292348
-1428.936204
-1325.081924
-10792.127218
-9521.008244
-9521.748014
-7764.613174
-7726.014223
-10299.631790
-2494.653595
-10600.594837
-9565.197762
-1518.583479
-10405.556136
-7791.055293
-9523.895277
-8589.464077
-10986.268592
-10281.725483
-7729.996109
-9725.259296
-9742.006818
-4885.175891
-4801.888181
-3894.513877
-9367.944607
-9499.880049
-8106.016581
-9814.170343
-9844.737024
-11268.097097
-9570.401317
-1140.981624
-8837.404626
-6751.393862
-10596.125284
-3778.674552
-5136.755692
-284.348073
-1138.477056
-1418.327066
-2851.599536
-6469.565748
-2976.824755
-952.455003
-3412.062822
-1229.246533
-7737.271632
-10398.824814
-10424.454751
-7631.193180
-8113.691584
-9921.458728
-7987.523781
-1238.827779
-4620.143779
-9744.812202
-471.534564
-2924.717885
-7756.735992
-7645.367211
-9741.428102
-9262.702173
-9230.849228
-7984.733021
-1611.290260
-5766.780654
-9666.132271
-3249.344741
-7394.866974
-761.149835
-10177.989493
-2644.607226
-10515.594432
-4240.360552
-8333.343777
-1994.112144
-3041.980697
-2175.189091
-282.419122
-5355.073666
-5494.892435
-6976.829347
-10795.273040
-3947.479732
-9963.745746
-10178.776006
-9832.384356
-2171.219745
-9747.054055
-5611.352504
-7687.122574
-4915.194482
-1142.901802
-3273.043406
-9948.586113
-5961.661880
-8018.629767
-9483.255153
-4977.785365
-2176.595500
-10939.254027
-10770.117376
-2267.469899
-9499.835120
-473.150126
-7607.935394
-9418.028252
-5771.414850
-7927.871506
-1238.881038
-4030.421455
-10207.223954
-2269.329188
-10516.363464
-10322.586712
-1516.900960
-8018.626807
-4238.596690
-566.422209
-2562.237384
-568.828774
-8696.508819
-5583.653727
-1608.377772
-5073.672287
-2774.606416
-9877.123738
-9437.696853
-3963.312993
-3710.118209
-3661.645173
-1048.269965
-1985.993802
-5541.667796
-5544.994200
-2975.889824
-4553.249151
-4547.591179
-1517.398375
-9689.548545
-5723.980986
-1039.838172
-5923.724392
-8243.389145
-3746.713316
-3647.174150
-2755.539889
-1427.250595
-755.878220
-3939.816082
-9365.314600
-1230.050102
-2184.360631
-5200.898236
-3948.499113
-2488.793356
-5511.563678
-2584.601661
-7209.304998
-7792.796394
-2299.480675
-5511.265720
-2452.684140
-1798.826118
-7284.203995
-5134.948104
-5738.107179
-6554.206398
-6584.870932
-5593.469558
-473.183897
-284.176785
-5731.636775
-6608.711373
-3402.613710
-2358.972811
-5998.618696
-5611.796365
-5448.475305
-9438.468009
-5310.511078
-3862.677108
-5451.703642
-3942.839936
-3250.646034
-1333.951814
-8962.245419
-10598.630189
-6121.297729
-3616.842564
-9157.386093
-5827.280628
-7497.624075
-283.963066
-2264.663841
-568.647262
-854.962387
-10045.283074
-3147.726279
-10282.288900
-3857.071799
-3267.159768
-7765.594892
-663.300062
-4940.208789
-2361.608710
-7698.607778
-4640.389856
-1809.368959
-8300.720705
-7996.839832
-3787.747253
-10303.555807
-2880.420014
-5231.494521
-8017.360013
-5998.606239
-9073.283878
-9845.527442
-4087.849113
-9512.496140
-4779.472722
-8275.609410
-9473.746294
-757.160336
-4860.583213
-1795.334297
-7671.832414
-5478.380387
-3399.242924
-1513.912054
-5442.964650
-3108.862003
-8398.348371
-9542.437991
-8928.463441
-3787.569285
-9768.050415
-7293.726248
-3348.954995
-10407.014192
-8685.698730
-9613.347817
-10371.514455
-1797.784376
-8739.293285
-7200.072344
-1517.573072
-2943.539773
-2454.780267
-5812.115697
-8829.060326
-7746.598088
-4157.555360
-7763.657926
-9892.394773
-6133.361228
-8634.979898
-5479.834156
-9005.081448
-7750.527079
-5323.601006
-9482.074824
-5823.471692
-4305.783787
-287.374969
-9577.026756
-3616.248243
-4242.377212
-7216.745722
-2080.329036
-376.914494
-6568.317084
-6608.713317
-5411.281722
-5018.506339
-1230.549083
-472.296815
-7380.465211
-8835.455822
-10672.543972
-6878.470207
-8453.916987
-9637.974187
-3710.121557
-10804.459730
-4416.163343
-1608.230537
-4878.034360
-2381.870607
-10247.417138
-2560.030667
-2488.316570
-661.224899
-9290.692022
-8540.546925
-7748.340832
-473.054513
-3444.163223
-11065.661088
-9134.637373
-3387.700773
-9124.212946
-9488.338553
-1241.777375
-10070.933719
-7995.590460
-2546.550877
-4777.380952
-8963.891480
-10450.283561
-10371.514738
-568.178787
-7215.059098
-5677.551627
-7312.614599
-9608.765108
-944.880892
-9257.259319
-3425.907299
-7402.017209
-3386.354108
-1233.423200
-10344.404165
-3763.985539
-5315.672868
-10017.416290
-1707.535250
-10399.158457
-567.842470
-2566.884128
-5312.453695
-8814.963135
-8600.859334
-4337.106597
-2923.324837
-7140.582814
-4726.002704
-2584.600712
-4200.373715
-3155.472010
-9900.635071
-4767.316751
-3383.971716
-2849.714406
-1041.445833
-11148.571570
-1235.310878
-2773.078940
-2945.782473
-8786.376272
-4781.702123
-2399.233397
-2767.760987
-7611.783845
-10716.622700
-5270.168325
-946.808025
-9574.868406
-9488.441769
-9275.732194
-5277.268024
-8673.760569
-1708.476872
-7786.821252
-7717.024320
-5927.439963
-5411.439720
-6012.186940
-9487.444448
-9992.315247
-6442.535483
-9584.043355
-7700.162053
-473.120646
-8968.415803
-6479.879506
-1702.923024
-1422.826125
-665.744487
-5642.764835
-9469.080944
-8800.992234
-8868.555522
-4309.239637
-2361.634467
-851.072651
-1134.777529
-6981.216382
-6762.386939
-8958.719482
-8953.513175
-1325.096455
-1434.195336
-2173.521442
-287.671162
-3230.024090
-2079.447417
-2568.270994
-7755.393245
-5838.393174
-1333.975869
-568.605364
-10980.416553
-10783.723949
-9404.306282
-6569.517381
-9268.147234
-9577.718673
-2170.853350
-10340.777501
-2922.915102
-1334.790213
-10082.849144
-1418.415089
-2862.748264
-9618.034802
-5431.538185
-3412.341010
-854.568614
-3662.522409
-6246.606819
-4247.475862
-473.303625
-569.801181
-5207.563493
-6474.052308
-7913.505767
-6266.590866
-9766.864190
-7400.447664
-8621.854855
-9416.056104
-9616.176565
-850.487933
-379.409199
-9078.781486
-3353.229059
-473.704998
-11174.007666
-10190.095906
-9900.926333
-7311.213861
-3963.321326
-5927.149934
-8100.162551
-8379.777036
-10683.349012
-1892.412944
-9153.296032
-9166.898590
-474.143724
-285.745214
-1711.739289
-3485.252054
-759.953247
-9882.723199
-3363.561250
-4862.675363
-5627.712789
-9549.384341
-5211.625058
-4855.352793
-3428.119097
-8992.567002
-3969.793955
-8008.929012
-10887.477131
-284.014939
-4279.382196
-6773.218250
-471.523515
-8994.075381
-377.503920
-8371.348792
-10943.689176
-3073.202015
-7999.411591
-9413.523913
-9648.245869
-3443.088433
-7727.413587
-7692.148416
-9121.426918
-7709.584091
-7854.756154
-6778.746873
-8459.221500
-8029.079198
-7366.478472
-9419.423487
-1334.419358
-8973.527342
-5277.840412
-8707.553525
-10225.637188
-8352.701694
-8661.463920
-10950.647165
-8535.652315
-9509.193957
-9518.041316
-6109.351160
-6948.425118
-8343.233685
-1700.745206
-2830.669325
-3710.742481
-9655.467099
-9553.828980
-1700.897668
-7682.151651
-4487.676463
-1241.993724
-2494.614303
-5968.961505
-10696.152896
-10657.963319
-8741.173942
-7828.519013
-3217.820384
-473.127166
-9089.957308
-5509.937669
-6575.676860
-1134.281837
-10182.655463
-8343.232676
-5442.714150
-9034.064922
-3576.236935
-4857.289357
-4768.756742
-8020.364238
-6016.154425
-9906.802549
-2359.802482
-472.997957
-9481.922653
-4697.694460
-283.454917
-10404.216199
-7145.068269
-8226.812135
-5271.015213
-853.260292
-378.725350
-8089.916310
-4694.258352
-10403.317582
-8828.158763
-2826.728822
-8650.519638
-8024.177716
-10126.602988
-8618.690337
-3012.860616
-9657.119880
-8757.489084
-9517.542411
-6024.361868
-2476.756147
-9230.845251
-3147.190145
-1889.213976
-8373.188157
-9952.833352
-663.540686
-8612.370459
-8686.225842
-4802.296141
-9337.415507
-9124.504137
-6489.124035
-5772.421695
-474.225903
-3972.936987
-2362.027922
-10598.630325
-10675.986171
-6560.681389
-8111.854627
-6217.628140
-4873.518456
-8429.488058
-663.299333
-9430.392233
-9861.304606
-10070.906330
-5925.760288
-9838.069164
-6563.880721
-1039.783369
-9010.852978
-9882.719558
-9155.838116
-8389.287322
-8758.400737
-4444.308301
-3661.253802
-1427.797129
-2879.454194
-10797.308960
-8564.641092
-8265.555077
-2642.778087
-1041.798430
-570.235803
-9019.855045
-1326.529177
-9024.119350
-3636.943681
-757.414244
-3355.224220
-2381.933207
-3351.137233
-2568.452215
-2829.457234
-4769.347640
-3345.738200
-10887.631363
-6852.811492
-3331.769386
-2849.461592
-3901.635096
-8101.734663
-7610.682869
-8696.502930
-2735.232080
-5267.032487
-945.137167
-2269.104814
-8020.808643
-7920.036507
-6794.689519
-1709.998366
-2656.329918
-2466.633702
-2362.863013
-2361.105292
-1324.857750
-5364.160687
-2939.865583
-947.020872
-4958.695179
-10789.996994
-6521.321504
-3013.858873
-473.284228
-664.801725
-378.379214
-1987.325675
-3110.865222
-7040.406873
-1608.454185
-6613.290808
-759.114657
-5485.638012
-4314.665861
-947.776793
-2077.215588
-854.317964
-5623.745006
-662.295553
-7295.345979
-5057.212525
-9360.094571
-2751.540867
-5358.206523
-7957.053379
-1523.056865
-6549.561641
-661.134962
-9172.917756
-4135.092986
-7392.039456
-9324.159668
-9771.618274
-8438.821357
-9616.580457
-665.710527
-5124.290576
-757.376563
-7707.809822
-45.071229
-10875.284976
-1338.167250
-5367.216382
-7999.410815
-9292.622866
-6221.383787
-664.426564
-8103.774777
-9857.215454
-3159.235461
-662.672772
-473.123505
-378.577543
-3267.177727
-5638.059244
-8361.842689
-4196.627040
-6524.533897
-10435.874029
-9961.270135
-9480.179738
-1607.296288
-5180.759217
-4711.490685
-9815.973152
-1429.985766
-10063.666326
-758.435150
-9149.206066
-5500.116834
-3252.703914
-8052.251123
-1430.314004
-6377.966171
-1701.516558
-10529.612419
-666.245168
-1516.246022
-10535.683511
-7343.971835
-9259.576049
-6858.208546
-9685.267512
-7706.105011
-9347.723513
-6940.726244
-7996.463498
-9165.755591
-6585.684734
-8744.904648
-6108.316420
-3258.400647
-1703.555065
-10174.603486
-2281.950020
-7874.762929
-7918.975711
-2980.966505
-8983.161709
-2077.291179
-5630.986151
-662.960378
-6655.057070
-8756.481054
-5066.559375
-7934.357843
-1041.075971
-10275.655236
-3803.847855
-3331.368618
-9359.627661
-8256.379985
-949.309286
-946.774767
-6105.602478
-10417.774540
-378.384849
-3953.764229
-3154.256292
-8663.013526
-5181.055244
-9899.432701
-9969.593869
-10532.611713
-2362.855942
-8911.152363
-3487.112081
-9943.348977
-2570.016633
-10996.197595
-10273.808798
-5686.683298
-7578.746804
-1326.020717
-1607.068474
-5218.914575
-9459.233570
-283.652430
-663.127454
-2680.360461
-1890.821822
-8444.692593
-2750.315499
-8017.761510
-7200.363744
-11271.548574
-10922.736249
-7806.790306
-6459.460423
-5727.372434
-9390.587792
-10811.867377
-1136.330359
-9453.785900
-3804.492207
-8519.332288
-9621.248688
-9982.122765
-6198.231407
-8840.046979
-7278.154192
-6264.993537
-7719.097728
-6521.321516
-9158.016297
-7687.124226
-6474.083184
-10403.317727
-7913.936121
-471.709676
-8625.239797
-7956.519328
-8707.548504
-2768.133949
-283.489820
-1796.974413
-3156.306497
-10391.803848
-662.118054
-5311.401880
-5641.401587
-3015.885788
-1993.812565
-6005.003572
-7437.544638
-3959.135052
-378.081160
-665.734358
-5505.376048
-7104.576540
-1235.651721
-376.677208
-3046.444291
-10387.249585
-8903.221628
-9873.322985
-10927.838161
-10103.404668
-5367.748270
-9112.471213
-8315.641558
-6550.664244
-5591.189433
-1041.574030
-10395.723143
-1514.312938
-8573.734221
-6229.615847
-3237.132306
-6859.613877
-7164.812839
-1229.247424
-7720.047752
-7927.870133
-6454.440385
-5723.481271
-7483.208965
-9532.082711
-8608.817760
-8076.333786
-5347.359230
-1142.073626
-9723.050576
-2923.925836
-9758.541372
-8833.196303
-8843.545798
-8522.591627
-2472.415093
-378.747327
-9140.477718
-9763.770440
-9580.515466
-569.128296
-379.084186
-8525.591070
-6378.697916
-10181.804281
-9907.773340
-9686.154748
-6972.163486
-9499.351017
-757.965613
-4597.306243
-471.546825
-8578.352777
-11077.019628
-3237.134268
-5313.496708
-1328.188781
-8458.788728
-3016.840842
-9973.131474
-10703.731025
-6449.167425
-6609.160182
-569.518915
-1810.539857
-2483.929222
-8017.761505
-4121.809181
-7978.339905
-6738.043791
-10424.455263
-1703.559119
-200.617754
-5597.495433
-10292.264251
-758.863608
-852.358851
-474.071552
-3942.525165
-10503.257788
-137.845103
-1813.458875
-5917.966876
-382.506436
-1141.435368
-9492.637633
-7043.978651
-5734.456722
-4173.238526
-3220.733764
-4332.997079
-378.478838
-1803.017107
-9320.536337
-10245.004967
-5581.241989
-9998.182829
-8379.775939
-8125.030738
-2738.483803
-3474.953518
-3015.662578
-2281.539281
-6561.446449
-854.309785
-8528.767208
-4009.759907
-3854.099186
-2398.153067
-2679.768248
-2676.137265
-3265.986844
-4181.991006
-6483.286864
-854.898390
-2737.305567
-8782.629797
-7455.232661
-3155.472581
-9169.524943
-3250.646792
-3631.542201
-569.110050
-4788.000621
-10972.340642
-2475.341825
-5006.278892
-10106.350274
-3638.178072
-2753.402888
-2566.607063
-4700.084866
-9576.227291
-7585.937952
-2772.521031
-2288.222961
-8521.911169
-10685.355485
-8381.715409
-4786.617662
-3945.553234
-3522.817369
-3339.462880
-3136.053505
-3364.802592
-945.903137
-2769.396662
-2588.804882
-6693.233622
-2270.556650
-8494.583904
-5270.769663
-567.883257
-9277.726329
-2197.474484
-1424.452834
-5204.018821
-7867.951309
-281.705820
-9060.247783
-1899.284098
-1338.016791
-7812.380473
-10672.172462
-379.306170
-3384.272864
-6098.143833
-5311.424020
-6553.978109
-6841.548594
-1514.600901
-1323.670012
-1323.270143
-5715.738733
-7494.953409
-4557.050789
-6438.711711
-1422.893550
-3861.144143
-567.490726
-8371.350615
-7145.070153
-6374.871081
-2548.928793
-6123.405444
-568.465102
-2080.433816
-10218.354125
-1799.137221
-283.830221
-3757.125808
-1889.902729
-284.841730
-6562.989663
-6971.027966
-7553.306043
-1513.012200
-8409.536530
-7571.408616
-376.792556
-6505.754631
-4843.126417
-4399.745406
-1890.264477
-473.606209
-1232.681832
-10091.126975
-6830.923379
-5127.054559
-1241.349498
-8510.675037
-6793.191030
-8589.595085
-757.585427
-8052.835844
-7313.560225
-3476.902450
-9845.526141
-8114.995495
-1231.899304
-7213.409851
-9913.592058
-8291.491525
-4638.909335
-6263.334628
-946.807322
-3845.176421
-9656.300634
-10210.743844
-7266.477476
-757.450020
-10598.083465
-755.820584
-7880.072801
-2678.466728
-3857.876773
-7315.694309
-10614.820384
-9899.798274
-9892.397709
-1141.030714
-2928.085125
-7408.385060
-1985.636794
-1433.262402
-10006.479216
-8233.539244
-10635.467476
-9481.259232
-3254.686031
-4753.712294
-1434.119133
-10424.102655
-9006.931407
-2753.402752
-2737.667099
-3151.438609
-9857.078048
-4084.787467
-5623.748380
-9828.100287
-7153.181593
-10820.567207
-9102.546072
-3298.766840
-10369.969235
-5938.970699
-6116.840507
-8297.523144
-8626.360133
-8103.510581
-10657.260556
-9393.304563
-8462.276672
-2592.965745
-8655.894165
-7519.178391
-7556.520273
-7615.377081
-10305.623145
-5518.062472
-9618.633452
-10208.648299
-8877.401074
-9421.969118
-9157.260753
-8911.674507
-10699.692560
-1713.842618
-6434.315238
-4054.398052
-8615.434302
-9269.092369
-5220.825717
-665.704869
-3341.137131
-9214.935398
-1231.084842
-377.464892
-1241.802745
-4119.467137
-8304.035210
-471.707178
-284.220668
-1047.585326
-8443.024687
-9101.259819
-1710.770798
-2269.035904
-10856.099735
-9724.892741
-4177.881137
-2766.383593
-10099.302790
-10499.903206
-6520.922024
-8692.808212
-7740.036795
-2548.914733
-9584.407564
-2081.131205
-10791.950296
-3305.441232
-6143.287990
-566.730463
-6037.343319
-2265.554364
-3823.999059
-3218.535498
-7315.891267
-5516.868529
-10003.675330
-5050.244239
-6740.011998
-7207.266722
-762.056631
-10113.297952
-6032.587958
-1522.394850
-6732.274341
-4714.570197
-2873.217056
-4185.046023
-2077.398888
-374.910202
-9533.042044
-9609.943043
-4921.048281
-1419.602622
-665.621706
-1702.744486
-4678.526518
-6632.706536
-5561.011162
-3634.286266
-6815.245349
-8726.396584
-9423.092343
-9852.643255
-8207.900489
-567.191613
-6485.807680
-8422.548035
-6273.259527
-7893.516393
-662.644019
-8106.463932
-5546.577671
-7299.547173
-9618.031237
-8101.008572
-6572.827097
-7995.591058
-7076.231060
-5841.546313
-6915.907632
-8030.825515
-6179.834029
-4611.409885
-7802.510965
-8411.619707
-473.163140
-5774.769136
-6123.106636
-8612.663152
-10139.992769
-5627.709402
-7125.942504
-9148.115536
-8114.180366
-5934.616148
-6854.807959
-5902.083149
-852.110851
-2487.226469
-1908.262798
-3807.088916
-5882.398178
-3582.047237
-8663.008324
-3232.527357
-4702.621037
-9843.299115
-1326.951430
-10969.448768
-4312.306538
-2770.985204
-3062.001512
-8174.929178
-2286.908829
-8173.111802
-10465.550137
-9605.075971
-1233.835037
-6216.477003
-6524.329936
-7549.281597
-6124.942657
-6501.068600
-10559.149869
-9601.686289
-5879.487566
-1039.722868
-9969.594769
-3572.248157
-1327.285325
-2102.624203
-5128.934359
-8611.309231
-9973.083875
-8890.449998
-9358.613756
-1795.693289
-10016.755548
-8559.578516
-10039.329747
-10698.906334
-9806.542254
-8055.880906
-9200.731461
-1332.591900
-5170.606757
-8573.822391
-4329.023132
-2766.084124
-8532.511288
-5811.876367
-7210.993865
-8623.860977
-6462.456377
-9167.862868
-2585.764224
-3152.138042
-569.058077
-1891.953412
-10608.206094
-8706.163578
-6431.658471
-2495.174022
-3572.440424
-8322.336161
-8622.718622
-7643.677748
-1134.780053
-5677.607571
-8100.162302
-9757.044039
-566.755225
-9552.205354
-8505.586734
-1512.567044
-9822.470521
-664.927612
-9429.949881
-10049.194431
-9607.062444
-8679.264437
-757.843640
-3914.115587
-2198.470881
-10710.409322
-4637.869744
-10982.440792
-2923.315964
-3704.276644
-3153.485783
-10355.395509
-6424.369925
-3062.832108
-9252.408442
-9118.500045
-9611.876620
-7733.692415
-10111.494747
-9739.794917
-6459.627300
-6359.813037
-1702.683840
-8550.238866
-569.740996
-2752.028816
-4797.592110
-4011.785363
-6955.482585
-6520.499313
-6728.534290
-6954.559032
-10371.406881
-8708.081661
-9418.021586
-7722.701693
-10233.825975
-7919.680726
-5456.843087
-2550.262409
-9614.415568
-6282.101986
-10096.698132
-377.887939
-10967.816110
-10593.601719
-6758.521256
-9088.176497
-2361.312242
-756.385813
-8368.794793
-10112.644625
-568.918065
-4582.862016
-377.655737
-6232.430822
-10611.162462
-3378.946797
-3583.554929
-5590.646334
-6957.089639
-1335.171825
-7412.053483
-3041.979318
-2009.027647
-3331.766955
-4143.899287
-6377.998009
-7990.591044
-5820.795057
-3314.098864
-1425.388693
-3396.947456
-3942.837260
-852.121938
-3251.538340
-3710.739413
-1620.366088
-5360.923091
-5172.950024
-9241.234373
-5836.986591
-2004.514487
-4741.844339
-6024.225883
-10305.622951
-4414.298529
-471.857018
-6160.427084
-6717.699319
-8526.399299
-3912.046489
-10694.445577
-3630.423939
-3023.045897
-6625.558149
-1333.968157
-1522.397982
-10590.207421
-3635.676341
-10830.723167
-4701.176897
-3256.586887
-2476.789756
-1337.143821
-952.900890
-7140.583904
-285.806039
-5023.218876
-3436.681818
-7767.779245
-3076.813436
-2376.491933
-2781.123387
-1231.048888
-3816.608122
-7836.697979
-2399.311072
-4813.133573
-3616.251340
-5212.530584
-3255.691376
-2776.761735
-1992.834486
-4635.822844
-953.367375
-7867.683319
-10208.649596
-7054.471564
-1897.487825
-1895.588352
-8920.831566
-7765.596811
-9624.395564
-2583.370233
-5526.592114
-1985.544556
-3794.296449
-1626.922293
-4794.955721
-1139.484487
-4956.294050
-1812.837095
-2099.920866
-3861.134887
-377.810818
-378.596513
-7546.054402
-8448.978717
-6895.720411
-6676.737559
-6543.002082
-6669.003825
-7180.198357
-6363.486952
-2268.436304
-1325.146188
-3575.594486
-8122.949155
-3853.472880
-3947.485978
-7489.316371
-4504.999131
-1143.652712
-1331.464516
-851.952343
-663.386528
-9590.678052
-8201.942347
-1325.800167
-2175.117713
-1797.332344
-566.940454
-10685.176806
-5222.311050
-6039.548243
-1702.953747
-6523.718146
-1517.396960
-1420.549862
-2268.782837
-4310.289990
-6104.241451
-6402.146439
-1430.764801
-472.766531
-570.468126
-378.418673
-570.503278
-378.545913
-570.507009
-286.666631
-5996.496466
-7236.987819
-3014.663571
-6285.664981
-4942.616865
-472.955568
-2364.421940
-3676.915185
-3965.842367
-7579.655619
-5425.469714
-4586.145989
-1702.747720
-4961.099418
-1418.040076
-6428.120127
-9177.602815
-6062.782936
-3499.761277
-6191.146463
-948.249327
-1138.381377
-8919.184635
-758.247831
-8343.801816
-1606.494282
-9346.602980
-9854.515788
-10209.947646
-6556.100587
-378.652123
-7562.786380
-2283.225018
-7788.148321
-5291.659219
-570.083559
-3158.282335
-5141.379685
-9088.173878
-3700.858464
-7363.539062
-8353.906890
-1815.505148
-760.511658
-4638.904191
-945.168372
-9265.721448
-11014.332928
-5658.365598
-1896.537873
-2863.162364
-1045.197749
-1516.013156
-8519.333956
-9086.328880
-3522.246928
-8181.942787
-10984.878532
-2836.082695
-1723.298480
-10177.003232
-5531.746122
-10442.742241
-4765.516835
-1527.124336
-3508.225077
-10104.276721
-10590.508294
-10500.487939
-10216.781101
-5850.187589
-8776.846940
-8639.998338
-10794.177546
-8274.257045
-3109.771113
-3357.676724
-4610.540112
-5760.366906
-1709.207660
-758.011507
-9686.466003
-9588.681859
-8498.944082
-1241.322299
-6324.386927
-2771.487657
-2675.684642
-1797.420650
-8212.774935
-6901.703002
-4417.739509
-8798.053271
-283.517006
-1892.062676
-10986.338779
-1230.838868
-6384.703364
-10031.312104
-10070.949759
-9706.127088
-9719.109222
-7511.929023
-9310.629705
-8679.507782
-9474.324045
-8708.686358
-1337.982715
-9714.443709
-1134.780520
-6383.102537
-6130.917821
-3725.108111
-7767.786794
-10586.838583
-10817.988889
-3845.609443
-8408.697035
-9590.434880
-1330.923394
-1908.155927
-9918.485299
-6025.091766
-6778.521049
-7791.056677
-3572.269891
-9605.282722
-1610.185004
-10042.325730
-758.780388
-8438.287036
-7428.221008
-5766.827477
-285.322770
-1524.331042
-6374.761030
-4311.945607
-1512.273522
-664.324497
-9299.828252
-4459.808844
-9462.750823
-8852.759923
-9553.827643
-857.725867
-6222.103946
-761.107187
-2195.345940
-2652.357919
-9672.535379
-10645.473494
-10048.418270
-8245.097750
-2391.923603
-2392.527824
-8505.571698
-4762.152341
-5417.443347
-2456.653502
-2878.599294
-2655.729631
-8722.657021
-10522.958644
-9265.128521
-3149.958855
-8119.271806
-10135.862196
-8265.988275
-7687.376096
-10801.815274
-5521.402625
-953.498188
-1145.266103
-1525.280486
-5801.422763
-1434.290002
-5297.159568
-1617.511167
-472.487439
-9178.277003
-851.052246
-476.334566
-10885.398683
-6189.770489
-4752.163977
-3200.274367
-1986.544088
-3820.907601
-9686.356435
-473.030503
-6828.383120
-2102.786079
-9709.959416
-9566.033814
-10015.640049
-8746.821212
-10240.692225
-2559.273645
-1608.920712
-3117.542095
-7488.998238
-5838.399956
-850.528995
-10214.875682
-4253.702238
-8673.766627
-4971.412158
-1417.724078
-8692.807742
-8741.173016
-9915.555730
-1530.218121
-5577.844015
-1618.044687
-6294.149221
-9078.510220
-8297.831018
-8468.209611
-4278.322375
-6450.831589
-3392.882951
-7951.194078
-5875.134958
-472.517516
-664.177231
-759.287591
-283.660219
-3157.390646
-5616.357038
-10585.270100
-9104.754495
-7785.145061
-8992.559078
-8103.774317
-6942.881842
-8717.304254
-1338.015230
-5576.099332
-7903.015749
-2642.500294
-9073.291606
-5845.529092
-7513.439299
-1530.346698
-1527.601199
-6956.237325
-7694.657806
-6099.400270
-6020.120564
-5795.181895
-6278.234969
-7184.300240
-6020.897096
-8316.546491
-6480.693574
-7420.800528
-6635.998296
-9552.093161
-6493.976760
-8054.999066
-6872.736240
-5843.040349
-6353.584426
-7993.086292
-8147.710668
-6512.775936
-6646.737877
-7854.753536
-1136.278271
-8135.698716
-7014.167049
-8160.091850
-7054.470240
-8499.064441
-9880.631416
-5116.233308
-3890.945374
-1984.879924
-2364.428337
-4317.310927
-5034.951112
-5036.792734
-377.271327
-7012.628447
-286.057402
-1337.297623
-1337.502061
-46.570497
-855.176876
-6373.225242
-7270.844998
-3987.772723
-8379.426290
-45.829095
-3867.085077
-6162.000684
-1417.844139
-8831.381478
-9116.640640
-4611.406566
-8810.702114
-3522.249719
-8510.675741
-10502.447069
-1138.375347
-6201.508156
-7357.742805
-8174.774081
-1522.949086
-6558.594159
-3013.851558
-1889.373144
-1901.131071
-5150.909468
-10222.477331
-662.271758
-2387.053688
-663.798467
-9676.629064
-5715.741304
-4640.095988
-569.571833
-9810.777589
-9976.623921
-4896.838578
-7420.719282
-10499.903049
-10086.800872
-11270.605504
-4925.745152
-9843.300416
-10287.702419
-10195.332471
-8737.042030
-378.891113
-11047.035720
-1041.769684
-10037.269189
-7462.942018
-10054.038853
-3990.840114
-8550.240310
-10111.044349
-8509.220264
-9718.203253
-2391.536512
-7367.390944
-3959.127274
-756.796414
-2363.590441
-10434.524637
-6809.202291
-10224.878375
-10502.813055
-7007.384988
-6364.842648
-7655.873022
-8720.173986
-9494.409864
-3797.689894
-10549.855903
-2980.147056
-4737.614045
-4593.306879
-7526.849478
-7720.648174
-10443.096640
-10769.265851
-1421.825422
-6930.097166
-11272.551863
-6200.202333
-9180.135743
-5505.369451
-4053.737659
-6580.524362
-8708.125401
-7703.365100
-7201.977472
-952.652485
-4429.210607
-2679.018279
-8692.359423
-9400.477393
-9996.645282
-9670.939669
-9092.140891
-8989.072692
-8911.144686
-9344.588199
-5055.448257
-8789.020260
-2000.571481
-6809.201276
-6463.772666
-5418.056645
-9296.299964
-2877.231080
-9510.953423
-9092.138540
-8916.963013
-8638.689030
-9601.381119
-2398.644241
-10369.873758
-756.221210
-10346.001909
-4813.722902
-5799.713766
-283.119882
-8041.316190
-285.933403
-9999.227941
-8143.360992
-133.431922
-8739.164550
-952.576467
-8801.655240
-1040.344379
-2273.478697
-4038.991530
-2005.395389
-4944.420666
-475.446529
-7903.231604
-4748.372652
-1800.336294
-7894.159001
-46.476144
-7703.305145
-9290.021117
-8540.546167
-660.290036
-4210.500645
-7719.310792
-8891.823875
-5531.404179
-568.217207
-6484.157806
-10776.490502
-8686.333453
-2009.851316
-1624.400760
-2383.267757
-7600.224048
-8151.281672
-5659.804781
-6189.685956
-8603.739606
-760.417749
-7682.369935
-2976.860022
-8492.739669
-7771.973046
-2292.805837
-2484.877630
-1620.677550
-4033.891731
-4747.015403
-2662.768327
-10309.827344
-9980.941636
-9533.707588
-8330.586327
-7748.341488
-5708.193458
-3945.042752
-953.007360
-857.175088
-852.010902
-8972.813033
-5577.826787
-10891.650953
-3169.544876
-2979.703360
-1703.972861
-9718.353997
-3770.562770
-2478.217793
-378.536115
-1702.949075
-6703.310712
-10516.362870
-1334.387440
-1426.622210
-3204.764348
-10302.449897
-4224.068089
-4049.156797
-380.422122
-3489.579874
-10011.299453
-2363.584465
-1433.730754
-2007.066717
-2101.763193
-380.006389
-8853.700622
-9579.360437
-1145.438668
-7802.192614
-3037.498730
-8950.082699
-9184.391559
-10111.384639
-9250.343009
-9760.125350
-2291.874391
-4046.308856
-3318.627565
-3033.100364
-5809.144032
-3121.155596
-9806.754306
-8403.929619
-5165.054547
-3271.326082
-3759.011360
-4896.837347
-3048.336169
-4835.082081
-8465.153555
-6958.269929
-8125.635866
-850.615108
-2780.359245
-3158.281990
-5928.453240
-3028.867149
-1325.538518
-7742.271416
-6806.840339
-10663.495165
-4752.162061
-4428.498913
-7622.297176
-3363.612511
-4976.884497
-10308.987919
-7393.167260
-9507.397270
-4282.422252
-4186.078855
-2981.258611
-3339.461278
-3364.802116
-10180.989698
-4625.123957
-283.466225
-7026.239835
-10775.243391
-9494.197101
-9306.536531
-8535.139768
-7386.586780
-3136.058735
-2833.232235
-1145.266510
-2191.990367
-2959.537704
-10228.748568
-3533.058756
-3346.688165
-3542.908376
-758.650620
-1808.480341
-10000.723667
-4492.588734
-2966.533911
-1528.899970
-854.048786
-5127.058893
-2772.521059
-4748.375247
-1795.332079
-949.504217
-8544.339152
-1712.318153
-2759.046393
-1512.129045
-5103.455038
-1330.374154
-3160.176525
-4345.709320
-2377.553750
-8857.082126
-4696.045556
-3237.504848
-758.404054
-1337.708911
-5114.800543
-3357.116930
-5435.716952
-2279.410507
-4084.790010
-7668.925688
-2177.458646
-9229.832823
-4635.112045
-953.174922
-10177.990650
-10743.463564
-472.976194
-8010.732746
-1714.979646
-662.961230
-8039.304176
-4743.004069
-5457.336205
-9503.911823
-2487.667777
-2464.440687
-1997.835415
-5008.443632
-3131.586929
-3703.940395
-2089.816216
-1995.813091
-1818.155713
-6282.345128
-3314.102955
-7058.065222
-1626.748182
-8426.245956
-569.868084
-4894.040746
-5261.468200
-9276.666165
-1722.542901
-4451.299969
-2272.371018
-5374.054803
-1986.515991
-2174.532317
-4314.916851
-953.511182
-1236.514192
-10405.556088
-850.879279
-6657.612341
-1417.823904
-1606.696071
-6321.183398
-852.736960
-663.642961
-3295.623184
-5040.672307
-1891.364113
-6776.519761
-5145.072857
-6725.829343
-851.270452
-10401.971692
-8615.203122
-1720.259719
-1911.251320
-6312.449214
-2453.083425
-5397.943958
-1324.659119
-9218.518938
-1419.743499
-5586.848183
-6099.652892
-8508.959097
-378.818275
-379.137951
-570.676553
-3304.153086
-665.666784
-4944.411217
-4393.993247
-7858.261827
-5757.131178
-1889.802570
-5651.638354
-4235.403370
-9242.499969
-283.916519
-285.187937
-281.785761
-2266.571854
-1325.299265
-7144.580799
-757.702774
-3480.058350
-6644.669916
-7804.081762
-4437.574319
-1327.597320
-8133.449870
-4515.217985
-3018.844026
-3109.064674
-2079.526903
-4673.864445
-4743.001244
-3945.050321
-1231.896034
-1231.436462
-285.956328
-4508.558286
-5116.228180
-5585.676345
-7821.166062
-7924.374949
-6919.217166
-8074.284178
-10685.803233
-5952.379036
-10492.375937
-1898.501999
-6783.544613
-6342.417156
-473.899252
-8401.853598
-9363.085341
-3855.684518
-3917.294933
-5758.494303
-10593.585565
-8262.317897
-3797.349032
-9889.448087
-9232.301073
-2965.600166
-3201.318881
-3539.274405
-1814.185062
-6965.928320
-7771.393729
-5135.212259
-1709.998044
-7850.263346
-6734.361076
-2941.439468
-1802.216295
-7583.381199
-8145.187362
-6423.632278
-1233.081474
-6421.526615
-3136.061008
-9120.314625
-10390.724473
-850.718929
-2174.293937
-6163.803350
-1337.295670
-1703.722942
-2836.079072
-1044.296510
-2781.398638
-8826.232547
-9519.163761
-8583.797181
-4221.422902
-10890.414388
-6509.028367
-7217.051292
-3852.242827
-569.622441
-2198.260488
-9514.103825
-3918.673546
-4041.654166
-4044.583714
-10821.786254
-2399.630991
-5509.766644
-5431.925566
-1813.552310
-2006.179284
-10085.975419
-5987.079734
-7479.886465
-665.117148
-9857.223739
-10212.777922
-850.498362
-10628.238263
-1903.504161
-4636.603168
-10276.777891
-10073.298359
-7424.308160
-9989.677145
-3033.098459
-4241.535458
-4196.628276
-3234.764266
-140.652176
-1145.771184
-10080.715160
-663.477628
-5132.459062
-9484.005136
-2006.955984
-2195.346221
-10391.804189
-10027.331170
-3169.641754
-10994.392219
-6527.929857
-9869.915443
-285.835012
-1323.454699
-3949.642276
-953.413329
-852.262675
-6159.513548
-1042.717900
-5803.763262
-9034.068531
-2546.292100
-8589.914833
-3707.511881
-8925.018207
-5955.535276
-4311.972768
-8750.707583
-1895.590731
-5464.785241
-1429.477717
-6809.975135
-4757.274766
-7104.212197
-8707.324246
-9101.257474
-9240.433304
-9886.109563
-6024.360010
-3628.720114
-6527.930377
-4633.399283
-3890.601507
-3737.386261
-473.224142
-4321.464478
-2666.288705
-2656.331632
-4037.416924
-4737.617110
-7858.258571
-5715.845802
-10190.098432
-10875.284749
-8423.020380
-2266.614172
-2360.362570
-4132.972848
-953.858290
-5673.943171
-7433.822413
-3660.900817
-5339.341187
-6714.010469
-8705.357307
-9367.941514
-1515.009445
-2003.563163
-2196.313235
-5972.467835
-2781.122398
-6363.138108
-5945.590109
-9636.276865
-9469.083951
-10401.354527
-7852.118640
-1819.163590
-3295.223414
-5796.641175
-2288.201682
-8672.820978
-8847.122456
-2943.785826
-8600.309010
-8271.149468
-9907.773707
-9276.071276
-9487.447065
-8813.599910
-7928.247889
-9457.737631
-9443.883096
-9560.220083
-8099.476532
-7284.180658
-10245.116010
-8768.112121
-8797.093040
-9320.040531
-9283.612518
-9655.465807
-2831.455330
-10308.061713
-8352.704413
-9050.381377
-8820.664238
-8064.215821
-2475.226615
-665.756258
-10982.929131
-3122.268202
-1528.163609
-9520.341834
-7073.151649
-9440.680368
-5620.633593
-3516.676578
-9953.228521
-9550.193182
-3167.162272
-3900.830405
-7771.706698
-2829.397520
-6478.688181
-5569.988313
-10951.243723
-9903.417746
-9982.143958
-5147.502448
-10418.336030
-10099.486981
-1134.566268
-4135.998483
-6004.059892
-7392.039695
-2461.578627
-1910.585575
-1910.555868
-4512.332191
-4230.508640
-1529.997892
-8822.173676
-9091.037504
-6817.266046
-9190.865743
-7310.763020
-9234.337841
-9422.040724
-8195.176306
-9648.153846
-6472.032298
-2009.230591
-2199.417603
-946.424391
-4402.500445
-2782.352832
-10039.851379
-1891.591040
-10123.455802
-5406.337631
-1909.002152
-283.899818
-8405.385953
-10890.970020
-2587.868928
-2395.630899
-1811.085286
-6621.938148
-200.703033
-8789.336377
-5009.026791
-2289.420197
-946.697743
-2191.871131
-10405.895931
-7991.056367
-8081.285783
-3265.853453
-953.837469
-952.177894
-8751.300050
-4977.257057
-1720.734778
-10011.552464
-1336.319844
-3391.409674
-4906.013568
-4498.730323
-9914.716278
-10392.044939
-9817.303917
-852.094522
-7462.584558
-10775.243139
-9979.358935
-2584.064300
-6644.136128
-3814.500639
-568.881161
-3650.649025
-378.653796
-569.877222
-8205.389315
-2282.900240
-6884.976637
-8474.399593
-2286.909468
-9748.682286
-4396.435696
-3540.565975
-8094.516050
-6516.539669
-9475.088499
-9427.787030
-1139.858912
-10577.743973
-4479.341458
-2939.364150
-8066.058542
-3574.957370
-7944.905044
-9518.369832
-1706.718796
-9323.318772
-7263.369003
-8224.368241
-2457.343954
-3763.993528
-7331.691351
-3858.401774
-5999.388781
-953.755888
-1144.999517
-6793.670747
-2005.364257
-2171.724181
-4432.890559
-4306.824415
-1326.109898
-2177.453087
-8029.243962
-8072.757608
-3720.229745
-8985.211893
-7843.023291
-3616.845480
-1136.309889
-7925.145366
-3161.000635
-8555.071685
-3244.758022
-2459.184347
-1234.328770
-9204.647678
-3341.135739
-1325.535536
-10128.990826
-9972.573346
-1229.520469
-8007.389187
-2677.609045
-7280.111464
-1338.060811
-3109.431548
-6099.564048
-2496.399229
-3174.866712
-7496.177630
-378.543638
-8686.226267
-233.237603
-7520.316758
-2371.751413
-9971.415697
-10386.172074
-8302.006150
-7311.214289
-7959.768462
-9504.747147
-5651.639161
-8921.934724
-9125.212664
-9889.687847
-8915.491566
-10205.901508
-1891.207071
-9261.990234
-4337.754351
-3202.435800
-7916.143186
-5554.328262
-7647.179964
-7318.299889
-8903.936153
-8143.360953
-2979.703852
-6104.243409
-1236.935883
-10282.543057
-7313.075508
-9845.440477
-5546.147639
-3164.270428
-4319.313803
-4649.555534
-4650.698264
-8102.790613
-8202.789187
-9019.689546
-6509.027559
-9402.483769
-8472.385758
-1892.958302
-8750.706748
-9166.905585
-2472.122074
-9716.229647
-8219.872845
-8405.922068
-1044.558881
-6817.668750
-852.365933
-6268.777679
-10287.184147
-6681.147863
-5664.495426
-5757.157342
-5961.226141
-8543.318980
-6600.760460
-7342.455549
-7437.615567
-5747.474573
-8495.056201
-7908.919962
-5865.469253
-9613.347463
-6463.773008
-5828.523530
-7904.525370
-7276.493599
-7817.493756
-8910.861167
-9992.313299
-6666.032092
-6239.554783
-8209.349001
-7398.959451
-7914.332596
-6710.944874
-6521.724272
-6453.248882
-10392.044597
-6116.762508
-3639.506330
-6648.575886
-6411.275828
-9010.121857
-4368.008434
-8867.355812
-10491.463321
-7712.377487
-2674.607548
-3565.399265
-2664.606293
-9862.798757
-3719.248531
-759.614457
-9320.536252
-5658.111947
-5848.358929
-8921.986963
-2869.469077
-5925.398845
-4516.298012
-4793.250529
-3476.325449
-8249.071263
-10433.769256
-8218.000665
-6305.427852
-3726.284354
-7420.482412
-4169.659461
-8369.484138
-662.645178
-9033.950020
-283.149203
-9345.306524
-2847.473731
-8214.809088
-6095.744600
-2875.980697
-2007.688681
-5819.858171
-1323.328455
-8151.691153
-4303.921607
-1906.585882
-567.855525
-3260.122049
-9122.979520
-4226.686478
-9287.060784
-1529.489201
-8177.476396
-3487.343556
-5305.321176
-10677.307197
-7363.535640
-10510.867408
-5727.369375
-2923.919892
-3407.331010
-3478.823748
-282.274845
-8446.144156
-8177.203216
-6556.100373
-2587.253183
-2782.174313
-3129.003912
-3493.180603
-9950.924442
-4607.516952
-5206.122904
-1337.965223
-11037.196121
-9372.208589
-2581.618628
-10244.014999
-9671.732943
-853.586862
-3017.857944
-1608.925052
-9494.413821
-285.163325
-9395.208206
-5040.762825
-3354.059890
-4058.659506
-5744.231020
-568.465205
-1712.572040
-3854.631928
-6915.157541
-3263.267064
-10523.253851
-9802.498792
-3293.962894
-10422.735959
-9844.469973
-1819.792262
-1141.715486
-2547.599300
-1983.299873
-1797.790541
-2555.435804
-377.449107
-379.267636
-2270.137741
-4008.424557
-8091.970979
-472.146749
-4397.294675
-6783.543558
-3943.139450
-4039.323583
-6387.110320
-10666.432950
-1518.582825
-1701.515355
-1516.245604
-9784.960009
-7205.869613
-283.130378
-10878.227834
-5562.140437
-9022.071380
-2585.195611
-2395.143441
-2473.881508
-7134.279203
-3800.597902
-3660.519505
-4232.170870
-8179.542808
-4468.841751
-3131.336367
-3254.685678
-4536.297582
-5834.515303
-4865.727124
-8413.601149
-10577.744338
-472.168850
-4714.569561
-4813.132751
-6812.942020
-7119.990265
-7215.642645
-1045.826805
-7727.078184
-4963.114204
-1908.260973
-9310.274779
-4673.479510
-4216.198741
-283.762682
-9427.785149
-10103.406069
-1327.280929
-9158.010436
-8397.753410
-6423.631754
-2760.871626
-948.001757
-945.519920
-8397.029683
-6522.698870
-5684.274689
-7687.310947
-7624.683149
-7918.975725
-1898.377290
-3076.488364
-3722.208055
-44.470520
-6157.307077
-8923.180357
-9285.047052
-6543.002978
-4873.136358
-2639.910400
-5151.565235
-473.290380
-2639.770521
-2646.546314
-7491.316411
-11052.390344
-1429.354769
-1990.070954
-2585.763074
-8111.854445
-2666.268871
-7616.386821
-4500.880350
-9418.021765
-6948.422753
-8803.930523
-951.721367
-8810.464584
-10363.254972
-3213.320317
-1892.874263
-8530.149640
-8536.387860
-9186.930003
-4534.961424
-4532.573451
-8926.126298
-9459.203723
-7957.107367
-9810.990527
-8405.922497
-9207.929148
-474.461327
-9285.811324
-8916.963208
-8728.569119
-10078.049378
-3735.927549
-5313.445942
-9416.056345
-8821.577733
-5634.638911
-1608.383135
-6187.140263
-10048.784599
-10367.558505
-3610.698960
-9124.375665
-9105.508969
-1512.278429
-10404.216040
-7347.921634
-10726.255743
-280.402674
-8148.847049
-3352.106259
-9928.408012
-5125.164179
-283.947048
-2360.932992
-10795.467152
-10200.464246
-1433.509437
-9371.904434
-10221.303847
-1819.741302
-10195.333725
-3326.349442
-2007.069072
-8898.131071
-6191.147651
-8383.706783
-4087.851936
-2087.212294
-5715.849049
-7066.855554
-6969.500767
-9078.784109
-5509.762277
-7241.040679
-3321.352028
-5890.970227
-567.809777
-8211.079149
-7498.461413
-5845.502269
-7858.926539
-4637.478913
-6656.186397
-757.750759
-1040.034424
-3816.606214
-4542.888702
-4908.953800
-1705.677470
-9459.202467
-9605.956567
-2361.791118
-7771.973423
-2197.307239
-9008.518527
-8468.515062
-4397.333463
-9068.182011
-9333.791504
-4214.665028
-3272.363770
-7380.660459
-9818.788046
-9196.255229
-3483.920843
-755.973638
-10576.569197
-6994.369853
-1235.217015
-10887.631248
-856.402423
-5391.920462
-5820.141474
-9310.629259
-6930.098708
-8486.889205
-2546.609151
-7809.111942
-5635.466295
-7320.431506
-7216.866006
-5620.629892
-10846.594535
-378.012967
-6259.163502
-2677.104043
-7243.341481
-1815.527502
-1621.656344
-9269.093421
-6405.726212
-2979.151969
-3385.332709
-851.331286
-377.902013
-378.315369
-570.515646
-378.447848
-10306.854483
-5217.473559
-283.447566
-4736.675932
-2267.335305
-9419.398484
-10307.502009
-3763.874455
-7611.123212
-4797.363220
-3476.000265
-2738.083986
-4593.212126
-7499.125241
-2107.121673
-3855.769560
-10402.603253
-1912.650727
-569.903745
-10285.438656
-8558.212069
-4124.741106
-9511.282013
-2398.195506
-1136.112675
-1904.816272
-1238.038351
-8965.998781
-4513.380611
-567.883718
-946.981080
-7937.474512
-4694.257330
-284.106117
-4249.615092
-8454.898395
-3949.634552
-8450.616665
-4190.130141
-7910.106534
-1141.828053
-9614.081355
-3488.980661
-4096.453000
-2012.551979
-2205.281176
-4913.010575
-2397.064781
-10308.061738
-4408.074559
-8708.685103
-5504.361582
-4846.284970
-4844.702378
-7895.161229
-5334.989076
-857.522869
-1626.723685
-1137.683994
-1238.897971
-5216.919037
-4219.381522
-569.908726
-3491.008907
-3105.844435
-5161.975885
-1433.160701
-10661.148025
-665.293759
-567.719848
-1041.975815
-7114.793032
-8147.336267
-1718.616696
-378.935738
-6186.541060
-1420.554146
-7851.821832
-10161.689334
-5212.525425
-5748.063052
-3713.195474
-3987.252575
-3987.769387
-1527.592456
-3331.366261
-4146.162641
-3587.112884
-3494.456851
-3752.770963
-1717.873325
-4102.598086
-3819.678816
-281.727778
-1814.888047
-8459.157843
-3016.455361
-1626.963564
-2376.093664
-7719.100162
-6213.159551
-6536.471771
-9621.248780
-8005.109532
-7312.673594
-953.539466
-6718.295290
-6655.917539
-7453.729809
-5128.938757
-7552.743151
-6646.548547
-6790.123544
-5873.836656
-3316.465836
-8685.693554
-7831.302234
-8265.133766
-10618.590531
-8025.041931
-2469.491329
-2012.768830
-1817.718412
-2293.015821
-4314.685167
-9499.839583
-3125.142452
-8029.000514
-1908.156845
-8092.528600
-379.992260
-3035.663956
-3292.583951
-5071.243893
-3271.822181
-3898.082177
-757.385001
-2397.694157
-8919.175087
-1337.057736
-11176.838290
-7904.469390
-7230.745540
-2266.016778
-7797.076806
-4052.185105
-7529.967255
-6187.138612
-1325.081689
-6553.628398
-664.843500
-10497.553888
-377.252859
-569.907702
-569.857182
-5969.887745
-3174.370403
-3074.275421
-3336.321976
-7423.827271
-3856.565319
-2878.390236
-7921.291023
-9679.445717
-2955.730618
-2953.774357
-3857.071854
-2489.344290
-3573.825010
-10100.208631
-2098.948573
-1985.356527
-2171.211428
-3910.868042
-1906.370903
-2843.568927
-4372.503873
-1043.454543
-3165.317845
-4519.648478
-3024.897708
-2847.473125
-2980.557879
-4275.093306
-2585.194374
-8340.342331
-8916.117956
-10815.174741
-1337.840937
-1433.157916
-1529.528168
-9164.702871
-2288.223772
-3368.008052
-10102.903587
-2926.810517
-376.680285
-661.122617
-3466.394765
-9533.571943
-9428.606995
-2855.448208
-2662.768015
-3554.530380
-8759.456304
-9561.067051
-1331.467746
-7119.704701
-4019.875688
-2689.637593
-2882.047014
-4150.437895
-1999.523912
-3064.590890
-2766.084749
-4050.309590
-4566.468568
-3203.733849
-4603.025330
-3351.136765
-3665.135879
-284.626118
-3076.487864
-8018.606623
-2871.712559
-285.074253
-3951.624288
-2302.427936
-1809.730493
-3261.745568
-1713.085098
-2383.268313
-4420.200135
-7246.258185
-3553.107425
-8032.664488
-6024.227609
-6229.359228
-7474.474060
-8789.335798
-2829.292254
-4047.083059
-945.494816
-4043.541927
-6397.423316
-1047.327145
-284.208409
-2871.002235
-6963.025874
-4121.296139
-4486.418119
-1417.812137
-8947.797155
-6799.315002
-4229.379484
-4231.486145
-7220.533162
-2374.635445
-3851.750001
-3369.242042
-3368.833363
-3048.337443
-3713.945389
-2659.225613
-5090.440908
-2951.986798
-2742.573621
-6049.596834
-3455.341868
-8519.609854
-4429.209506
-850.528869
-5275.645311
-8418.154335
-2785.268863
-4679.482981
-4516.662778
-4509.937442
-4314.859225
-7955.088682
-4496.795998
-4851.820362
-2784.679644
-2639.785204
-3174.287494
-4143.868364
-4338.918924
-4244.786132
-4229.379324
-4228.772589
-2191.989375
-2385.965477
-4247.976762
-2479.621201
-4343.222112
-4631.831477
-2495.174800
-6872.716907
-1520.342658
-4435.769281
-4344.255963
-4225.898269
-2284.495836
-2399.078387
-473.002427
-4898.217841
-4796.643635
-3425.485018
-4103.989502
-4018.265946
-3938.627535
-4024.352910
-10946.533276
-3933.540393
-4122.530613
-2473.679469
-4442.689631
-4398.057692
-2976.825500
-5220.830469
-4439.788064
-4700.084113
-853.785851
-4711.216026
-4810.344156
-4135.444194
-5422.432146
-4420.994088
-4534.539730
-2561.645606
-4001.509564
-4088.707581
-4274.202154
-2181.519538
-2086.339009
-2274.589141
-2586.854392
-2489.345871
-2083.103837
-1988.447780
-2012.397550
-1819.712453
-9465.567866
-4983.087289
-5174.575597
-5815.717995
-2551.024488
-5428.680677
-5175.986864
-5081.627544
-5004.591190
-5200.717537
-5012.069911
-4919.149222
-9450.279791
-5296.387599
-4641.052078
-4837.281835
-5788.651040
-5961.936410
-7924.241494
-5583.658808
-5500.121847
-3880.349820
-3598.491979
-4442.658267
-4477.751157
-5387.922450
-3129.393096
-3030.956910
-8301.197028
-4961.346815
-5012.429721
-4935.815293
-9584.044230
-1905.709404
-1714.194388
-4536.297918
-1325.783862
-9517.546466
-5403.816084
-1806.371108
-7771.799153
-4966.782552
-5380.971499
-2302.659230
-1901.131306
-2292.806013
-4660.930208
-2173.488149
-8130.841838
-8900.161358
-5068.495292
-7111.199314
-4113.007297
-3894.010318
-8076.338615
-4878.028315
-4967.762117
-8135.698489
-2580.310840
-2456.659996
-7798.760219
-2943.786513
-1230.769665
-9224.395413
-1530.544151
-1434.280156
-4703.964873
-5303.941408
-7620.783198
-4367.100538
-4459.809305
-2106.539750
-6196.019220
-2107.328083
-1915.470287
-1916.324971
-9122.865514
-5028.771496
-5307.813076
-6763.556903
-566.387926
-10172.573343
-7785.282969
-5032.292948
-1912.524300
-5591.331817
-7400.448857
-6644.057605
-1703.857243
-379.253349
-569.809149
-379.259705
-10026.926304
-4161.617690
-666.124831
-5407.854233
-5128.824396
-7203.074341
-5764.819291
-662.632598
-1611.290223
-8171.338176
-664.168624
-10073.187791
-3481.593965
-1434.207689
-5399.866417
-10585.269686
-7442.721216
-7062.649416
-6256.476502
-5420.497396
-7524.298847
-7753.557734
-6982.938712
-6762.385669
-4818.249228
-9305.342421
-9102.687814
-9295.671561
-9097.275034
-1893.788586
-5000.210375
-5090.778220
-2012.379722
-1894.261245
-1796.144731
-5996.497547
-1889.799558
-2080.557011
-7813.711688
-5429.743148
-5115.129042
-2645.509753
-2739.007274
-3581.459511
-4137.837094
-945.210873
-4405.546383
-1137.622457
-1049.808927
-1049.605439
-1048.724632
-952.386087
-951.954568
-1143.059276
-1141.351113
-1239.874052
-949.815078
-5314.514998
-3957.348117
-947.307083
-852.478621
-947.002397
-1043.301224
-8810.462870
-4779.486600
-4769.182751
-1240.710785
-1043.601462
-4492.833376
-757.591716
-757.488112
-5890.967388
-6531.834019
-4937.296880
-7971.058615
-9363.088222
-5514.291041
-5052.409903
-3662.924123
-3754.708485
-5520.447030
-10582.586868
-6574.600622
-6015.504643
-7212.283147
-3960.263306
-3868.150232
-7162.036107
-7352.244513
-7541.584992
-7635.914591
-1983.279973
-5577.947121
-2079.740338
-3031.617099
-7963.475510
-1517.980876
-5132.440908
-5246.176783
-2829.421362
-2841.673511
-4142.614927
-4150.631503
-4058.666579
-6524.329917
-1626.369475
-7090.141256
-1817.241478
-1718.009212
-1621.871688
-8097.782277
-5220.846488
-7672.368254
-757.802276
-7174.597311
-3116.194322
-4332.996993
-5131.281848
-5130.188331
-5684.694566
-4851.414771
-5308.902134
-2733.220997
-1513.699456
-1608.375384
-1795.981511
-7270.841904
-5341.067187
-8429.487033
-6960.269495
-6789.263395
-7249.854360
-3029.676207
-4153.658228
-377.152749
-472.611837
-377.442999
-2868.482587
-4697.692273
-7433.819379
-2552.909351
-3942.426301
-376.800788
-758.239622
-568.637698
-378.584814
-473.874518
-378.258528
-378.588164
-474.206787
-474.242010
-570.553622
-570.439570
-5325.356864
-5325.991333
-284.974587
-286.238087
-283.857375
-4026.931151
-6105.698544
-3951.116489
-2173.721825
-1514.001353
-1433.420165
-5225.700971
-5961.934988
-5959.866948
-6821.379578
-7948.485729
-1515.613175
-1328.191938
-5436.253067
-4886.909043
-7224.197982
-5203.781279
-5118.428514
-283.437782
-282.855764
-284.025095
-286.708370
-377.362412
-2736.253822
-7151.352951
-4840.697300
-1797.000130
-6983.299224
-9241.238196
-5847.260943
-9381.969058
-8162.456987
-8066.870407
-5972.976690
-10502.446942
-3387.321493
-2361.956537
-1432.187601
-1528.552021
-5146.332687
-6193.874066
-1512.133065
-2357.075444
-4584.374107
-4529.123333
-5019.256827
-6338.956444
-6352.864750
-5568.541247
-8080.982359
-7675.915785
-7682.687623
-7620.783206
-6734.360577
-5229.450372
-5893.153765
-2359.258821
-5491.005061
-8698.694093
-5235.135055
-1239.871880
-7990.275486
-5028.178026
-2642.392093
-662.472425
-286.049179
-6388.174045
-5730.886268
-287.199068
-666.247963
-3483.898316
-1331.628974
-7357.739666
-7466.037460
-6841.547276
-2102.625715
-2103.445299
-2200.028683
-6120.627891
-7636.217689
-5292.028603
-7746.541622
-1985.539139
-5141.403596
-1238.051200
-2748.640106
-8565.186130
-3894.006215
-8383.745515
-6297.321985
-8118.862957
-3577.781554
-7699.810845
-7500.097308
-1145.921594
-1142.188088
-1042.076399
-7090.770644
-8099.457706
-7085.392953
-7059.502420
-3481.504384
-663.801551
-5240.254241
-4948.166807
-6844.567391
-4339.274296
-7614.922890
-2367.482820
-7717.855264
-2735.976203
-8206.807698
-10048.660736
-10191.078376
-7007.728369
-6906.111077
-4294.446475
-2921.644141
-8299.289590
-7011.323017
-7624.188341
-2399.507165
-6880.872640
-4844.699701
-7323.273179
-6807.092312
-10946.533523
-3383.909130
-8307.461121
-4758.997692
-8725.298877
-4809.538230
-7110.985913
-1754.409793
-45.516653
-45.888001
-10800.109803
-8894.330679
-10552.266168
-10512.590774
-10779.775827
-8178.721517
-10794.911308
-7404.324301
-8001.072565
-2734.451956
-759.783078
-9064.662904
-4536.888102
-4905.094027
-7449.691181
-3610.374340
-5908.263194
-5375.485217
-5178.068106
-5078.693610
-8714.345671
-5857.739928
-7050.138603
-10370.008248
-9967.689101
-4969.536202
-6921.155394
-1719.193164
-8247.426595
-9116.413865
-8767.060548
-1622.435728
-9574.865675
-10695.193528
-3173.878525
-10172.572702
-1814.875351
-10621.257905
-8730.999576
-9386.149132
-1419.723671
-4541.180011
-953.872323
-8566.679146
-5887.823901
-7539.474357
-3478.740918
-3480.658809
-7825.116789
-5517.070219
-3106.722045
-2460.231128
-4234.024076
-6891.983148
-10884.963739
-855.972887
-4214.200643
-3847.754110
-5067.561371
-7127.765350
-4892.349703
-8696.525655
-3387.954332
-9617.791169
-8064.217235
-9020.216032
-2558.453040
-6420.645979
-5504.173898
-6214.905231
-3165.318149
-8225.427490
-8822.674901
-567.590953
-2291.874422
-7963.475207
-9371.911487
-947.768541
-568.553289
-1812.097311
-6053.783384
-9027.976877
-284.877673
-5630.989238
-3369.422057
-9884.967166
-8715.614677
-10776.490236
-2827.633960
-9921.163714
-9817.306087
-1611.885268
-10671.979890
-6181.758458
-1337.987199
-4698.519114
-6196.017653
-7996.038508
-5968.064929
-10881.335696
-9428.964809
-7668.171071
-6858.206569
-6318.335588
-9798.720249
-2786.014027
-2194.221669
-2455.996600
-4091.592021
-10470.073641
-6987.673946
-6520.498433
-7846.455571
-10238.429491
-662.729761
-2190.843256
-2395.885670
-4204.043053
-1795.476186
-2873.216642
-10950.647382
-5860.089918
-4672.684223
-9340.547225
-4437.564733
-376.870543
-2666.269262
-4316.130399
-2564.942652
-6692.898433
-3242.383312
-5554.386923
-379.318254
-286.247167
-8807.890572
-5120.941317
-5081.629346
-9515.828632
-4130.924439
-3321.348620
-3161.984275
-9814.356396
-10303.091315
-8069.981144
-5987.301193
-9884.648474
-2265.342262
-473.954229
-6281.905044
-664.449066
-5577.390813
-5772.596347
-10647.712402
-286.953706
-5978.324690
-2776.761064
-8321.806871
-7121.951450
-10706.276109
-10794.455602
-6140.909157
-10125.674581
-10653.789633
-7844.131945
-6756.468145
-7386.586486
-5084.518810
-1614.560316
-4862.673038
-8104.493939
-10602.025915
-8014.634497
-8800.287945
-286.139597
-10287.595046
-4880.510798
-4246.776074
-7264.673176
-10881.336414
-8632.844663
-2085.222449
-2483.627160
-8414.334642
-4006.218747
-951.004662
-2573.183675
-1432.868273
-10216.799840
-3298.038934
-10744.584612
-10550.077047
-7359.157968
-6538.650456
-6518.925700
-7090.139576
-1705.153736
-3454.852994
-2453.416964
-4408.853914
-3574.912203
-4777.394267
-5047.893161
-9706.123835
-9950.925897
-568.271434
-856.938471
-1326.469990
-9153.724139
-471.915929
-4701.174121
-2645.017918
-471.773571
-4436.072555
-7820.413869
-4941.745707
-4502.987242
-4437.564406
-666.180121
-6277.067191
-8542.483767
-8615.433361
-8414.333971
-9010.848539
-7977.866719
-7320.553308
-8314.381487
-10176.143885
-6949.500591
-6817.278891
-1902.513100
-9360.087919
-9346.595646
-7050.345280
-4326.687176
-6702.951975
-9443.930504
-7261.500076
-4411.294035
-2787.322572
-2784.772131
-473.162672
-3077.013302
-9488.339378
-8114.737870
-2560.735990
-4572.753688
-10235.843296
-3014.661499
-3552.695918
-44.644978
-8579.084823
-5131.566648
-1324.233831
-10881.344727
-8271.526769
-1229.155325
-5396.302736
-6417.421583
-758.952349
-3823.997962
-8237.683571
-5333.630073
-7657.188837
-3367.613384
-2194.212534
-2554.022296
-10053.750969
-8017.747193
-474.840993
-7101.026986
-3109.051701
-10491.195753
-7812.380530
-7662.649326
-10853.561959
-8614.871168
-10262.727154
-283.789943
-4797.590993
-5305.546440
-7606.836144
-4835.440372
-3613.314588
-7023.468722
-8517.203302
-6490.431156
-10259.895540
-662.451598
-8680.994279
-473.873605
-6890.377775
-8227.703800
-9864.353052
-473.340652
-3174.287082
-8120.638186
-4665.307442
-4318.236578
-5045.298593
-5323.722828
-9324.272075
-3462.661431
-950.627084
-8817.935362
-2785.268158
-4618.692455
-4004.993184
-10792.127102
-9257.734736
-5943.499317
-4024.353370
-8891.824394
-947.737657
-3467.522096
-8438.841169
-3707.032400
-8437.061651
-9443.936377
-9430.394009
-8981.645869
-10552.266669
-4538.597368
-9532.084465
-9481.646550
-10885.398829
-8414.670787
-8741.125499
-9527.636747
-9386.149931
-9651.003328
-4573.547160
-1987.081890
-9749.546267
-10139.600864
-8921.688023
-946.765230
-1626.842565
-8947.798451
-1819.260031
-6620.560823
-10065.846461
-2787.112194
-2787.269917
-1522.951665
-5666.233429
-4120.154949
-8718.363311
-4832.947714
-1136.537101
-6272.680286
-8453.918371
-8622.447701
-3244.094424
-6369.015796
-5118.252908
-3887.378763
-8550.309103
-8480.102008
-9731.040391
-9707.395893
-9510.949377
-9617.791292
-9706.873218
-953.289992
-5407.932508
-8251.400341
-8910.912686
-8587.175504
-10559.575269
-662.907836
-8731.280200
-9137.452011
-2829.419445
-6328.684694
-8707.309485
-3127.238927
-10427.910740
-8738.884713
-4706.089969
-569.950389
-5327.289451
-9561.229537
-7263.513266
-5495.663642
-9714.443490
-6318.335317
-1421.685984
-284.354629
-9257.253478
-5328.929473
-7291.180624
-3055.063791
-10870.754081
-5226.561103
-2556.915560
-9169.519281
-10404.717267
-7417.258270
-7733.690231
-5500.495089
-4327.440730
-3060.993640
-3661.880438
-2779.982957
-7504.748425
-3019.674697
-1615.958051
-474.663835
-474.951326
-2078.564413
-8116.782967
-9400.404386
-10808.010957
-3688.900308
-1518.950278
-48.165723
-3066.265139
-3564.447138
-1333.510435
-5959.868291
-6913.364003
-3759.601196
-3794.120002
-8145.187192
-3222.995279
-2000.570108
-8675.087658
-10863.462611
-4870.773397
-1426.136671
-1425.388944
-9788.591631
-2008.561663
-8054.999953
-6725.617707
-6276.055990
-6388.827508
-6422.375643
-8222.233517
-9198.873183
-1896.625132
-1913.622380
-9182.494137
-6009.560595
-8720.172851
-5780.704490
-7791.441004
-7918.512573
-5796.637494
-6453.249262
-10187.270002
-6994.268730
-6581.999341
-7073.317784
-7175.698852
-7066.625887
-7332.761384
-6983.281033
-5963.922299
-5596.561040
-8670.140534
-9415.204623
-5792.969523
-3495.479848
-6875.246517
-10771.658939
-6836.660890
-9271.777060
-8010.981224
-7719.671499
-1142.423285
-377.984480
-471.779154
-7904.467283
-8498.796834
-8031.684292
-7113.686151
-7713.726868
-7955.039440
-6420.121724
-1985.365074
-5823.806345
-10988.004282
-9406.742973
-6369.015167
-6886.781551
-47.443800
-7967.929528
-3661.253983
-4358.468940
-4726.403410
-1895.794764
-9031.877513
-5187.613477
-5374.911713
-5546.143894
-1891.588759
-2078.280034
-2172.778350
-9407.056480
-2642.771703
-2926.516728
-3114.408301
-4224.061588
-4132.582578
-1236.267293
-1045.028694
-1137.199993
-4772.032240
-5401.844586
-3955.974036
-5771.443827
-568.315535
-3311.057798
-4154.192791
-4765.736446
-6461.258122
-2478.261241
-4218.543114
-4786.618940
-6737.052008
-9209.801428
-1909.823748
-10979.646206
-1892.568953
-2943.538493
-8001.462877
-8705.358866
-8325.915468
-2484.877872
-7675.528682
-4437.387702
-1136.018180
-757.405468
-6728.698218
-8507.414296
-1896.539762
-5342.905822
-851.407109
-9033.951487
-2108.183015
-1818.539813
-1431.593776
-4211.104914
-2650.297519
-757.563221
-4541.851382
-10334.999935
-9675.853016
-4839.316631
-5285.983731
-4188.950255
-2280.176463
-1716.712060
-1716.024972
-2300.309700
-1607.731364
-2549.271323
-9621.810768
-949.815041
-9880.006802
-5712.121710
-4850.053612
-7209.305066
-6671.974487
-6996.242058
-6239.553755
-9591.279865
-9513.569293
-1986.054689
-7956.698336
-6365.398220
-377.234986
-7843.023913
-1606.493378
-9366.724399
-5861.273852
-9608.764718
-10898.966534
-283.819052
-7149.491894
-10764.387913
-7387.967468
-666.270853
-6023.651363
-10331.026099
-4717.243564
-3848.766869
-3853.410222
-3659.154006
-6516.895076
-1817.599419
-1429.363924
-10114.419687
-1236.271363
-10304.698598
-1049.473426
-2973.307928
-5586.394584
-8708.729767
-10599.479522
-3070.730540
-4031.815398
-379.566534
-474.957783
-474.816952
-8218.000722
-666.222430
-3849.681930
-4222.869614
-8868.416869
-284.318955
-3174.740718
-9276.329299
-376.652271
-3954.643864
-8703.082757
-3966.496359
-568.681070
-9235.938219
-5214.214906
-3559.122476
-7924.374947
-7715.925648
-1621.024591
-3366.805107
-2392.948163
-2390.838585
-2291.715416
-10566.249847
-1716.483739
-945.863157
-2268.016504
-3694.772961
-8519.108588
-9138.224348
-283.001604
-2092.172025
-3271.779650
-10987.451734
-139.960440
-3943.354417
-2869.469079
-2012.613860
-6039.664603
-3831.179112
-3732.026869
-10317.978837
-10017.809630
-2548.808404
-4148.283142
-283.958227
-2977.727403
-3341.933780
-2391.537836
-9906.965588
-2679.768941
-6256.788608
-9430.586709
-7475.015258
-1325.788595
-2923.773838
-8981.863288
-3851.317405
-8172.379868
-6742.732896
-10570.827376
-1909.812906
-857.304589
-568.220457
-1513.029004
-3069.339223
-2973.658523
-7247.369834
-378.406718
-10706.276310
-5231.636103
-9918.461635
-10980.416405
-7217.147716
-3175.642166
-2980.480171
-3175.318443
-2979.151369
-9385.977172
-3433.304030
-4967.772226
-378.390179
-2980.558285
-2859.371529
-6314.037172
-11178.226557
-2947.772291
-3853.005469
-3239.962821
-3046.445852
-2660.995571
-8522.057475
-10357.393841
-10564.469678
-2077.281091
-4240.605205
-2733.191322
-4337.094115
-4612.229670
-7666.821602
-10390.192678
-3817.738048
-10496.348500
-10671.979051
-9941.279845
-5187.748376
-2302.452835
-4394.229141
-3151.439568
-1998.840702
-8203.258803
-9672.538038
-3463.828135
-9214.930943
-3350.064279
-4173.241795
-1916.112253
-5086.552976
-4726.112956
-9716.132210
-4928.664716
-4740.752121
-10268.791997
-3638.177363
-2960.071890
-4151.866232
-4376.969152
-4249.615019
-1904.818037
-474.457052
-9304.827992
-3156.307042
-9283.358608
-1142.761337
-6013.368030
-4972.089934
-2654.022492
-4813.722189
-5592.906711
-4088.705403
-2676.137245
-9378.985089
-6773.110427
-4465.441387
-5538.929036
-1520.451194
-5395.478475
-7461.832918
-3451.652395
-3443.089321
-2011.130973
-1916.217478
-5464.021363
-5018.624181
-3481.607685
-10306.381635
-1049.536738
-755.885312
-10544.307473
-10420.678147
-10650.667172
-2642.412466
-5124.825160
-3216.410645
-8943.607141
-7984.981654
-9420.282065
-3054.486880
-3244.093047
-10203.200797
-10196.405967
-9334.956392
-3641.967019
-3636.944477
-3628.721651
-3433.305908
-3428.658352
-2757.317357
-2565.320177
-4002.613200
-7062.647057
-9091.264052
-8871.374799
-8646.630543
-8636.869329
-1431.377220
-8417.332703
-5651.636854
-9719.610605
-6789.249411
-1048.471740
-3297.526782
-953.481906
-1049.563017
-1048.918139
-1144.898890
-5807.789302
-9588.760406
-6538.828589
-6758.521205
-5139.062728
-8522.057368
-8690.362826
-3388.201393
-6639.310346
-7962.059221
-8485.584645
-3202.297490
-5238.886253
-3105.743036
-6958.271189
-7058.870267
-7044.402124
-3553.107580
-3569.029892
-2461.397188
-8927.648216
-8280.622183
-8293.011132
-473.947726
-2834.741190
-286.203830
-3106.747408
-10144.347460
-9314.690723
-2473.679601
-6219.625984
-10887.901933
-5924.922458
-4200.374719
-4510.949070
-4106.149271
-4111.218793
-4889.690423
-8822.919777
-6352.701592
-1324.277387
-7219.381174
-5220.283713
-5319.936645
-8073.846858
-3912.048083
-8523.958447
-10660.078597
-5353.838313
-4312.808247
-1230.568170
-5509.926868
-4111.218151
-953.639479
-3827.001877
-3729.199263
-8283.974710
-1909.059153
-7515.271450
-7154.539268
-10672.641452
-2453.419923
-5415.637949
-10047.080400
-6993.734089
-4720.695660
-3660.574821
-3563.997408
-4283.638157
-2108.102261
-2108.498227
-1819.450439
-1914.543613
-5740.781505
-6364.693278
-2832.403793
-1239.851838
-4898.216790
-6632.251607
-9803.859264
-5670.872072
-5846.513625
-5692.501241
-5290.827616
-7577.901039
-6209.757969
-10153.001322
-9777.296419
-10263.032362
-10590.207174
-4375.721618
-2494.051201
-7293.698760
-8411.109692
-10956.979843
-6159.515293
-9526.194645
-3241.806951
-6671.617314
-2826.713535
-1891.212459
-3781.614052
-8400.799923
-1530.500967
-4413.491277
-6901.611182
-6818.729364
-6338.261963
-6251.633719
-6452.393787
-6271.194769
-6479.179338
-6282.602684
-6297.124977
-6504.235445
-6517.202999
-8021.579054
-8225.956873
-3467.521929
-9321.915970
-9096.721799
-5194.236252
-9757.041466
-6278.072312
-6136.091906
-1144.080701
-6292.637626
-1041.424650
-6495.372736
-3763.874979
-1228.948656
-7990.591158
-4232.172934
-8184.239387
-7307.499851
-4599.125532
-6804.513873
-853.884575
-8786.639479
-5227.541845
-759.502823
-8995.899971
-6813.030264
-6983.281200
-3836.338103
-5231.553040
-5139.141350
-6282.603255
-2842.429932
-10401.354721
-2840.725847
-5754.494217
-1608.819594
-7663.870619
-6507.680415
-4032.598015
-6586.646827
-378.988338
-372.680281
-7308.459351
-5086.554607
-2176.589639
-7017.588679
-10649.059284
-1524.938451
-1336.220310
-7806.249105
-4982.524462
-4666.994938
-2262.122022
-2175.813217
-7824.609183
-1337.833515
-7626.807481
-5502.367154
-6720.738994
-3939.160597
-234.692272
-6643.063198
-48.130252
-3564.297075
-3561.321983
-3464.854606
-4726.873359
-1914.932231
-2293.853045
-8176.852730
-10482.095890
-7155.079636
-1812.839301
-8820.673274
-10593.167394
-10563.306744
-2395.883671
-4340.551078
-6782.235928
-3251.537621
-7621.713416
-3659.153699
-3559.122110
-1916.190704
-2387.053983
-10273.809925
-10395.771363
-4947.597437
-1323.338253
-1513.027879
-1985.459356
-2077.477671
-2077.699342
-3862.668236
-7326.932474
-6420.646418
-1610.734913
-7183.477125
-9174.128980
-1892.038311
-6056.236864
-10306.381763
-5741.361465
-5217.995214
-3656.999536
-3557.815199
-2105.898873
-1428.856476
-2785.442812
-2193.115285
-2576.101013
-10581.707278
-2097.855244
-2971.058387
-2671.135637
-3272.299661
-4052.177150
-3404.922839
-10688.227008
-6833.877298
-8915.982821
-7419.499803
-7359.346140
-2574.772033
-3174.988126
-3167.161727
-10025.471916
-8831.384903
-3072.019320
-9637.977884
-2980.966198
-1514.312632
-2571.566243
-9917.834989
-9881.851741
-3387.821688
-7970.453764
-4324.535018
-1323.490046
-9021.240652
-6060.845085
-5873.168259
-1417.125337
-5617.894327
-3556.374581
-3654.265619
-3458.356522
-7383.439880
-7779.075166
-7216.720409
-10203.200522
-6600.760622
-1048.735784
-1145.753914
-4127.599889
-10456.603634
-757.670200
-6712.053649
-6810.271865
-2963.821758
-6806.889430
-1618.727116
-4052.527279
-2093.705637
-3480.127265
-4249.823006
-3065.348595
-3058.364999
-8953.123896
-1514.548119
-1421.888939
-1431.602920
-758.024119
-379.102915
-570.531282
-570.542420
-5830.728630
-3448.741070
-9611.876301
-10240.709305
-10766.229534
-1431.987577
-7350.571086
-6845.914140
-283.495796
-1338.120722
-7621.027250
-8596.050121
-3757.979747
-8884.454943
-3441.744461
-7716.204727
-7612.234863
-7609.056654
-1915.980358
-1819.582429
-5715.903564
-4603.646125
-7053.479213
-10135.714268
-1048.918572
-7553.285562
-10113.742827
-7533.967516
-5042.793643
-4944.424058
-6854.807662
-10242.467044
-9209.191525
-3033.616340
-6902.672804
-8988.414978
-8122.492421
-8309.016399
-9169.290091
-6969.376289
-8731.282807
-9929.216288
-8215.669573
-10652.772527
-2488.315262
-9915.183354
-2570.016787
-2204.047147
-4534.540096
-8989.091909
-7544.867721
-6626.790005
-5325.357311
-4543.773656
-200.218183
-5507.295482
-2296.139527
-5634.641997
-5524.269675
-8868.548319
-8472.952854
-4522.215477
-3850.336009
-3360.573931
-3163.699823
-7719.671478
-7617.121176
-8121.460348
-8320.747883
-3547.309616
-3645.089570
-3538.139424
-3630.425360
-2851.599962
-3716.242290
-3619.166236
-3810.302081
-2087.481669
-7500.097110
-7573.027861
-7445.135025
-9166.509347
-5915.805897
-5084.549348
-4614.751845
-8966.930602
-5705.170269
-1049.078249
-5676.129259
-7688.261510
-7846.452965
-9600.121737
-5494.897367
-5485.643516
-5172.952033
-5073.674218
-4966.784870
-4599.616530
-9060.196227
-9315.494349
-3323.866691
-3936.849597
-8184.237489
-10584.409291
-2592.221906
-7971.058372
-7962.491323
-9296.071687
-9193.464388
-2187.318597
-4201.929606
-7898.633064
-3430.727261
-3990.836614
-2473.881415
-7973.960513
-9739.862778
-3855.792961
-4728.636104
-7850.262876
-9181.632743
-8612.371683
-10287.184595
-7392.520987
-3398.304237
-5531.333724
-5745.127389
-4325.232117
-3560.533075
-5871.589076
-6763.202691
-7419.771785
-7418.587332
-7820.413856
-8021.579054
-7522.919806
-7878.689154
-8512.511341
-8124.787636
-6004.062349
-6221.385058
-6054.065064
-953.858947
-1145.519416
-1145.164583
-953.422060
-953.160019
-857.533132
-8406.772804
-5036.394723
-8615.931596
-7009.683924
-7768.653993
-3295.663780
-7115.767685
-1530.212570
-1530.495294
-8744.453011
-4390.032056
-6277.067819
-569.411047
-569.596975
-8107.400306
-4309.121292
-6013.543193
-5001.569099
-7217.051237
-5581.190448
-5973.910765
-10892.790878
-9089.673705
-5836.988851
-2548.388799
-8216.463428
-9507.886825
-7079.207317
-2686.794357
-2206.033759
-6072.553897
-7181.858878
-10787.375936
-10892.053998
-8087.869513
-8722.111640
-663.678242
-10059.639619
-43.334945
-8132.919535
-7959.770619
-7846.070381
-7888.730292
-7600.227137
-7622.300078
-7243.344359
-7261.700791
-6971.780499
-6803.475618
-6697.269428
-6719.992580
-6428.668765
-6439.668800
-6345.758246
-6359.812435
-6378.408105
-6479.879179
-6389.060116
-6409.267789
-6515.337758
-6023.651317
-5627.624352
-5624.692530
-5719.289757
-5714.432474
-5811.791647
-4234.031804
-3262.891009
-7624.188329
-7724.710001
-7825.116787
-3997.980080
-2372.442122
-4091.594442
-4185.048134
-4181.118672
-4177.178180
-4270.073222
-7394.904179
-7188.445242
-7068.157478
-7948.484285
-8038.922455
-6965.926446
-6880.588579
-6864.000897
-8333.162907
-6661.081838
-6378.698543
-4253.700029
-4354.499689
-8025.041927
-9475.087511
-5909.062922
-5650.529057
-5635.464691
-7130.003862
-7111.201582
-7012.019154
-5812.117356
-5174.607538
-6234.032898
-6006.243316
-6111.092085
-5803.569853
-6103.322360
-8280.507439
-6200.283462
-7362.547616
-6561.446394
-6342.602506
-6148.049245
-3203.985433
-5619.719644
-9692.241316
-9240.434944
-1236.938047
-9392.477506
-5815.715203
-5875.116025
-7688.696469
-7591.916190
-7596.574048
-5564.093984
-6452.394026
-4226.317498
-7698.832176
-8491.184677
-7409.108817
-6710.561095
-6643.063181
-5772.425801
-6211.731316
-5981.919591
-6162.855541
-6359.147764
-7201.977588
-7295.553906
-3887.383409
-3691.809967
-7312.614692
-8418.272892
-6814.883337
-6669.004139
-6357.966762
-7412.189861
-7510.689991
-5791.499431
-9707.895353
-9761.079076
-3601.502170
-3508.230067
-5714.431950
-661.195366
-10359.185985
-9748.679639
-5397.944729
-6387.161912
-6669.059029
-6847.195264
-6102.120572
-7091.069096
-6988.895121
-5680.122035
-5773.627162
-5843.018353
-6915.365038
-6693.247349
-6886.822148
-5502.362486
-6955.482034
-6941.504712
-7970.244932
-8061.474607
-8495.348304
-5392.851005
-7280.299866
-6721.388403
-1611.447093
-1613.194497
-7616.388068
-8414.906541
-8890.447739
-6918.459957
-8509.223179
-7649.671843
-7315.891308
-7515.986050
-5888.216201
-5979.464734
-9170.550290
-7230.283468
-7603.976125
-7501.923863
-7655.869772
-7752.133982
-7197.306149
-6428.120176
-10697.793216
-5818.321012
-7417.260615
-7428.223523
-7327.024844
-7515.368959
-7880.396303
-5200.718641
-8018.606226
-4049.299661
-3417.573315
-8200.892993
-7550.184200
-9232.299393
-6520.123277
-7534.019566
-7667.571788
-7043.977981
-9262.694525
-5897.917573
-6232.430302
-4149.373155
-6706.143433
-1804.814254
-9042.087578
-5917.258923
-5788.159801
-6372.552349
-6276.056519
-5065.810221
-7709.585338
-6920.447550
-6819.646169
-6575.254060
-7277.786013
-7668.926148
-6836.660234
-6822.057418
-8696.524270
-7944.905421
-2196.431669
-8190.278077
-8160.091880
-8179.539985
-8414.668284
-7647.610132
-6624.696806
-5662.592651
-8227.673650
-6083.258624
-6524.501680
-6523.954969
-2486.479344
-8186.229624
-9311.527936
-9431.493374
-8041.316551
-7935.275941
-7590.726072
-7419.771803
-8107.400309
-1903.502896
-7120.226575
-7187.568646
-5770.888756
-5873.166923
-9709.361123
-9812.198212
-5919.319652
-5922.851249
-7761.321758
-6548.548866
-6016.467567
-5883.088563
-7957.906155
-10876.076589
-6182.996151
-6538.665080
-9929.484754
-9527.631167
-6017.600772
-7925.085607
-6467.865378
-2967.306411
-3343.467126
-7009.683944
-8587.362713
-8603.740636
-5973.909610
-6635.098480
-5764.235379
-7808.138741
-7221.245097
-6800.203006
-6897.312280
-5496.875310
-5590.604724
-7573.028303
-10863.747968
-6168.865720
-7646.175064
-7620.133901
-3853.005188
-8820.205075
-7724.644782
-6808.398683
-6123.404718
-8650.517317
-10817.988721
-6013.590856
-7474.504486
-7391.294043
-5943.591385
-8307.461046
-7223.574991
-7720.661480
-7214.803555
-6725.617118
-6609.187444
-7712.657662
-7784.365476
-8600.863426
-9044.245473
-6461.325527
-10114.912703
-10308.988016
-10187.270522
-6512.716963
-8406.760070
-1530.584388
-1626.857481
-2104.447888
-6291.803618
-6213.158179
-7644.924716
-6772.345874
-5708.324119
-7022.568395
-9024.119224
-7392.521261
-7930.486931
-6714.548464
-6759.902690
-6663.418358
-6113.012777
-6215.941867
-6586.867405
-6620.874737
-7729.997025
-6410.456279
-6411.276058
-8605.284913
-7004.147369
-7000.221095
-47.399670
-44.348980
-9029.631380
-9423.653501
-4140.022785
-5054.526981
-4145.083131
-4146.411667
-8954.146437
-4245.493005
-3688.907596
-4046.747465
-378.081738
-4157.559067
-3939.160562
-136.275819
-8856.782276
-8122.492776
-7950.318922
-7863.490790
-7792.417666
-6799.316153
-6402.950111
-6416.405788
-6512.949709
-6418.791362
-6420.781762
-6224.398685
-6026.232116
-5628.604020
-5821.121830
-6623.837968
-6719.545469
-6723.926675
-6920.085066
-3662.522551
-4362.777836
-4455.287360
-4547.590686
-4731.519859
-2180.428049
-2274.584946
-4823.136568
-4721.557338
-9372.207562
-4812.716850
-1798.230731
-5562.135932
-8221.184657
-1512.380075
-7631.194554
-1513.992333
-1323.318680
-8312.761234
-2454.773976
-3485.253265
-8301.196907
-3021.300225
-5904.147998
-4528.032408
-6827.885675
-1044.871507
-1044.236464
-7585.788842
-2928.084308
-8289.015222
-1139.112213
-948.778395
-1047.591950
-1047.314378
-4589.554941
-853.045934
-4956.314712
-5697.514340
-8436.170763
-4512.281897
-4309.356312
-4137.990554
-4337.285271
-4141.885080
-5048.707205
-5309.044465
-4149.854419
-4143.573141
-4341.065154
-4342.654063
-8311.190461
-4494.734225
-6554.206364
-5530.399893
-4344.037714
-5582.568704
-2271.211143
-1817.604396
-1814.186757
-1717.874077
-5526.230664
-3584.514804
-5329.480014
-5332.522730
-4337.756163
-5300.757733
-569.245873
-2642.593709
-2549.258339
-4126.440118
-4691.846869
-4442.658005
-8467.637876
-7668.171534
-662.098936
-2836.352658
-5155.918055
-284.821853
-285.115696
-4247.976858
-4247.749836
-5332.672917
-4443.768394
-4689.846260
-8507.413301
-8211.079078
-5134.524225
-4892.831782
-5987.148620
-5255.744494
-2455.907147
-4114.690267
-1136.781445
-10771.659230
-6369.359844
-2452.599979
-2358.893362
-7872.414166
-2739.828699
-3111.935798
-1336.893033
-8680.085801
-4710.306505
-4805.744135
-6773.218298
-5660.536759
-4532.820864
-6804.441082
-9867.556559
-8977.129937
-9592.714492
-9724.889670
-9667.721111
-8903.931792
-757.422715
-8814.645676
-8697.923785
-2884.361016
-10378.054935
-10264.358963
-4889.689192
-9082.067306
-379.267951
-2547.604939
-3035.283552
-5853.109491
-1892.254191
-8147.759248
-8961.524439
-10962.699049
-7219.976334
-10718.337206
-10451.122157
-10151.607138
-9552.094563
-9069.743604
-6217.629136
-5457.331598
-5471.144105
-4994.219926
-6035.341702
-5723.672217
-9852.642083
-9670.936955
-6266.591652
-3207.371612
-6150.517424
-5366.597405
-5272.424093
-5083.547114
-4988.871914
-5190.974974
-4997.528567
-5001.568053
-5199.901597
-5005.403171
-5204.017732
-5012.428918
-4819.862324
-4726.002201
-4924.740119
-4733.994601
-4933.072934
-4640.300069
-4839.020567
-4839.277442
-4720.410807
-7920.036517
-5054.529949
-10400.644366
-6867.784859
-4440.544273
-5764.126792
-4345.085766
-6839.193971
-4937.827431
-6113.814907
-6387.212492
-1230.024219
-5305.551752
-7331.704469
-6676.738672
-4571.119782
-5750.627194
-2175.122792
-8112.950587
-3353.228777
-5463.961141
-8591.382564
-5766.298095
-5856.119346
-4654.499274
-7470.180183
-10594.514682
-8884.462175
-4532.573841
-5825.869059
-10307.502086
-3797.353617
-6054.063861
-4542.385884
-4426.235919
-2373.185243
-7713.726809
-9118.644398
-2271.216400
-8758.399821
-8551.837924
-8438.286660
-2552.691564
-5207.891854
-953.827255
-852.256129
-10501.486102
-2785.443531
-5033.654023
-10783.723744
-5587.493292
-7496.599357
-2494.654593
-8705.206713
-10576.379455
-5938.991027
-6007.618345
-6535.379275
-4996.248543
-9323.256947
-10599.479439
-5482.420231
-10752.821211
-286.254218
-2452.401658
-8184.239101
-10909.295755
-1328.146545
-8079.583769
-8626.360117
-5175.988880
-8898.130533
-10500.487771
-1529.762670
-4133.435996
-9518.041468
-5429.131354
-5025.932729
-8479.293619
-6099.654523
-2925.076216
-6646.736406
-5554.384446
-5460.585769
-4839.020654
-948.243713
-2684.979842
-10292.041564
-5414.355687
-4125.291244
-7455.170704
-2783.134827
-2686.793262
-6172.451732
-10342.881225
-6755.525033
-5146.342615
-7721.156382
-1987.106263
-1722.628945
-9004.511259
-5133.818688
-3753.674102
-10287.594292
-7405.905776
-10698.628189
-10869.168839
-5921.248621
-4304.734896
-8046.586417
-664.956020
-379.922894
-5324.254824
-5131.566338
-10610.865158
-285.624961
-7062.584132
-3810.299450
-5224.739645
-5966.310995
-10358.623068
-7753.559789
-7942.572376
-4938.627170
-4747.013321
-3873.542096
-5878.703459
-378.884453
-10865.630081
-6069.278814
-1325.789808
-2365.069484
-5909.708715
-6795.468167
-5352.075421
-852.509870
-9355.723907
-9612.656995
-5122.601001
-5396.603385
-5500.055688
-4736.617562
-7018.520509
-9603.397377
-3945.165208
-2875.169267
-2179.452211
-1325.518043
-1228.888467
-5692.340220
-947.299784
-4037.020562
-8152.687070
-2193.061079
-1904.478197
-3775.841565
-1808.478559
-4147.189974
-472.191487
-10400.644428
-9793.699602
-1805.738603
-10481.913644
-952.109981
-6983.233331
-5382.134608
-8177.476370
-1229.515410
-1041.068249
-10288.205482
-4650.700248
-7285.256747
-8866.627949
-6242.680425
-3991.515394
-6356.459598
-2560.738500
-4588.993645
-9629.169020
-5342.909148
-7402.643707
-5475.515777
-7936.658915
-9893.646288
-9579.363132
-7530.653715
-8432.877508
-7750.523877
-10135.863463
-2592.040641
-10075.334368
-2098.916595
-10409.935048
-4605.952393
-9803.954600
-9788.311343
-10048.411294
-3171.802089
-3519.912182
-946.264223
-8077.081908
-3369.242241
-10203.859740
-6411.564420
-7517.911062
-6020.122667
-10255.729926
-3573.813221
-10283.575391
-2689.720816
-10451.039749
-6845.045361
-1421.684770
-9410.536584
-10048.663105
-10694.221799
-8916.624137
-1333.058686
-1719.718275
-1621.655536
-1609.940098
-10884.963889
-10122.524047
-378.639389
-3807.863359
-9915.555858
-10766.269461
-6531.471823
-471.888457
-9239.505349
-5608.087701
-283.571417
-666.172051
-282.835776
-6820.469130
-10133.579904
-6216.461997
-5815.732847
-45.020937
-11177.901879
-9026.737945
-8707.317615
-5625.681255
-5623.141039
-5619.347211
-7124.013204
-7020.289566
-7424.308155
-7192.854944
-6885.473100
-4455.286810
-2834.731388
-5252.056826
-9894.924255
-7233.237914
-6046.119489
-4314.933241
-7828.335884
-6216.478860
-2690.017874
-10176.518346
-10113.741661
-10004.641335
-1040.780736
-4717.731544
-7484.410654
-7490.093002
-2968.119501
-3369.422336
-10318.845802
-6803.652836
-7990.556410
-7087.214576
-283.120782
-286.906567
-7887.350068
-10850.029329
-6597.067591
-7118.286682
-2205.912338
-3467.074917
-5264.505893
-4764.214758
-1338.128011
-3948.498842
-7558.961396
-9404.611430
-9242.487415
-8650.500687
-7343.879506
-933.822256
-46.717469
-47.023092
-3980.291980
-5517.074267
-9784.963560
-10195.179275
-2884.361069
-9771.594146
-1983.209808
-1806.661117
-1710.770677
-1616.658882
-10132.925994
-2191.870308
-10738.297129
-3270.342480
-3270.745280
-4329.024164
-5658.320653
-9677.290701
-1615.998227
-2379.007739
-10229.904755
-9024.232827
-283.109728
-3258.400658
-3649.139205
-10913.463581
-2975.890684
-3073.202655
-3819.677216
-1998.457344
-4735.423248
-11263.168961
-9803.900379
-2088.264589
-2085.208939
-9692.726846
-3941.330706
-4501.694767
-10549.856346
-10487.498916
-9884.650380
-5954.784364
-9894.923671
-9929.415471
-472.973453
-4470.123505
-1626.163373
-566.656598
-472.845501
-379.374241
-1529.761318
-1433.509497
-1625.563979
-5128.533588
-7741.763302
-10192.391348
-3015.662567
-6123.153294
-6162.856803
-9835.851172
-2882.924666
-10181.804868
-3817.736414
-8031.506449
-8345.283133
-3044.215612
-3041.975213
-4165.574538
-2275.743483
-8195.176550
-9835.849724
-5745.125132
-9915.277791
-6745.405561
-5912.089889
-9113.596873
-8293.011049
-6818.767251
-7309.060781
-10192.134117
-6388.827826
-10378.055785
-5674.108560
-10007.747585
-3787.753738
-10382.098596
-5598.677142
-10505.625762
-10386.171436
-10373.097010
-10312.067882
-10234.977313
-7315.694381
-10091.445159
-10582.586541
-10487.498579
-3222.592958
-9196.260094
-9692.232420
-9899.992669
-6383.373008
-6287.402698
-7605.877113
-8519.039121
-8665.313488
-6320.948865
-2097.854263
-1810.536941
-9990.615687
-7501.926025
-7325.068881
-7514.977152
-1709.231871
-6892.262288
-7618.830445
-2293.853745
-10865.629814
-9068.177816
-7113.686124
-7317.756128
-8820.706678
-7116.975880
-7187.711694
-6222.448243
-7032.592178
-6717.025321
-7917.413412
-6916.031731
-7222.643037
-7822.069862
-10857.718613
-6322.093643
-10827.264529
-10801.815087
-10773.633731
-8120.497822
-6718.827995
-7323.983516
-4211.067598
-3596.022096
-3037.748897
-4685.298370
-4394.229243
-5528.292361
-10987.101560
-2297.068701
-9620.123790
-8911.387695
-46.952165
-3050.829781
-8519.360751
-6745.018855
-9223.873871
-9306.175292
-1800.334225
-9690.669308
-4043.652320
-7863.488543
-1813.458624
-1137.680952
-2285.591480
-2654.744978
-9653.141676
-7283.431379
-6610.785019
-9445.445716
-7504.701805
-8911.681308
-9207.928740
-9309.301006
-5270.764153
-6005.004461
-6093.537918
-5995.973096
-6180.685138
-9732.146459
-9721.418881
-9709.957430
-9697.739739
-9785.656131
-9534.316216
-6267.374717
-1891.949569
-9427.655686
-6352.874242
-1608.448154
-6802.183351
-2267.968660
-2454.023552
-2549.264706
-2644.600847
-2925.074344
-3019.674782
-3209.203143
-3855.838673
-3952.019402
-4041.660727
-4132.974693
-946.888701
-952.254448
-1235.310998
-1332.114556
-1234.822832
-1234.330717
-1138.911635
-1044.879244
-1232.853263
-7570.392003
-948.258865
-853.247197
-851.963570
-8462.267679
-4687.486861
-4862.637077
-756.950261
-8906.735337
-4861.592133
-1137.688527
-10283.574569
-1232.306419
-1607.051965
-1608.823165
-1701.083014
-1702.945014
-1795.116876
-4345.709441
-1985.696694
-2077.816378
-5133.129187
-567.077646
-6028.923714
-1231.947301
-2368.648791
-2265.807349
-8533.245878
-2004.497300
-4858.213788
-760.292781
-3211.209291
-6384.767563
-9976.625783
-1513.700678
-4614.751194
-4037.006461
-4558.177664
-3590.710566
-1430.477343
-8077.243316
-2172.139036
-4149.859105
-2546.229425
-2270.550456
-4143.905377
-1420.941864
-284.756572
-1620.362237
-4145.528044
-7476.561601
-7579.455782
-7448.804171
-9970.473342
-1515.613584
-8625.814496
-6767.643456
-1530.585223
-4601.264500
-761.384458
-6942.883990
-9590.434109
-8199.019911
-7470.179692
-7380.660100
-6717.649910
-1144.173719
-7000.312679
-5492.896860
-10370.004948
-6913.163539
-4346.178500
-4441.330646
-4733.994938
-2919.709303
-378.913161
-378.168369
-9247.054290
-8220.656403
-5546.580971
-7120.348002
-4532.821302
-6970.847816
-4433.334409
-4438.034633
-499.345718
-46.984287
-8113.989554
-6599.919424
-6618.149046
-6525.099641
-6431.802823
-6237.066464
-6258.469409
-6466.507449
-6490.357119
-6499.999870
-6305.018430
-6508.076092
-6308.416351
-6511.519069
-7921.559681
-8225.427473
-7614.280505
-7610.807796
-7662.647199
-7177.087604
-6655.055778
-9319.949064
-9084.754839
-9283.357703
-8981.862587
-8775.562240
-8672.196347
-6671.974031
-7125.942812
-8728.567854
-7183.291645
-8273.588143
-6042.595063
-9774.533518
-1144.415886
-6490.357324
-5779.066574
-5812.261813
-5960.205843
-952.773385
-8093.258835
-7984.613812
-7881.720583
-7785.145312
-7688.380780
-7494.303722
-6702.952020
-6604.605203
-6800.202985
-6808.398688
-7902.109573
-6395.044433
-7970.453951
-8910.861457
-9041.230638
-5606.093990
-5507.290788
-10491.463614
-10310.668126
-9785.624248
-4541.348847
-6014.140878
-7518.440135
-6993.820637
-7168.194885
-6964.267646
-7255.783739
-7358.764740
-7548.479343
-7326.050105
-9125.204390
-6988.894919
-8982.538466
-6618.012251
-7619.732533
-6319.804965
-7096.444669
-5747.848242
-5217.419714
-7562.293773
-5396.783158
-5847.263525
-8708.729449
-6886.822221
-7646.683470
-6881.242215
-6868.839075
-8077.497254
-6933.111032
-570.302397
-8114.180373
-7814.448432
-7319.154729
-8005.353288
-7109.358054
-6908.384372
-7723.957907
-7722.704049
-6120.972789
-6466.507682
-7112.791376
-7118.286718
-7820.036876
-7116.977224
-5144.426739
-2300.840067
-8903.496661
-1983.286069
-9051.901290
-9027.972863
-10054.038924
-6779.282227
-6650.674391
-6114.222891
-6116.992215
-6217.556889
-6506.993892
-7737.272386
-6068.949490
-9813.718110
-5156.283402
-386.673660
-45.872770
-48.145983
-46.120422
-2568.452335
-3232.524786
-2375.128412
-3465.895361
-7710.751522
-1512.385374
-10016.201295
-4740.752177
-10106.352079
-8256.829980
-4837.738682
-4738.893031
-10234.977405
-2884.028097
-2688.146118
-3173.582499
-2289.419424
-10229.903893
-2494.615224
-10873.992415
-4033.062789
-569.557074
-9289.945487
-1529.182856
-5491.964380
-8596.050492
-4669.115828
-10863.462894
-9821.794064
-8973.959972
-757.371039
-8925.018115
-4931.970440
-5127.193277
-8668.075604
-4810.344918
-9277.275252
-7661.581968
-6020.080433
-5511.349803
-5310.372868
-5101.672295
-4896.513259
-4374.925098
-4165.735348
-3952.932070
-3739.063898
-3210.445206
-2993.729078
-2782.127011
-2459.693335
-1701.624875
-1594.431522
-1374.589159
-1156.311596
-166.932903
-51.018302
-46.818747
-44.879010
-40.596269
-36.895342
-40.670716
-46.901602
-46.481432
-41.037066
-45.050067
-46.712518
-45.017496
-46.364422
-45.069489
-46.964892
-46.810313
-46.361335
-44.874445
-46.491923
-40.660904
-36.911099
-44.888504
-46.860237
-47.013695
-9337.193016
-7619.732489
-7515.752891
-7579.455398
-7564.976783
-4807.253932
-9363.089476
-9344.555582
-9697.741946
-8870.679773
-9642.612336
-10482.947165
-3015.898413
-10398.441586
-5419.664790
-10780.732285
-7241.265641
-3120.149450
-5392.817261
-472.999034
-567.738393
-5213.041680
-4395.417197
-474.837591
-474.919970
-4485.287012
-10610.866550
-9036.997269
-5004.592272
-7904.525304
-7711.509317
-10838.986679
-1337.830608
-10808.010836
-10732.002482
-2359.915141
-1513.433355
-5320.625945
-5220.836020
-5377.371690
-3064.590910
-7720.661468
-7519.959126
-8652.492824
-4999.836133
-1048.677921
-2489.851150
-2586.853101
-8716.486384
-5471.934939
-2687.566278
-10477.799845
-10593.585776
-10176.141998
-6967.848619
-1795.432953
-8811.353813
-9214.086809
-1713.390178
-3573.049128
-474.717245
-473.598166
-1711.738185
-6819.475312
-8714.357354
-9048.836843
-3757.020248
-5290.491541
-2197.307606
-8287.333473
-9174.107295
-1043.244625
-8801.955874
-5928.426694
-378.163403
-3940.958334
-3261.243225
-6815.251003
-4966.135962
-10707.204627
-10575.961477
-141.101954
-9707.939464
-5724.575425
-5626.319983
-5722.737228
-5720.569947
-5622.744037
-5718.076222
-5814.612974
-5614.999477
-7123.784106
-7223.574980
-7405.904180
-7280.139682
-7074.294971
-6767.641901
-6397.423913
-8921.993136
-5912.127759
-6755.525359
-6954.339027
-6106.901028
-6204.132500
-7349.002824
-6110.132320
-7430.833733
-7894.228438
-10153.703260
-3673.773174
-2482.576301
-6799.476503
-10090.334076
-10199.676119
-6299.639538
-10592.626926
-10221.302370
-9521.748136
-7280.168404
-5757.794434
-7011.322965
-5491.965632
-6817.480497
-2098.917297
-5212.892793
-3588.194021
-2922.755543
-7872.477900
-8632.300725
-9016.866564
-7101.023898
-10525.659763
-9124.472746
-376.702169
-378.599754
-663.501722
-759.298504
-9138.373138
-6621.478920
-5504.174841
-6784.736896
-3174.866372
-9350.448529
-7079.574225
-5507.954272
-7525.959891
-4597.308354
-9572.623391
-5114.634122
-1228.925700
-6210.760932
-10523.219114
-2297.494012
-9951.077346
-9507.397795
-9071.467225
-8721.827337
-8618.378450
-9153.303058
-2363.989446
-9369.468819
-4991.772228
-9768.107686
-5708.174199
-4522.713136
-7493.177240
-1046.137152
-1235.793200
-1045.513763
-9929.485901
-4428.983111
-4320.219456
-10282.289779
-8465.153870
-4327.440410
-2779.982040
-2592.221246
-2194.213492
-6657.923300
-8076.940026
-2875.979985
-10413.721051
-9832.382968
-6561.704862
-2097.944986
-1419.770494
-4142.025913
-9788.309643
-3369.651762
-7397.018428
-1606.666191
-1418.968564
-10795.467169
-7234.113929
-8126.634818
-8578.354003
-6859.592197
-9279.172660
-8794.985424
-8589.595406
-9865.279812
-569.687337
-3428.655921
-7247.517275
-4148.283391
-4244.786382
-10853.562249
-4363.497409
-8583.221661
-3113.058003
-8994.824642
-7299.575909
-10197.009886
-9957.744742
-9200.727548
-8304.034516
-8623.083493
-8821.577808
-3994.419201
-9022.071426
-8948.889624
-9333.798311
-9277.181686
-9402.330734
-5187.746889
-9321.095159
-9371.360049
-9268.148389
-9336.594401
-9314.692790
-4740.876391
-9521.010202
-9762.173002
-10033.713516
-9556.101114
-9180.843308
-9492.642063
-9064.665827
-9008.714547
-8852.762570
-9207.229672
-10657.963672
-9201.721429
-8646.631253
-3480.750859
-1701.540901
-9309.301402
-4536.888476
-8903.429390
-7669.457783
-7933.282318
-8679.376217
-9406.743421
-8212.774969
-7886.826629
-9544.706735
-9469.898367
-281.772192
-2845.506084
-9398.107214
-3525.690850
-377.989452
-9454.070743
-5477.289629
-9022.448130
-9186.936403
-4339.274639
-4633.939149
-10895.464211
-9747.011164
-3420.349850
-3794.291733
-3654.213553
-3752.295258
-6751.392505
-6632.389533
-6620.748483
-6596.993320
-6108.317948
-9019.364555
-9802.849304
-9798.570950
-9793.700222
-953.136731
-1144.805967
-8483.009262
-10103.786595
-2592.656601
-5766.301677
-10570.827001
-6121.298612
-10576.569543
-10350.227506
-568.674670
-6728.609251
-2000.817967
-1998.841517
-7530.028791
-9985.363459
-3306.354709
-473.454186
-5586.393233
-7096.322581
-10881.882648
-8926.385063
-6180.684545
-1700.715786
-8972.608601
-6473.027407
-9025.232142
-2007.691838
-9415.204972
-5304.393334
-5023.717741
-10407.822539
-473.917184
-6109.451922
-3154.257040
-6449.679164
-9317.738004
-4368.007967
-8803.924041
-5227.716618
-3544.167388
-8781.174948
-3624.894551
-3435.837374
-3336.936516
-3347.938522
-8448.976739
-4575.712074
-9515.828950
-4645.545832
-10943.688969
-7615.181518
-6143.289122
-6249.413381
-2837.538096
-7051.403201
-7668.707733
-10395.771067
-1434.387955
-7119.277272
-9079.261256
-140.380925
-9104.617570
-8625.649519
-7522.346579
-8824.577292
-7483.185456
-8308.076500
-8573.736930
-8467.639815
-8642.056788
-8545.784896
-9223.275990
-9221.594928
-9219.349656
-9213.152328
-9187.446921
-8679.507308
-8961.532035
-8936.844029
-8671.590938
-9128.063811
-8663.306190
-9561.065801
-9210.445356
-8654.400512
-9292.210348
-8644.864320
-9749.544958
-8634.687579
-9739.861321
-9706.484068
-9613.912423
-9693.842033
-9680.399961
-9560.217060
-9443.879497
-8425.569501
-9421.402814
-7692.151741
-5115.115171
-4513.381004
-5861.275499
-9423.092253
-9618.633513
-9519.163851
-9717.256327
-9787.958821
-9173.613304
-10013.546951
-8878.794488
-10212.295570
-10211.735475
-5787.002393
-5664.361930
-5672.200745
-10309.827296
-10206.679823
-8125.019438
-10200.463903
-9881.651700
-5414.744710
-9648.241610
-8381.200489
-8454.887548
-7796.262531
-8528.751851
-8351.483870
-8973.954607
-6349.119472
-6338.955927
-5604.529663
-5611.351844
-10476.650483
-10470.594621
-5233.074118
-8672.796494
-8954.140585
-8341.926336
-5711.532440
-5620.476533
-10448.639684
-10347.018368
-10494.867573
-10344.403571
-10148.155560
-9774.646121
-8320.972942
-3930.797003
-8517.203204
-8516.612952
-10694.445720
-8999.582763
-5717.018732
-1519.198033
-6553.978968
-7184.845173
-5815.591691
-3383.939070
-5144.430231
-3016.069069
-7159.947237
-10402.604046
-9057.156415
-5708.669135
-5700.999378
-5677.668346
-2188.161292
-8966.929713
-8757.496052
-8847.315795
-5696.893550
-5692.500161
-5687.826080
-9894.858185
-5817.110032
-7784.725027
-9312.683541
-3547.309380
-8611.006144
-7533.437107
-9166.501657
-7857.696834
-7774.341328
-9013.914216
-10789.996852
-6994.408579
-5232.060170
-7188.985568
-8354.423363
-8367.351851
-9332.392588
-4347.793200
-8591.383689
-8606.590082
-8200.893022
-8237.870819
-8111.053488
-5330.274780
-4399.725549
-7914.331920
-9325.996533
-7805.337005
-5867.353808
-5968.063647
-9716.132055
-5994.294988
-281.852090
-8977.137678
-8243.304461
-8665.311379
-9299.052279
-9285.808552
-471.590023
-8818.281071
-2666.289288
-8573.965114
-8578.077158
-4876.527357
-5989.663593
-10785.858728
-10827.508689
-5909.062385
-6014.395863
-9165.790273
-9516.355677
-5029.604969
-1239.227158
-8307.796782
-10523.005645
-7899.605797
-1514.597605
-1529.792934
-9053.454799
-9346.496549
-8464.244131
-4026.096215
-10494.867322
-8905.803875
-4426.647707
-4423.906999
-3655.703812
-3556.374886
-3360.872918
-3263.267467
-3661.958858
-2661.263740
-2088.262637
-8502.817424
-6120.629572
-6007.871428
-4706.554078
-4702.621939
-9894.858748
-953.421917
-2689.403368
-4969.538166
-5060.235792
-3076.083811
-1323.804452
-857.628934
-5667.985333
-5783.342232
-3642.890809
-2384.634455
-2190.653375
-7459.787797
-664.661444
-2092.612150
-8719.521792
-2188.161075
-5190.976457
-3516.988852
-4127.392878
-6020.991528
-4997.529709
-4993.294641
-1625.884230
-3354.059746
-2380.588324
-10113.365936
-5643.515311
-2783.135817
-8994.368539
-8824.577188
-4194.131965
-2975.754290
-3232.385377
-1529.178470
-3077.424289
-5425.047433
-3267.715359
-7880.398324
-7976.696331
-7539.868047
-7346.361116
-7256.018484
-7165.327904
-5927.093439
-5214.887171
-4234.285564
-3165.766028
-2866.214783
-6819.830814
-6823.981094
-7023.918924
-3858.336886
-2373.774632
-4275.094475
-4270.787333
-5626.476732
-2105.621179
-8840.643794
-6128.484538
-1528.151806
-5820.141848
-5899.846823
-2365.134597
-2458.958947
-9607.058434
-5760.809515
-9420.263595
-3387.733875
-9709.776935
-6345.758952
-5566.327746
-6447.218470
-10189.265550
-3790.915176
-3601.645081
-10557.483977
-8367.877699
-5394.888214
-3508.361082
-759.713964
-9011.739203
-9115.902242
-1323.506878
-7263.585392
-3318.890365
-3313.525126
-3127.240913
-3033.617389
-661.660229
-4483.848275
-6548.857674
-8769.985078
-6624.254601
-9410.421128
-3388.280296
-6122.490292
-9893.426163
-5480.027100
-5300.512849
-5390.838980
-7591.360216
-1710.897661
-8058.906446
-5485.177083
-471.572641
-378.155389
-8074.284046
-8151.280904
-4214.185971
-8009.225376
-10979.646358
-2390.490916
-2485.231828
-7888.727951
-5624.568599
-852.355221
-10268.433344
-8116.376870
-10851.069967
-8885.720107
-7007.996569
-9292.202999
-3298.394257
-4788.749007
-1803.839354
-8520.976933
-6737.051742
-7277.785582
-1330.374247
-3253.655709
-1718.520874
-11006.393116
-8209.243406
-6962.782204
-8427.594474
-5015.466718
-3230.021266
-3661.645297
-4265.953097
-2086.190578
-1914.106520
-1913.092770
-1912.519367
-2104.216319
-5854.939517
-5700.312778
-5865.627210
-9837.452312
-5676.152154
-7978.025670
-10301.719042
-10222.476794
-6913.816408
-7008.695881
-8761.615269
-9001.257568
-3956.121173
-3272.364817
-4287.844271
-9165.793480
-2100.860562
-7496.598147
-7598.090079
-7584.816892
-9048.702572
-10793.798630
-8413.071579
-8249.109896
-4157.860993
-10827.264732
-8692.720426
-7752.263048
-3259.490836
-10552.126189
-386.798904
-9167.544878
-8155.379251
-8498.206244
-665.714638
-4052.010477
-9295.672191
-2399.233442
-377.922802
-4887.839773
-759.135079
-759.527081
-2108.829672
-1434.203381
-5336.621648
-717.152586
-3637.424518
-133.980153
-7784.727889
-7629.673739
-7236.990686
-7268.289133
-7056.632680
-7085.566872
-6793.671688
-6026.595390
-5824.647042
-6822.680118
-6720.796247
-7123.784110
-3369.919690
-4548.313099
-4450.784535
-4732.230238
-4634.762757
-4823.837532
-2273.586315
-1990.953397
-1892.953950
-5277.834511
-1705.064296
-1892.174160
-5180.753620
-5367.742812
-1609.704826
-5554.324200
-5732.339212
-6042.596667
-9758.540198
-1621.288026
-9802.496815
-2172.188291
-1514.109733
-1419.585770
-1325.068259
-2643.832809
-3021.310143
-3208.921776
-3304.157871
-946.895022
-4411.059538
-6352.945815
-1143.533066
-952.454555
-6546.604785
-10187.744351
-9719.105571
-853.677078
-1042.082586
-1040.080969
-7850.419997
-6648.575701
-1042.437956
-1043.292458
-10148.156310
-4951.815648
-1136.399165
-1423.898813
-755.978024
-8397.778235
-760.121206
-3596.028708
-10637.192948
-6664.802062
-3864.047477
-7633.570851
-5043.660070
-9685.271412
-2171.793060
-9093.337322
-1986.286478
-4241.537588
-5527.776954
-5428.618043
-1718.618344
-1622.435503
-569.847833
-3389.100447
-3569.872245
-5431.538154
-4337.107044
-10413.721810
-7050.137889
-9069.735831
-8233.544030
-10720.401399
-7580.545861
-4034.164155
-4605.949454
-2830.663285
-8324.007620
-3500.405117
-1431.194853
-4029.033583
-378.210367
-474.431390
-5652.779860
-8218.728555
-9290.021914
-9344.554000
-7909.776685
-2362.921971
-8698.694509
-5132.103362
-9417.337530
-4035.176819
-8143.721327
-7066.625495
-5757.791022
-8325.114330
-5994.030333
-283.506574
-8276.211887
-2361.367079
-1514.439953
-6719.992183
-2081.800025
-6328.685111
-7342.452926
-6723.926684
-10551.747583
-3270.744870
-856.678117
-11196.254045
-2458.462816
-2857.258449
-7520.637803
-3660.006866
-3857.804121
-8472.919671
-9250.424697
-1623.953412
-9481.923111
-5712.709646
-4214.476588
-4113.006549
-4642.490678
-4130.167336
-3828.439281
-1041.725246
-3730.691543
-3733.357104
-1422.282554
-4682.156986
-661.159953
-760.472308
-760.644747
-760.819151
-10688.839449
-10691.984317
-4201.928992
-760.983793
-3865.329408
-3662.927522
-8507.459925
-5582.567245
-9322.767080
-9250.417280
-10020.302332
-4150.625731
-10843.788064
-10081.151598
-1230.995239
-10579.239069
-473.415669
-10075.330409
-8362.887033
-9786.671414
-5869.456256
-8748.757906
-8835.602399
-2011.865897
-1816.630346
-9153.732142
-1723.131054
-1720.249772
-1622.259523
-1430.767906
-9541.532701
-9717.817909
-9815.973366
-9813.715774
-9810.886549
-5699.747424
-7580.544960
-3670.006716
-3761.691004
-3762.043890
-1049.556370
-1049.311901
-1049.069658
-952.904658
-1048.553136
-5990.731892
-8892.173830
-8767.061367
-6262.831037
-6272.679578
-5608.288676
-5614.998875
-10387.249199
-756.158569
-2778.037044
-852.716964
-5715.258614
-4637.869998
-3738.395258
-2096.914674
-8882.253967
-10086.489318
-6771.574881
-7642.997131
-7614.280584
-566.344448
-6643.835370
-2574.618988
-9110.259174
-7502.325796
-5704.905521
-1722.866952
-10680.932817
-7261.503193
-3590.703344
-1232.031603
-10268.433840
-5776.692050
-7766.575754
-570.161762
-10793.342912
-10082.889679
-8460.337410
-5920.912733
-5805.191499
-474.202934
-379.015998
-379.145027
-569.599078
-1893.434954
-5871.587777
-9817.663040
-4393.726608
-378.258273
-6007.704793
-10480.560391
-284.902791
-8921.687835
-8643.035405
-1421.822604
-4577.128490
-855.548264
-2877.543387
-6716.629381
-7707.278066
-5538.245342
-6213.533711
-7888.182407
-10922.700545
-11214.776843
-9514.405123
-7997.923903
-4685.855267
-2028.463141
-3848.488527
-9989.295534
-4522.713564
-4519.776475
-3752.254459
-3852.021673
-3654.265907
-3750.579894
-3136.051600
-3658.150867
-3854.632190
-3855.684758
-7507.318128
-6560.104502
-6538.828093
-6721.386635
-6505.754104
-1818.399626
-2010.418518
-2008.558214
-4903.608757
-1429.852995
-2104.445120
-1333.964222
-2200.309443
-2739.832546
-9533.575173
-9709.782550
-1134.300848
-1144.450892
-4221.185451
-3561.322334
-850.785158
-10175.533244
-10260.210138
-8257.817666
-9738.587531
-10586.250383
-10395.723435
-6573.119502
-856.241725
-8782.654086
-1624.410379
-7475.113847
-10479.291744
-3838.742616
-3742.299926
-9692.236826
-2266.607782
-470.454304
-3841.021548
-4130.229689
-8184.152449
-8141.599599
-378.539452
-3163.699650
-1909.811853
-3549.355024
-4396.645772
-4132.915679
-3744.572275
-3746.713373
-6172.452995
-10690.105229
-6342.429530
-6708.491756
-10987.379038
-3853.891504
-5487.374960
-7841.055060
-1334.840513
-4228.772798
-5638.062055
-3846.891105
-3844.873002
-10407.108263
-11056.368615
-11169.180677
-40.444618
-40.562269
-48.168431
-10020.278044
-4330.504394
-7718.688721
-1915.795899
-5161.979450
-2296.137808
-1428.333303
-1523.558207
-7345.877115
-2198.259447
-2389.696492
-2485.231456
-8632.290741
-10156.767436
-2673.025782
-10338.039513
-8256.841390
-8842.981968
-8903.497131
-5667.955528
-4465.441747
-7591.288736
-2457.350040
-570.243956
-9156.005504
-10525.010031
-2839.093549
-10536.803729
-3159.235636
-4119.470199
-5330.274532
-2089.710826
-46.397360
-9788.754065
-5118.050173
-4819.862944
-4231.914557
-4137.990780
-4041.635075
-3945.226695
-7722.704028
-8221.184671
-3703.936050
-7515.986000
-2180.640265
-2586.259317
-7503.463357
-7483.208629
-7476.935707
-7660.297002
-7642.996345
-7623.627234
-9007.914394
-1819.595189
-2012.862045
-7405.553163
-5257.676095
-1723.307321
-9420.263654
-9570.402373
-9416.380828
-10051.319952
-9116.642521
-10261.632687
-3947.475649
-9999.540040
-10017.810901
-8664.285938
-4034.163084
-9187.447737
-6635.098430
-6759.902573
-852.619575
-7168.523749
-8114.995124
-10501.486558
-9213.152721
-5487.316263
-4139.215210
-6887.689615
-8021.490004
-856.612669
-3313.520358
-5287.444696
-7927.717274
-10565.740573
-1996.291142
-4126.542609
-474.681485
-9282.538551
-3153.486551
-10120.913891
-7311.433495
-6921.993972
-10327.023380
-9402.484295
-5477.291355
-7155.505312
-8893.359139
-9412.234211
-6818.728478
-6707.058896
-6516.539860
-5020.098821
-10401.940988
-5627.113901
-5626.954602
-5827.593127
-5826.903205
-5822.774079
-5818.321422
-5616.986257
-5417.152347
-5514.823035
-5317.362373
-5217.656841
-5018.550040
-4919.149872
-7423.827258
-8025.561095
-8125.836645
-3234.762119
-3655.784663
-3460.016105
-3545.158823
-3542.908976
-3540.566784
-3635.677266
-3535.634549
-3533.060297
-3530.425302
-3627.691054
-3527.738698
-3333.859278
-3890.596831
-7590.724405
-7387.965539
-6976.971100
-8324.008050
-6388.174661
-6296.580207
-6204.698536
-1914.110215
-1913.626993
-1819.019913
-9114.266732
-6406.647104
-1701.967659
-6013.591253
-6208.487380
-1418.052400
-3048.653388
-1523.708297
-6301.733526
-6887.546678
-6307.939427
-7068.767982
-7151.340323
-7052.221373
-4527.916085
-4038.928127
-1049.215126
-2582.073334
-952.055861
-1047.034233
-1236.730955
-7905.216585
-5585.680993
-6209.618973
-2671.396822
-10331.451259
-8155.815939
-6023.347010
-756.075136
-6692.908599
-10274.216762
-9044.174901
-4340.550781
-2002.719100
-7747.767629
-1817.141160
-1912.006724
-5989.114360
-7006.374260
-7188.982301
-5480.079019
-5493.955699
-4371.419369
-8036.655763
-569.155541
-474.147133
-474.492864
-8809.731675
-3168.244517
-5374.917365
-4515.221143
-7020.122732
-1705.155277
-5558.618300
-4298.303457
-378.392543
-3077.892484
-6074.013682
-2980.146675
-3265.853023
-3527.736576
-4107.648298
-3841.021588
-1898.500997
-1527.746336
-10869.124203
-10723.327809
-5102.534613
-4486.334182
-4937.234748
-283.110725
-9634.690884
-5641.404387
-6591.977889
-6621.078889
-4853.033973
-9692.737567
-8424.630803
-3759.502615
-3663.012263
-8317.282723
-8406.510184
-8671.840229
-2928.080841
-9423.653471
-9720.454063
-9332.889045
-3298.771432
-3950.121881
-9867.779679
-9943.577689
-9927.479448
-9910.433543
-9603.396771
-9481.164032
-755.841702
-755.920914
-7074.129891
-946.346280
-8746.345753
-5225.266511
-3864.038539
-3384.583633
-9957.799135
-6540.158341
-3066.264949
-9317.415352
-6620.563027
-2266.618857
-10967.815904
-7045.662688
-9710.569034
-8749.628796
-10188.643802
-10718.139519
-4487.500017
-10175.727444
-8798.055179
-11271.548667
-934.455965
-9181.630576
-8543.314139
-8460.333676
-8621.634735
-8922.485947
-3457.019030
-4190.131359
-4076.594303
-7606.836013
-7572.468574
-7556.979982
-2107.784746
-1915.978992
-1916.111131
-1916.191331
-1523.061156
-9781.560423
-9164.704049
-9334.261161
-9077.865959
-1041.491631
-10103.608308
-950.625099
-1049.420165
-9796.383506
-1138.479320
-1138.048147
-852.248987
-4495.941866
-10255.940528
-10182.656808
-8968.418701
-10580.379815
-1418.052944
-2077.241210
-2768.134499
-2961.976947
-947.670545
-4482.121940
-3750.579693
-2190.654100
-1999.837082
-3370.561634
-7820.036851
-6550.678335
-566.325187
-3059.082374
-9803.492193
-10563.804711
-2174.535816
-9217.195578
-2302.272170
-7341.946032
-10708.190623
-3110.848164
-1713.392600
-1231.311138
-10305.994873
-3063.713974
-3259.490815
-3255.691695
-3431.375676
-2775.413557
-8640.931219
-8376.739645
-8196.536146
-661.944967
-3848.757996
-11243.887648
-43.577098
-8009.732469
-6461.325131
-6474.051959
-6393.911782
-6301.733192
-6413.626695
-5823.806508
-5118.253636
-5018.624916
-7422.865382
-8125.574448
-3326.346566
-3420.184932
-3513.882689
-3607.439793
-3700.853560
-3857.157335
-3449.650768
-3445.362738
-4460.732349
-7509.455544
-7670.194275
-7761.320050
-7962.057969
-7165.325480
-7942.571192
-6474.082884
-7735.194182
-2010.682928
-1915.131775
-1913.792128
-1912.646485
-1816.139650
-1719.712551
-6867.771436
-1623.374232
-1527.118011
-1526.614892
-1429.989159
-6229.358055
-6006.790458
-1702.918749
-2741.283624
-7792.795033
-5927.437646
-9906.820835
-9793.740292
-1143.806081
-5707.648798
-3205.981382
-1141.350976
-6398.261748
-6393.912075
-5919.859042
-1048.072315
-8029.067462
-6499.479746
-10208.930101
-8190.710613
-952.133800
-945.332708
-7978.103847
-7694.509625
-7597.391321
-7602.364299
-7402.643886
-6503.430271
-1048.340293
-10355.322488
-4132.577955
-6702.100521
-7294.916288
-7406.980163
-8276.211833
-4130.304813
-7410.833377
-10196.487014
-8218.034930
-6705.827910
-6709.146261
-8323.778303
-10294.426761
-8680.971680
-8455.499989
-5708.170703
-5978.710935
-7203.074495
-7414.203849
-6613.741132
-5318.370018
-6201.346477
-755.813801
-10476.650890
-10572.302134
-10355.321877
-10409.934423
-10212.778007
-10103.786132
-6819.504878
-10497.962976
-6103.453372
-6911.414439
-7417.091938
-7003.686952
-7079.574486
-6983.081239
-6970.143470
-7154.539883
-7249.368910
-7343.972700
-7438.349663
-7419.583062
-10586.250101
-3295.016699
-567.817926
-6282.344428
-7512.862607
-5326.085735
-5425.043411
-5233.867315
-10144.595005
-6886.781394
-6485.340913
-6728.688036
-2936.111133
-6914.013610
-7012.554149
-3954.831450
-7520.637845
-6514.562159
-6515.337886
-6517.330304
-4103.988460
-4100.252466
-4096.451452
-6617.814608
-6419.964816
-5305.305214
-7648.991307
-7313.164861
-7203.077451
-3955.965818
-3771.917028
-2839.830758
-9820.924891
-3585.805800
-3491.957868
-566.557698
-7522.346608
-8513.063962
-8605.284688
-7109.357967
-6916.180933
-7326.612072
-9107.092035
-10787.479343
-6369.121090
-6223.256168
-6221.889276
-2934.324969
-6966.813550
-4217.726028
-4032.150557
-4308.728660
-8244.722897
-7720.947909
-9418.941369
-7955.352037
-9242.927891
-6012.538400
-6511.519211
-569.475873
-569.827600
-4216.322309
-3175.901679
-8040.393717
-7957.903796
-7937.475065
-4520.435512
-7422.865405
-7104.239861
-6124.407642
-7016.973039
-10588.021983
-10804.458820
-10383.367172
-6269.863869
-6913.163556
-7012.554160
-7746.598721
-7007.728298
-7815.144011
-7442.718404
-10964.626749
-5970.013064
-10843.787820
-2569.926672
-9927.476913
-6424.369961
-6421.721964
-10735.196081
-10797.308899
-10746.739378
-8419.234956
-8179.848802
-8076.909188
-9719.610482
-7394.905997
-6718.295336
-4325.206643
-6939.136414
-8862.456175
-10153.702365
-10192.134572
-1338.163362
-200.869223
-2104.219320
-6784.736990
-6790.311852
-6845.045916
-6015.173376
-6115.539406
-10866.522970
-11254.712421
-7448.053352
-3320.180496
-4061.731296
-9403.770986
-8749.624046
-3044.106690
-8723.925659
-3232.383050
-3704.272599
-3564.774467
-3564.229448
-3467.074691
-3646.552200
-3631.543467
-3625.830992
-3622.881175
-3336.323840
-3525.010121
-3046.230045
-2949.795487
-2951.793938
-3717.112233
-3794.114816
-3890.941298
-3887.207013
-6570.432732
-1819.597105
-1914.290572
-1818.153222
-1817.236813
-3613.778307
-2007.836203
-6858.151826
-6944.234490
-7199.224245
-1526.084025
-1621.874671
-2104.941946
-2103.639787
-2953.775362
-2200.835610
-1336.200569
-7149.477221
-4223.738338
-4107.647468
-4318.141383
-759.076804
-6219.626597
-8912.484835
-8751.276205
-6668.073290
-6750.638216
-1717.374451
-2455.099815
-947.251311
-10294.966982
-4595.440436
-5772.597855
-1911.314436
-3679.605239
-3401.638037
-6887.378340
-8133.449792
-474.764731
-10622.783394
-10635.465716
-471.524538
-2281.538925
-1814.236811
-282.736319
-5829.568447
-6915.903817
-4439.157084
-4011.786654
-3917.296266
-1899.283111
-4057.946762
-4350.048732
-3409.803209
-2771.487457
-3873.534856
-3781.046187
-3784.643627
-3598.485882
-8939.807771
-9299.054762
-4608.735759
-2859.118161
-3463.561566
-2102.784349
-10495.016960
-10600.559356
-9240.198495
-10235.826807
-8420.144583
-3757.869875
-3661.384187
-3758.521485
-3759.011502
-3998.952031
-3980.129019
-8535.655275
-8825.747496
-4726.406289
-4817.808423
-1819.693389
-1914.737303
-9562.442201
-9657.118632
-1525.526407
-9136.435253
-1325.303712
-1239.860443
-3113.058184
-4307.692251
-4303.921507
-4116.292596
-950.362173
-3575.598159
-8906.737076
-9903.578344
-8591.648695
-10538.677657
-2171.389978
-8379.907704
-8600.314276
-10080.230304
-4237.706419
-3125.140546
-3016.123957
-9256.927835
-3446.498159
-3078.653619
-5553.536932
-4678.525583
-3017.057285
-5317.148171
-10308.599487
-5738.109666
-48.123915
-4267.559208
-9167.544272
-8533.242307
-8450.614198
-8367.350462
-8283.479023
-8825.681046
-3757.058185
-3760.662500
-3565.399202
-3467.820692
-3563.530920
-3561.680342
-2465.935108
-4072.877011
-2298.330858
-2106.244763
-8020.808645
-2107.642992
-1915.558505
-1819.692074
-2012.862302
-1915.130930
-1722.977829
-5917.966528
-1524.943334
-5811.879121
-6005.961218
-1428.943462
-6353.585208
-2648.955558
-6256.506523
-2296.702024
-2295.150958
-9320.864618
-6524.499714
-9883.359846
-9165.756647
-9438.469690
-9070.359842
-9062.226893
-9965.232635
-8974.704929
-8871.375542
-9303.418153
-9213.993996
-2393.460905
-2297.544241
-9107.087568
-2488.792104
-2490.309444
-2587.251634
-4021.362622
-9968.227867
-950.886374
-2294.109197
-2390.490028
-2197.473786
-2388.500983
-2387.256006
-945.203284
-2684.284633
-4317.324090
-8767.892642
-2685.224380
-2686.082602
-2686.856883
-2687.545072
-3983.682986
-3784.281679
-4675.901723
-8867.358201
-663.636292
-5584.106630
-5586.896741
-4290.498454
-10128.993154
-2937.961934
-2844.191804
-7014.469930
-4065.346735
-3368.784324
-8273.109427
-1708.366536
-8806.232043
-9774.648926
-4855.350550
-3773.131913
-3477.727828
-3308.659472
-3215.529959
-9016.793120
-5524.265949
-4029.022478
-4757.273001
-3124.454536
-2939.865340
-2844.192604
-6996.168282
-5571.990141
-946.846196
-2750.314148
-8784.931193
-1715.745953
-4149.850287
-5024.204731
-4212.484519
-8214.809153
-5692.092200
-2941.438264
-9534.319889
-7950.892801
-2977.790901
-2654.742683
-3270.037472
-5854.038461
-5954.782034
-3466.966882
-8381.200942
-4157.855935
-9742.162238
-7199.222684
-2300.149849
-2299.478659
-9473.539440
-1042.644545
-1907.278735
-2099.921647
-7724.710007
-2298.739602
-1705.678817
-3406.721260
-10175.726786
-11012.290084
-3370.276014
-6258.470237
-3207.318009
-6770.407429
-46.499069
-1755.067803
-6632.251904
-6459.627063
-6473.027179
-6484.957793
-4621.252417
-4618.097654
-4140.023041
-3752.295504
-3556.235798
-2951.792915
-2949.794485
-7523.566824
-8719.381831
-3754.962541
-3756.088311
-3560.532743
-3790.913283
-2273.590136
-4165.440764
-7774.339836
-7865.682969
-7956.697324
-6960.267286
-6666.030882
-8632.317161
-4451.300318
-9113.619956
-9306.367045
-9101.815567
-1914.546102
-1915.271202
-1818.876943
-8568.721224
-9474.322989
-9664.115537
-7114.793951
-9246.778677
-8280.622107
-1608.640335
-9516.547255
-3020.001688
-8184.152455
-4703.965596
-6398.620985
-8222.778304
-3301.799632
-3394.789729
-3394.533727
-6007.869413
-6500.000053
-6402.306897
-8130.833656
-949.041190
-7778.816907
-7591.428181
-7397.018621
-6601.445820
-2486.078397
-2385.965807
-1144.811122
-1144.364775
-6056.238513
-853.894043
-7299.576065
-8376.738826
-8822.172138
-4498.619301
-5372.085678
-7512.575750
-6811.855665
-6611.097604
-8321.906183
-2591.712690
-7197.629425
-7764.613630
-7310.763094
-6716.493924
-5133.990405
-9525.666967
-6897.312191
-7515.752966
-6111.688196
-7095.705456
-8166.425108
-7975.073304
-10557.483553
-4955.800211
-6585.678797
-10358.621628
-6998.441187
-6988.766540
-7181.665857
-6977.367351
-6971.028232
-7160.774676
-7350.571905
-7445.135910
-7335.239782
-7519.960380
-3387.597130
-3292.027469
-7962.491564
-8511.255699
-5415.633341
-5408.763517
-5323.718439
-1042.141478
-7342.031488
-3294.681839
-6628.120500
-6822.410908
-3199.442370
-6972.165515
-7613.171330
-7017.168460
-1988.443129
-5133.133163
-3369.651803
-8943.581276
-6512.949860
-6618.012323
-6416.845583
-6620.091384
-6418.599418
-7621.713447
-2003.631738
-2272.430752
-1331.995071
-1326.531689
-7665.252600
-7299.370405
-7408.381711
-7210.853092
-3122.265314
-5953.739007
-473.106368
-2733.218021
-5749.278763
-8103.218551
-7418.587360
-3934.403700
-3645.089392
-6420.940790
-2284.252840
-2093.705200
-6584.944449
-3030.955056
-2939.363062
-6093.537407
-7623.198552
-8493.989992
-6220.958184
-6324.386985
-6904.924620
-3026.843559
-9112.533781
-4669.681730
-2266.648904
-6271.195459
-7718.688763
-5914.860951
-4128.265096
-10523.005530
-664.082785
-474.510591
-570.182042
-285.824137
-7970.929388
-6122.062545
-6122.789605
-6799.476466
-665.921680
-9517.955118
-3075.236676
-4274.200206
-7823.830989
-3531.312715
-3338.751173
-4035.079684
-10310.669076
-6810.271820
-7017.168485
-3270.342037
-7218.470303
-8409.422978
-7115.767734
-7120.348027
-9289.875782
-3647.174109
-4987.109611
-6424.769054
-760.795278
-2301.281125
-9319.417837
-6720.739029
-7520.797816
-7207.266844
-4417.745284
-1432.861428
-1336.612851
-3502.994521
-3272.771137
-5330.220272
-5442.171398
-3748.717624
-9488.441003
-9584.406739
-6745.042947
-6657.923266
-10767.922219
-11163.069888
-3103.445709
-2853.491245
-3760.321661
-3662.848911
-3658.150541
-3559.240546
-3557.806951
-9022.348183
-7508.907719
-4257.802575
-4354.189225
-4635.251424
-1915.470263
-1428.388259
-5720.116626
-5435.607741
-7645.368650
-5620.158677
-9883.910826
-10209.947592
-1048.882231
-10307.587307
-9749.377665
-952.542705
-8207.892593
-8389.926308
-9937.775939
-2580.716242
-2682.827283
-2482.331251
-2384.634947
-10004.643235
-755.829097
-760.125076
-2688.145280
-2784.678794
-2688.655879
-2689.075498
-2193.061865
-9084.755562
-2577.547181
-2778.756504
-10248.539934
-2876.398692
-2574.772560
-8482.027042
-10494.848600
-2096.762438
-10494.140047
-2669.726820
-568.244522
-8402.456247
-2001.596539
-3370.490167
-4102.596643
-4098.978712
-4002.611425
-4192.815013
-4095.306298
-3385.402613
-3402.608415
-1137.068913
-2829.636273
-5096.454419
-3069.737161
-3997.977477
-3905.151546
-2937.323895
-6900.333159
-10577.067657
-3664.464931
-8202.089209
-7533.366433
-7324.956471
-473.918363
-10661.146120
-3175.836739
-3953.816691
-3165.765575
-3071.013982
-10000.739273
-3168.454973
-4425.223429
-4516.301445
-4691.845540
-4367.099262
-7359.321688
-10336.471665
-3078.530110
-3078.283543
-3077.914487
-3076.812941
-3076.083250
-3171.683419
-3264.428735
-4557.051243
-3811.203879
-3717.109968
-3622.879013
-3528.526923
-3625.829158
-3434.053668
-3723.291286
-4649.556878
-9363.088588
-3994.416172
-10812.157032
-2398.537382
-2301.738009
-9091.188282
-1042.573049
-6263.182341
-3370.276161
-3242.381702
-9015.410317
-10207.704001
-946.774981
-1433.421161
-11230.611070
-4819.693871
-4330.174720
-4137.809108
-4041.515237
-3848.758220
-2957.653936
-8322.336167
-8325.114363
-2683.267323
-2489.852600
-2491.209676
-7602.364134
-7597.391114
-7585.937637
-7548.478558
-7529.966175
-8680.089154
-1895.007314
-2108.800282
-1819.791613
-1986.291769
-9320.047992
-1525.287593
-9522.591003
-9672.105017
-9218.520999
-4109.621651
-4118.052287
-9803.445625
-10168.515257
-9623.077367
-10048.786565
-8982.541067
-2970.481300
-10257.533563
-3386.454259
-8125.635573
-4053.737585
-4106.148087
-3066.900365
-473.425184
-3316.048396
-7935.275478
-3368.833635
-10454.358602
-10790.737277
-1714.587264
-7823.830114
-3173.878112
-2976.859187
-2582.073770
-10778.897883
-1530.351229
-8542.484323
-3820.906250
-5751.927430
-7406.980021
-11156.978043
-11185.935829
-11163.070197
-10972.545184
-2028.282576
-4478.896603
-6115.068444
-7095.110333
-7283.479998
-8298.818730
-9989.622057
-5115.115981
-4919.102673
-2959.536974
-2855.380385
-2566.607147
-2565.321051
-3701.034570
-3758.540471
-3759.302111
-3759.896292
-3662.033934
-3556.235559
-3652.689519
-3552.695844
-3456.665232
-3452.924584
-3448.741478
-2299.054421
-7360.051082
-4441.968767
-8997.129242
-9105.516167
-4721.347873
-4818.253624
-2012.150833
-1915.753768
-1915.982327
-1915.754319
-1427.814504
-2833.500505
-2926.518074
-1427.224889
-4409.904543
-4311.341504
-9803.492681
-9798.915187
-4305.783502
-4212.938003
-5791.502832
-1049.073353
-1049.242471
-3924.948660
-2742.828654
-5591.194320
-2563.769782
-3825.603183
-3829.908881
-4498.640322
-2592.639188
-2786.655541
-3734.758562
-10481.878232
-2672.695143
-664.692424
-2546.327457
-4937.020968
-2769.397079
-2770.985443
-2963.155320
-10031.314750
-4216.380988
-4840.700642
-4147.555810
-4052.620124
-4151.465849
-2095.643072
-2094.501644
-2093.342960
-1903.909039
-10144.592542
-10468.146390
-472.888576
-1136.621776
-1515.239261
-2968.935120
-4049.914269
-4605.077720
-8929.461943
-3220.177939
-2747.904658
-6739.931074
-8066.870231
-8144.425295
-8103.418457
-5472.300607
-3060.216594
-9450.278380
-3272.364043
-1718.009942
-4572.754659
-4468.841486
-4464.332635
-8280.507603
-2837.541065
-8869.066138
-4741.846603
-4925.749160
-5018.511320
-3162.680562
-10167.177050
-4607.126370
-3447.551656
-3077.892586
-3160.176681
-4829.459381
-3436.680281
-3439.246405
-3441.743427
-3247.081409
-4664.295140
-4670.947735
-8048.791047
-3445.362066
-4048.589150
-2870.132888
-2774.606186
-3941.330590
-3842.708907
-3260.121883
-3853.409950
-2302.452866
-2398.846055
-2302.120626
-10777.678265
-4581.517802
-2828.497286
-2654.023938
-4691.860103
-4689.847351
-4683.088336
-4591.128700
-4496.796498
-10208.930282
-1530.377447
-1433.843836
-1433.650034
-3852.021402
-3750.678495
-9294.552784
-5728.767701
-5728.599645
-5629.257786
-5727.256190
-5715.259153
-5517.785744
-5417.766184
-3060.216212
-2961.372811
-7323.273162
-3757.613116
-3444.164032
-2662.935391
-7498.459755
-7486.977328
-8047.370392
-6971.778468
-6869.559365
-8583.800442
-6643.834023
-6383.102737
-2009.854635
-9057.536225
-8853.707706
-6497.452374
-1916.153711
-4812.542129
-6398.338162
-5909.709248
-1420.553767
-6103.758854
-2740.080453
-9500.425035
-4601.265046
-9664.116691
-9364.290831
-1235.794914
-7135.450241
-5795.838488
-4023.044477
-10099.304191
-1048.107804
-951.235898
-1141.025726
-10176.519688
-7825.222186
-8258.789741
-948.770075
-8576.982671
-2593.199037
-2689.778597
-9074.327356
-4495.868919
-5159.346234
-10318.844920
-8373.205003
-3929.133672
-3835.398415
-4140.004541
-3931.829393
-9111.749509
-2733.428213
-1913.247661
-1997.378947
-1900.507879
-949.196437
-1816.715124
-1720.761561
-1816.144645
-1815.531790
-1911.908157
-1814.878470
-4249.199491
-1231.462334
-1889.793420
-2383.256673
-3057.103429
-5984.718481
-10835.858432
-378.438893
-4416.925972
-4123.262189
-379.154638
-569.300945
-474.757605
-284.868034
-5740.783903
-1136.393194
-1136.014910
-3450.885264
-1701.160231
-2380.588638
-2475.342017
-6994.406183
-855.530832
-2571.570605
-2671.396285
-2379.229380
-10752.821323
-2302.659117
-9842.230282
-4790.684917
-4794.956704
-2559.276823
-1134.502516
-1434.002187
-7421.422361
-5339.344727
-7289.792063
-3562.680848
-6624.254608
-10785.832082
-46.740688
-8901.099612
-138.791879
-9552.209169
-9576.231821
-9480.183794
-9407.058926
-9332.890023
-9044.168162
-8839.650582
-8680.857391
-4618.692979
-4428.983530
-4327.952336
-3850.469781
-3655.784942
-3755.270238
-3652.689756
-3554.804198
-3359.329776
-4615.551669
-3164.270759
-3065.348795
-2964.877211
-3062.001329
-2963.154929
-2954.061828
-7224.040964
-2947.787700
-2757.164243
-2660.995486
-8620.278785
-2373.776444
-3756.522190
-3659.607730
-3854.099451
-3548.658568
-3546.466865
-3642.891143
-3544.167900
-3541.768341
-3539.275333
-3536.696506
-3633.090314
-3534.039991
-3531.314417
-3528.528929
-3624.896558
-3334.370697
-3619.882418
-3237.506929
-3044.217286
-2947.773614
-2855.381097
-2851.459715
-3138.304371
-2755.280650
-3719.250687
-3813.478940
-3807.866052
-2563.285957
-3907.565397
-2183.102244
-2182.641381
-7614.922834
-7512.575652
-7605.387544
-1819.818257
-1819.713615
-4807.363684
-4994.138099
-4892.353745
-8809.728003
-2554.025041
-2647.703154
-2646.552520
-6790.110426
-6899.709969
-4612.230212
-4515.767964
-4707.679121
-4605.078267
-9775.443751
-9862.833360
-9957.242078
-1140.195766
-9317.292762
-7164.802821
-7247.357212
-4626.967410
-8615.931734
-7329.231835
-4624.208685
-4525.162157
-4621.251822
-7412.813180
-1136.150486
-7427.698318
-7508.796956
-6776.719289
-1049.390119
-1049.517955
-1049.625246
-1145.679442
-8612.936077
-7668.689570
-4426.235500
-5469.879000
-5460.588136
-7445.041488
-855.391448
-3560.292378
-5369.926566
-5360.925547
-8711.161570
-8812.769456
-6640.594504
-4330.174378
-4423.305471
-4332.882005
-2689.825671
-5261.470689
-4323.347917
-2786.755376
-2786.655706
-2786.456573
-2786.158495
-2883.292755
-2785.762246
-5864.948988
-8809.175118
-8810.702451
-8916.118247
-6750.725048
-10489.619371
-4588.923188
-4234.031520
-4236.486615
-5396.608709
-5170.608991
-5162.218250
-661.131536
-4519.776052
-4420.199739
-5071.246096
-5063.177947
-4416.925596
-4413.490929
-4318.236375
-4409.904228
-4406.174613
-4502.602723
-4964.352060
-5057.729617
-4953.652494
-5048.710474
-4948.169664
-5046.506033
-8030.891056
-8277.857227
-8498.960469
-4402.311840
-4942.619993
-5036.796669
-3833.814578
-6853.032322
-6860.614167
-2881.880847
-10634.111218
-2978.492837
-8805.016369
-757.488844
-2546.281417
-4346.931061
-5034.954879
-4238.513136
-4335.080325
-8387.055291
-8601.433068
-569.318585
-2735.915893
-4388.363440
-2977.728181
-3075.098330
-3172.533455
-857.090206
-4717.242861
-4240.360257
-4242.023835
-4243.500199
-4597.305701
-4591.127883
-5454.621941
-3650.979376
-1805.738816
-1710.052764
-1615.230177
-8800.288317
-2193.114227
-2384.554853
-2190.842463
-2687.546084
-2591.713530
-4246.776257
-3270.037942
-3271.822522
-2186.896413
-2284.496055
-4611.221800
-4603.645395
-3936.152689
-4029.978307
-3644.317400
-3171.684025
-2093.342467
-2494.085773
-377.563379
-4291.989463
-3269.206193
-8006.059251
-3422.837754
-4441.330346
-4034.467658
-3938.627560
-2574.618460
-473.808150
-8119.271834
-6543.785408
-6543.933401
-9342.685066
-4249.199612
-4347.469668
-4150.966330
-4148.513258
-4392.443788
-4926.925683
-3152.138997
-5000.524444
-4441.722317
-4691.859286
-3548.658390
-3646.552087
-4443.984013
-4125.464606
-4991.773660
-2188.501950
-2380.448569
-10593.168788
-4298.317893
-4198.068907
-4204.043850
-4347.793250
-5936.368436
-3326.506588
-1426.696263
-4130.924490
-3519.468149
-3610.702785
-4109.622604
-4009.761121
-4015.070527
-3915.400290
-3355.224105
-1897.510944
-2686.858049
-2783.996155
-4147.556043
-4245.879086
-4051.055710
-4146.411924
-4145.083404
-4530.402818
-4530.470791
-3742.994460
-3550.736767
-2302.813602
-2581.618995
-4135.443990
-4036.972356
-4034.467615
-5083.548705
-5183.005719
-4984.275715
-4892.427006
-1999.522745
-5704.906304
-3149.960014
-4031.815446
-4029.022633
-4026.096495
-2573.106343
-4871.638655
-2580.310911
-2302.813564
-4242.024125
-2397.668046
-4487.798355
-3477.054583
-4786.263355
-6618.148920
-4338.919237
-4322.350252
-2782.353983
-2878.600296
-3072.192259
-4880.512249
-4774.381313
-4908.921916
-4493.376658
-1338.178933
-1434.124930
-2187.318910
-5410.972658
-5319.311682
-4706.553230
-4806.770288
-3262.890733
-4036.972473
-2857.422894
-5326.089981
-5332.773865
-5345.785039
-5246.531154
-3748.960306
-3845.178809
-3747.103520
-4423.305881
-3462.511030
-3723.292897
-4433.775492
-5380.833116
-10292.592382
-11107.617778
-11263.169117
-11274.324935
-11274.879161
-11273.215370
-11269.321470
-11249.600604
-11237.561727
-11223.021088
-11205.860735
-11137.050528
-11091.527936
-11037.197885
-10895.465378
-10835.732533
-10767.916514
-10690.326262
-10292.554636
-166.159205
-385.991943
-1156.912261
-1374.424669
-1701.945489
-2243.655667
-2570.154533
-2889.832343
-4685.812411
-4897.189005
-5204.473818
-5407.357171
-5614.927171
-5815.976923
-6317.386600
-6513.174671
-6709.058751
-6902.619800
-7476.467030
-7751.902616
-8029.397360
-8559.378932
-8737.254987
-8905.957827
-9078.531442
-9652.361432
-9813.660156
-9251.864500
-8519.034738
-8354.421123
-5111.965279
-4916.191179
-4527.916568
-4236.403802
-4140.004812
-4043.542180
-3847.046389
-3264.429102
-3166.834625
-3069.339684
-3066.900733
-2969.629601
-2874.641114
-2968.119716
-2966.533925
-7618.830416
-8221.971357
-8326.182438
-8321.806888
-8421.480244
-8520.976987
-8625.814543
-8721.020362
-2467.459138
-2371.749452
-4095.308357
-2276.145347
-4188.952043
-4181.992749
-9025.232217
-9025.788231
-4177.883180
-4173.766808
-4076.937611
-4286.486427
-2180.637451
-2088.644339
-2180.431761
-2682.828318
-2683.945645
-2490.842306
-2394.805511
-2491.759547
-2297.546673
-2298.741753
-2201.594988
-7518.440078
-7596.573851
-7591.427937
-7579.655253
-7476.561158
-7565.906422
-7558.291340
-7541.584108
-9224.395329
-8973.535083
-1987.992860
-1892.958010
-2272.436280
-2108.521825
-2109.096192
-1915.981490
-1916.267470
-2012.667158
-1916.325190
-2012.725156
-1916.268075
-6016.156296
-7410.833265
-2205.241328
-4988.546757
-9416.612202
-5078.713693
-4887.719593
-5168.583789
-9437.449364
-2366.388373
-5258.135516
-5904.150956
-5812.265012
-2460.251287
-5353.666252
-9520.505746
-5466.361186
-5372.083684
-5277.630634
-5183.004076
-5088.221454
-4987.108036
-5092.706064
-4996.247240
-5096.991129
-5192.286285
-5101.067557
-5104.926959
-5015.605450
-4915.931975
-4902.211092
-4901.063260
-4819.693170
-4822.611703
-4723.369529
-5859.080390
-4825.139760
-4728.635582
-4827.441534
-9788.228682
-9782.146768
-9577.027745
-9562.443391
-9355.725212
-9346.498016
-9325.998379
-9172.918802
-9077.412832
-4829.512594
-4732.999115
-1136.013446
-5764.820955
-5865.470694
-9407.676593
-9084.647017
-6997.782157
-4831.349018
-4832.947385
-4736.426684
-1136.039831
-1044.661773
-4834.304755
-4737.781219
-5670.370733
-5295.440941
-5697.518518
-4835.418663
-4933.248132
-4737.575464
-4738.295617
-4738.776460
-4739.017114
-5689.775694
-5570.031313
-1049.778502
-1049.826818
-1145.840762
-9500.355550
-9592.716916
-9684.744065
-9776.433434
-9958.767212
-10010.441110
-10154.823702
-9707.399230
-5593.474024
-8986.707203
-1230.803881
-4542.523850
-8863.342161
-8655.766900
-8567.968467
-8464.244585
-8360.437847
-8343.801995
-8510.680119
-3980.296340
-3787.575282
-3691.472543
-10559.575739
-9581.202688
-8256.574924
-8334.058299
-8323.713329
-3604.528771
-10321.422208
-8176.872288
-4444.659495
-8417.333116
-3688.380800
-10691.927107
-4537.843719
-757.423035
-4344.256170
-8161.432911
-9461.482821
-9403.691754
-3417.548435
-3316.052843
-3409.367834
-3220.181729
-3124.457420
-3217.824345
-9421.406890
-8771.078058
-9106.326248
-8226.819788
-2642.534170
-8122.949030
-5681.627229
-5581.191953
-5686.855220
-5591.333029
-5391.921772
-1902.513920
-7817.403447
-1613.692348
-4344.037982
-2002.717311
-2001.778144
-2097.943607
-1809.728091
-1713.840246
-3784.650770
-4635.112385
-4736.427011
-6563.926581
-10735.196368
-1324.769581
-5299.816076
-5292.029946
-5199.902805
-5192.287631
-3321.236345
-4887.838304
-1612.930956
-1713.083566
-1616.759029
-1712.317349
-1711.545157
-4439.788397
-4732.335321
-4833.914828
-6447.889613
-5100.134654
-8169.603350
-8066.058445
-1710.052718
-9440.757337
-9091.264776
-8329.552720
-472.746022
-7682.153635
-7834.388069
-7848.383572
-5063.175599
-7981.642921
-2747.903745
-8029.243646
-8587.364198
-1805.521031
-5387.299692
-2196.313009
-8177.203271
-8273.588209
-8190.710686
-8287.094979
-8196.627348
-8201.991722
-8298.374927
-7925.085045
-2294.110091
-10506.379736
-8108.990551
-8000.958348
-8112.950618
-8116.376900
-8615.564474
-4829.513024
-4730.447559
-4928.665144
-4929.408800
-4633.939571
-7836.693533
-2486.078999
-7906.560122
-5284.732475
-9121.021969
-9283.613338
-1903.907788
-4470.123124
-5487.314869
-8121.637511
-10931.327045
-7821.001341
-4974.594361
-7908.919915
-2847.844560
-8600.209764
-7946.685435
-4539.174123
-4538.597030
-1991.964641
-2686.083886
-7895.160141
-4912.536069
-5480.922704
-4774.379634
-4867.960535
-1424.764097
-2302.890892
-8284.846104
-283.094872
-7687.028196
-7667.412895
-4882.775338
-4977.785581
-4827.442013
-8486.889551
-9277.175202
-4534.961832
-4530.403227
-7867.047995
-5167.661688
-8192.648340
-4542.299558
-4342.654362
-5390.837585
-3039.857604
-1614.460330
-1615.257516
-1519.646411
-1426.137336
-1434.212082
-1337.926201
-8937.710513
-2204.510279
-4799.067212
-3915.398976
-1988.927693
-5734.459509
-7817.493720
-7401.523054
-2109.173392
-2831.917591
-10600.584230
-8376.735393
-8187.265964
-5121.136199
-5015.606182
-7519.354565
-7921.052042
-8121.979472
-8125.574441
-8522.053594
-8722.111689
-2370.339685
-2179.448719
-2202.650978
-7512.861218
-8227.674003
-8778.700091
-6531.833113
-6608.939412
-2009.631849
-9321.095131
-9324.439766
-1819.258176
-1916.152873
-1819.581009
-6116.763931
-1723.058160
-1798.761628
-6124.975250
-9357.655632
-9232.570189
-9342.915417
-1707.021236
-7283.060985
-2645.023255
-7712.378000
-6249.300838
-9445.444819
-5108.561618
-5111.964462
-5953.146491
-9818.788137
-9917.652551
-9915.403325
-9712.188041
-9809.657263
-9910.889252
-9806.542639
-9904.078888
-9701.975904
-9354.159631
-8974.135824
-5604.669582
-3296.680462
-7669.455832
-4930.441417
-5027.896164
-3485.419764
-10310.106938
-10253.652241
-10235.673127
-4836.287105
-4739.017141
-1044.291817
-4641.770828
-1234.349614
-953.047700
-1049.867507
-1049.863011
-1145.665062
-5681.964400
-945.348736
-10463.917031
-4543.194871
-4540.287273
-5871.059986
-4961.349369
-6832.551301
-4539.174387
-757.391386
-2548.923698
-8862.458969
-5052.164269
-9924.087946
-2977.791619
-1913.097829
-5495.664819
-5595.998973
-8427.596373
-1626.565888
-2463.910335
-1909.824033
-1909.058212
-1812.697208
-2003.630252
-7706.603615
-7285.253453
-6457.782123
-8847.775845
-8775.114855
-5401.319874
-1420.496831
-1795.143319
-2080.292830
-5399.867542
-2078.283463
-7484.411547
-7556.980645
-6933.110353
-1612.535019
-1707.738632
-1707.536022
-2175.585589
-2172.783184
-9319.949305
-568.916131
-6635.813146
-569.934643
-474.097459
-3952.171938
-3953.055125
-1803.018132
-1422.893716
-3770.570783
-1626.134835
-9223.866314
-1611.898299
-1325.391791
-3747.441785
-2455.532164
-5307.814026
-4881.627367
-1795.084908
-1707.738147
-5508.012483
-7169.089799
-5036.113330
-5130.023413
-5893.154614
-8395.660964
-1716.708309
-9571.683567
-8723.925548
-8686.333982
-7378.841831
-8353.907349
-9323.318889
-5128.824732
-5123.758104
-4217.729390
-6191.285023
-1419.753801
-1530.464882
-1812.094363
-2101.882468
-5018.549374
-7416.928943
-5118.049508
-6693.683144
-3530.222163
-2136.487714
-1917.733275
-44.080198
-44.684518
-44.422359
-40.587072
-2518.567090
-138.265262
-10140.079631
-8017.748559
-7872.480466
-7711.512133
-7532.700861
-7333.146528
-7352.382841
-7153.175760
-7170.682818
-7079.334241
-6987.675486
-6710.945345
-6614.522598
-6626.790091
-6521.724358
-6533.347079
-6335.361513
-6352.945163
-6454.439964
-6366.350780
-6269.863294
-6372.551838
-6467.865006
-6281.904558
-6383.912862
-6393.844541
-6490.430874
-6398.261422
-6495.145231
-6402.306604
-6305.773609
-6405.976449
-6503.430054
-6312.726802
-6412.177894
-6510.167696
-6414.704431
-6318.157383
-6416.845440
-6418.599304
-6322.048011
-6419.964730
-6520.123219
-6223.256049
-6122.789541
-6025.505928
-5926.562214
-5924.491304
-5827.593050
-5728.599591
-5726.141030
-5629.584853
-5725.813468
-5725.158713
-5824.647150
-5724.177558
-5722.871201
-5822.630947
-5721.241255
-5819.280927
-5717.019185
-5620.476988
-5614.320109
-5520.447536
-5514.291671
-5414.356360
-6595.483727
-2963.821385
-6620.262340
-6722.226176
-6720.379253
-6620.874719
-6820.469121
-6923.098824
-6920.519090
-7020.510736
-7120.440733
-7324.220284
-7320.087108
-7319.154710
-8025.561094
-8221.971349
-7050.639703
-2181.857425
-4543.390306
-4644.606512
-5629.257701
-4635.248894
-4736.673472
-4726.869825
-7502.324202
-7491.314594
-7583.379320
-7376.531220
-7675.133532
-7766.573939
-7857.695162
-7170.680641
-7085.564931
-8129.005801
-8024.210716
-8218.728348
-8397.030774
-8485.586512
-6650.305154
-6639.309372
-8661.467515
-6628.119511
-8728.573154
-6484.157551
-8814.613428
-6616.762801
-6392.749658
-8900.167928
-7993.088010
-7496.820724
-2178.299698
-2084.139828
-1988.923999
-6301.037551
-7742.274406
-6605.268768
-2010.421334
-8985.219168
-9216.536848
-9204.647136
-9199.513759
-9193.783228
-9084.646195
-8878.456899
-4909.367092
-1987.988546
-1913.795740
-2010.932605
-2011.387016
-6209.035461
-6593.669312
-5102.529063
-2011.783322
-8775.097158
-9371.358936
-2012.120463
-6494.539563
-9045.087919
-5193.334188
-4812.712339
-1798.723079
-6681.147091
-5181.049358
-5283.844692
-6409.528345
-1797.984859
-5271.009556
-6768.159045
-7123.096842
-5915.995530
-8567.967899
-5360.649931
-5463.955756
-6854.691452
-1796.686069
-1608.233050
-1609.281412
-6940.726936
-5561.006227
-5739.704783
-6032.068800
-5723.981190
-1701.963592
-7026.241304
-6140.631829
-9263.058922
-5568.536098
-1418.674569
-1419.941447
-1795.689527
-8376.561984
-8730.998550
-7195.589144
-5905.670160
-6083.711900
-9729.470545
-9718.352200
-9625.381952
-9588.679395
-9651.000367
-9634.979394
-6276.817956
-7279.381149
-8383.706614
-1419.730240
-8530.148808
-1701.156623
-8717.302849
-1983.841464
-7159.017752
-9528.292354
-8123.475644
-6207.626170
-6449.680039
-1514.116874
-7345.887304
-7544.871934
-1606.661923
-1700.895538
-6297.125399
-5341.069233
-5436.255284
-7567.748389
-7626.705724
-6047.000980
-6427.905898
-6546.941160
-6644.668924
-6730.224869
-1512.190227
-5524.797889
-6720.796254
-6186.646677
-6143.440608
-6132.934849
-6032.067216
-5931.431060
-5923.722244
-5748.060763
-5644.947897
-5551.561171
-5457.959224
-5211.624245
-9420.543548
-9519.724588
-9815.576781
-9814.170528
-9812.198461
-5612.965969
-1417.728649
-6402.950358
-6393.844901
-7663.869931
-9314.361381
-8320.972559
-6656.830641
-2265.556408
-7788.151432
-6310.432380
-8121.637487
-10210.227712
-2456.602080
-2362.858269
-2551.018229
-2641.848132
-2551.904866
-2735.225827
-2833.495581
-2923.771536
-2928.077777
-2929.478771
-3115.907892
-3396.347194
-3390.904779
-3488.982547
-3212.438034
-3483.331310
-3673.775383
-3765.920473
-7867.683221
-5915.803566
-5700.750479
-1228.803473
-1230.675328
-1039.890492
-1039.776587
-9207.224987
-7946.370111
-6495.145492
-6389.060511
-6504.235615
-8216.389079
-8309.562995
-5788.139477
-3860.183910
-3954.594037
-4046.317309
-4038.934509
-4229.136160
-10210.614317
-8190.278067
-5907.692251
-9100.038621
-4738.776542
-4837.281892
-2831.449403
-6822.058038
-5311.401087
-945.327192
-1043.920028
-1043.176466
-3665.866975
-7924.233998
-8148.839890
-8155.374216
-8201.930221
-7984.733126
-7881.673632
-7785.283205
-7790.960025
-7693.857697
-8195.857043
-7397.824296
-7401.523208
-6338.262725
-6350.754847
-3952.010491
-8297.522742
-4738.295753
-4323.344013
-947.616966
-1049.856338
-953.517441
-1049.843651
-953.463743
-1049.758136
-1145.825136
-1049.690441
-953.346094
-1049.503336
-1049.384121
-1145.418587
-1049.089917
-952.749256
-1048.916140
-1048.515294
-1048.290872
-1048.056426
-1047.815413
-951.852989
-1142.742835
-1046.411120
-1142.411904
-1142.067679
-1141.713048
-1237.349669
-1140.984204
-1044.664512
-1140.613356
-1236.086639
-1140.239375
-1043.925456
-1139.863363
-1139.486723
-6541.270226
-5411.280964
-1139.111397
-8277.846028
-8387.049046
-7828.329141
-4495.939349
-4595.461510
-854.106735
-852.218680
-946.706826
-6706.965190
-5899.406869
-5995.757986
-7300.530255
-7405.553285
-8284.845696
-850.726998
-945.485721
-855.731720
-3664.270863
-8251.640332
-4737.575653
-4836.287273
-4638.909541
-4326.685858
-6142.135931
-6227.549737
-4689.438086
-6795.044201
-6693.428122
-6803.493287
-6609.299789
-6807.092357
-6713.737861
-6292.543463
-8319.158232
-6656.186259
-1233.919216
-947.613359
-948.505023
-948.247789
-5508.011642
-5511.265006
-8601.418611
-851.718189
-756.750953
-4858.561702
-4958.725902
-6312.448078
-756.079149
-8918.441290
-8797.088897
-8821.275334
-6297.530218
-5712.706017
-6178.080127
-6259.162330
-6252.822572
-6342.429433
-6449.167378
-7198.417402
-8179.848795
-8091.971542
-4693.454071
-4934.273405
-6396.814282
-6303.098515
-8903.329306
-7867.048309
-8418.154218
-6615.519762
-6745.042737
-6758.329076
-5608.086955
-1328.665982
-10191.921509
-10387.782187
-10382.928026
-5141.395383
-5235.141831
-3570.920359
-6891.983100
-5700.309041
-6113.421291
-7100.195664
-7096.322765
-8074.974252
-661.373854
-1136.021135
-5601.194986
-10482.096259
-10491.196044
-10440.009985
-10430.696072
-10328.366553
-10306.853669
-10275.735888
-10255.940294
-5499.490320
-6480.630838
-6680.537574
-6751.829570
-6833.929636
-4854.804600
-4861.547430
-1423.354367
-8893.130699
-5035.565865
-5032.245486
-4933.248391
-6765.537997
-1230.581578
-6916.031722
-9023.189939
-7214.255513
-7414.796534
-6999.199927
-5619.346777
-6768.159560
-1325.440878
-1420.067899
-1514.691232
-7002.626270
-7085.363429
-7079.207665
-7072.604143
-6976.829660
-7065.555714
-7257.247860
-7247.518135
-7341.903044
-7447.024640
-7436.053283
-7426.484744
-7522.921009
-3482.591107
-3477.662322
-757.581903
-662.634945
-3384.493273
-4950.822410
-8878.206674
-8952.984350
-662.814290
-568.501095
-661.504199
-567.977095
-1515.243271
-1703.299740
-1700.823048
-1794.962773
-1985.402874
-2079.534379
-2173.607116
-2173.929645
-2361.336022
-2455.173321
-6821.673140
-7009.689234
-6549.562102
-6632.390897
-1983.495955
-6988.766412
-6278.233811
-7416.433998
-9224.085217
-8614.859560
-7023.382012
-7090.201675
-5319.307070
-5330.216253
-5227.384859
-4950.149863
-568.490451
-5039.817809
-2549.265230
-3291.431428
-6790.311789
-6383.913293
-6740.152933
-6829.621760
-3106.120514
-3110.052765
-3012.878466
-2919.712444
-2935.332930
-6881.242110
-1327.725645
-5150.906472
-5764.239437
-6867.772366
-6967.850107
-7602.202631
-6331.859400
-8486.706734
-2366.348101
-5704.811431
-5700.836069
-2174.505508
-5528.086645
-5529.922832
-5429.069094
-5529.128430
-5430.611039
-5787.463039
-8437.064991
-5217.656189
-5422.934515
-6510.167869
-6517.203108
-6519.440401
-6418.791494
-6615.980581
-6521.272681
-7617.255169
-7517.911098
-1626.595827
-2462.622438
-2365.129159
-6422.375727
-6423.572015
-6323.412056
-10685.802988
-4127.601337
-8928.231847
-1816.636547
-1816.092105
-1815.509543
-1814.890714
-1814.237600
-2006.253585
-2004.513610
-2100.934210
-1623.962037
-1623.890634
-1622.261138
-4950.860001
-7585.996661
-7621.640865
-7638.950491
-7481.619040
-7372.754219
-7393.795950
-7855.735777
-7305.531709
-566.441407
-661.650694
-5801.421985
-5696.466586
-5691.803519
-5788.298803
-5686.853996
-5682.878875
-5625.681077
-7169.389555
-7082.131525
-7256.169703
-2933.400384
-5719.289371
-5332.072442
-5330.355453
-4246.082024
-3685.363080
-5134.524348
-5031.055427
-6124.885241
-5150.059268
-7343.012155
-472.362910
-473.409843
-5836.067018
-472.008425
-473.576861
-8943.433334
-1516.012765
-6810.141056
-2736.012362
-1514.674945
-1609.280835
-1797.355455
-1890.352775
-1986.028379
-1890.924182
-6670.264716
-1983.843436
-1889.448108
-2174.064519
-8825.741400
-8748.753412
-1230.191129
-5756.038752
-4851.817564
-9427.659674
-8298.374844
-7421.422397
-7455.222901
-8714.455006
-5681.625865
-5677.666848
-7090.770478
-9138.306702
-7592.046199
-2556.506025
-7014.984079
-7319.528030
-7415.854611
-7114.549745
-6880.872842
-5882.969563
-5883.954520
-9798.570413
-7865.684262
-5897.778230
-10787.094277
-5230.362984
-7095.654095
-5932.167801
-2173.978479
-2172.484197
-7519.354589
-8166.130741
-8061.705860
-7095.651293
-2270.116775
-1530.189831
-6219.655769
-6224.398770
-6901.929194
-566.859969
-5819.280590
-4341.725418
-4249.899206
-4433.334584
-7231.287562
-2546.824805
-7059.584047
-4759.169703
-4676.172833
-2175.604691
-5488.859346
-5490.838818
-377.382428
-378.661222
-5220.905074
-6378.408575
-9688.902179
-4223.737841
-4125.297448
-4123.280663
-4219.398995
-4028.842203
-4400.819174
-6632.770192
-8225.355986
-8129.576614
-8199.130685
-8270.437619
-7716.204771
-6570.293949
-568.075969
-4702.126986
-4706.733378
-5901.953020
-5906.060947
-7467.907915
-6585.509323
-7763.658364
-7953.976387
-8058.906674
-8154.105481
-7026.789410
-6016.467911
-6413.626873
-2924.713027
-7101.122765
-6830.812222
-6924.325741
-7942.327403
-8132.918556
-8519.524782
-1526.617953
-8317.281742
-4753.709915
-4846.281908
-3589.832664
-1430.944832
-662.986791
-7026.790326
-568.134173
-568.250152
-664.566336
-568.373494
-568.854608
-473.588924
-473.523467
-378.943796
-473.555917
-473.519981
-473.712943
-570.018476
-473.769997
-473.959571
-570.265860
-473.992052
-474.106163
-474.150104
-378.898399
-474.229234
-474.169734
-473.979791
-474.337490
-474.016070
-378.711299
-570.517692
-474.212503
-474.250867
-474.212937
-474.213748
-474.090561
-2838.052560
-760.293282
-3307.460007
-3587.120797
-5329.480168
-5328.606110
-5229.374767
-5162.713716
-666.165103
-5744.166832
-7742.412972
-1610.767899
-1984.611533
-5570.109086
-3936.315575
-2455.189325
-5932.059884
-5935.822057
-6017.798423
-6802.192453
-6536.473388
-1421.365021
-5060.896657
-5403.994717
-7950.890286
-7978.337915
-1135.335965
-5747.851642
-7902.100064
-1042.709184
-7322.089209
-8498.796077
-5626.319721
-8205.389282
-8006.799419
-8009.225405
-1433.838137
-1529.792033
-1529.530987
-7006.374292
-6909.856308
-5724.177357
-7620.051003
-4834.305032
-5496.360352
-2269.098512
-7810.872030
-8801.184721
-8815.803434
-377.092004
-8845.391832
-6225.161000
-6125.337621
-6321.711957
-7230.280388
-1231.051703
-1229.831074
-6999.375911
-7025.606150
-9605.956063
-7852.120131
-5998.605569
-5905.669551
-6002.589811
-6450.831630
-946.415666
-1232.300343
-10381.186431
-6017.462339
-5132.651919
-7197.309274
-664.969076
-4802.292521
-666.244467
-4478.032249
-377.396918
-283.150873
-1425.304145
-6102.279517
-7815.857996
-6447.960158
-284.539274
-280.680446
-283.927802
-6779.282205
-1040.504262
-1135.038930
-378.254016
-376.723060
-2172.695302
-5921.040402
-5252.671330
-5739.707417
-9419.396496
-6620.749811
-1621.283278
-8021.490544
-6366.351335
-2549.937338
-2453.569205
-2553.880861
-6980.480455
-6977.367139
-8111.053484
-5666.228808
-7082.128970
-7320.087119
-7107.836912
-6911.414427
-6811.855653
-6914.013595
-7014.984084
-7085.363145
-7073.317461
-7755.393774
-662.957320
-4933.073289
-5027.896580
-5749.275719
-6125.895921
-6508.076248
-7016.973040
-7115.937072
-7115.937054
-9271.773969
-8257.817630
-1890.064336
-3843.168755
-5792.412513
-5989.664432
-7117.738257
-7894.358141
-5608.289447
-7612.234938
-7817.403477
-7718.186097
-1608.362355
-7476.936115
-7518.906862
-6153.126755
-6150.055655
-7553.317341
-8540.307098
-3291.162824
-1431.386736
-1431.801506
-6421.526644
-6424.769042
-7977.992552
-5979.463695
-5057.200890
-5780.567323
-10699.753982
-1420.548271
-6010.363825
-5913.021393
-6006.242788
-9508.812682
-4584.742114
-6361.054428
-6365.319931
-7889.253873
-6265.315953
-3749.537363
-2455.114298
-6574.811338
-9256.924395
-1516.837737
-4966.141551
-1515.352981
-1418.673060
-6140.513632
-1323.943797
-945.690106
-2549.650707
-7486.979216
-7220.303947
-8007.389678
-6812.941299
-6623.557068
-5130.023786
-5125.296665
-5328.929785
-7205.869703
-5223.406225
-7169.386911
-281.795532
-2174.287768
-5471.343030
-6168.515312
-3197.249633
-285.426936
-4941.084094
-283.921557
-5725.158571
-285.041376
-284.987796
-284.954276
-287.268294
-7068.778093
-4687.536938
-1325.188975
-1419.586832
-5535.054494
-1336.898227
-5024.631264
-4926.921321
-7624.683145
-3675.944403
-6923.761844
-7022.568389
-8170.245927
-6615.980492
-6617.814536
-6287.507982
-6204.697064
-7038.286080
-8583.221305
-6784.943792
-6778.747002
-6874.539435
-7420.482420
-5317.361745
-5420.496843
-6790.198942
-7601.226996
-6162.001535
-947.930773
-6839.194413
-6742.733313
-6752.662466
-7524.542836
-6819.646151
-6018.991245
-5918.626886
-6119.397404
-6021.158686
-6024.417659
-4737.781495
-7893.516537
-949.507037
-6904.924620
-6591.888331
-2177.199349
-10690.339901
-10575.933105
-9336.334960
-9013.909287
-3063.713988
-8722.000763
-2563.768428
-2681.632297
-8477.444185
-8792.741881
-4446.612602
-9193.463750
-9180.842480
-8885.618790
-4630.150406
-8767.891968
-2009.627766
-8664.285355
-8575.881028
-8479.931771
-8436.170185
-9629.169495
-8814.601940
-4492.823337
-8596.362267
-10541.571305
-8331.758329
-3414.807197
-8639.968602
-568.376936
-5491.006373
-1614.460201
-4381.388537
-1906.583486
-1714.584054
-4474.761972
-4045.210964
-4245.878866
-1807.575128
-5095.817145
-8057.707856
-10838.986968
-8126.571898
-8702.895144
-8170.245876
-8073.846795
-8195.857065
-2081.136347
-10778.897951
-10563.307563
-10057.068354
-7953.976083
-4039.603680
-8625.241983
-9936.725837
-10608.204680
-9454.540897
-5528.296029
-48.145730
-10059.935044
-2951.985556
-5912.092634
-5666.487316
-9011.741038
-4624.406832
-5770.890255
-4525.467308
-7410.382997
-5571.975331
-7490.781111
-4426.647356
-9575.742715
-10126.603618
-4330.504103
-4325.231897
-4431.542145
-8352.950289
-4234.285314
-4335.102348
-8249.071275
-8239.744214
-8782.519907
-8229.831634
-8425.570124
-4519.081025
-4515.767438
-4319.313700
-4316.130372
-4508.632713
-4312.808309
-4500.879839
-8219.328893
-8570.222436
-9867.553709
-5587.494601
-4226.686382
-8801.185170
-3400.397226
-4247.476004
-8293.592475
-8098.505629
-8304.429469
-7917.412625
-3369.919906
-9899.993401
-8005.353244
-4149.281496
-4445.776327
-4050.309810
-4248.277778
-5504.362483
-4049.299907
-4245.485615
-4244.053716
-4446.000110
-4231.485893
-3936.849661
-9373.323950
-3831.179751
-7801.054228
-4341.065478
-5011.455370
-8026.197569
-7708.232895
-4618.097030
-4433.906988
-10995.355931
-7632.193003
-5974.765766
-5057.193307
-4853.686044
-4322.561411
-4118.188830
-3898.650140
-3156.566183
-1858.540125
-1539.275327
-48.144212
-46.945468
-47.373050
-46.399768
-47.368683
-47.379728
-48.124143
-47.317003
-47.389631
-47.429324
-47.426020
-10156.135723
-9091.185202
-7704.005200
-7146.994167
-7177.089799
-3058.364422
-2958.112247
-2956.106672
-2564.943062
-9025.788256
-4639.669246
-7295.797272
-8242.943621
-8739.349225
-6287.509101
-5103.449325
-1799.351467
-6027.845470
-5553.532447
-5642.761700
-6225.966919
-6136.093320
-6234.033759
-5731.635356
-6143.441899
-9656.297632
-7448.808435
-7549.283074
-5948.872534
-5946.158204
-6732.271186
-7808.420193
-9224.677193
-7872.409674
-8620.894978
-3112.695249
-3207.320433
-3300.121600
-3579.732197
-3669.727336
-3761.697309
-7850.414534
-1228.879949
-8618.154754
-9000.188552
-2828.491867
-952.604116
-8283.966682
-4499.332144
-8614.859775
-1141.426457
-6548.857886
-3757.732248
-7503.463500
-6650.674401
-4405.354729
-2786.755322
-5406.336868
-6663.418260
-6766.756590
-4050.981476
-5766.864372
-5853.135878
-6949.500108
-8609.321226
-8639.508856
-8625.655356
-5882.970615
-2826.711419
-10210.162918
-5888.912974
-9314.310409
-7051.951098
-10697.567898
-8345.284019
-663.163872
-4130.305456
-6827.884909
-4567.946785
-376.970420
-379.076566
-374.778177
-474.815897
-2455.480810
-1420.939056
-2175.183099
-8795.555592
-5968.963380
-8555.068832
-4540.084830
-5756.034907
-9197.469701
-9377.605887
-9170.547350
-5893.569439
-5604.530502
-7572.469038
-3201.131593
-7483.185823
-9628.157800
-6716.512726
-4544.121351
-8169.056665
-5994.295739
-1233.498858
-284.566427
-6308.416648
-2457.757084
-9419.423369
-7855.738542
-7768.657051
-7752.137176
-7984.982960
-7696.537876
-7607.928379
-7593.122934
-7249.533378
-7159.020139
-7068.159543
-6701.569409
-6514.562033
-6519.440309
-6318.281013
-6522.698813
-6220.958069
-6023.119389
-5924.145642
-5923.454713
-5825.151855
-6623.004908
-6723.288880
-6823.547389
-6920.519093
-7219.616301
-7925.145365
-2469.004778
-5728.095506
-5643.512524
-5651.634824
-5820.794979
-6241.815906
-5659.800825
-2738.488340
-3018.183593
-8323.713169
-9353.816538
-4993.293394
-5195.551198
-5009.025913
-4916.190470
-4922.039846
-4723.453886
-4728.334838
-4927.197765
-4929.408326
-4732.334938
-4931.367861
-4735.422959
-4934.520600
-4736.617321
-4837.738480
-4639.719955
-4838.507286
-4640.764845
-6728.698547
-6444.816561
-8379.900052
-9061.789177
-2883.766950
-8423.013975
-10274.218354
-5403.454835
-4442.689823
-4441.722550
-4637.479248
-664.560399
-5850.186998
-9473.322844
-9967.690754
-5788.299893
-5983.877125
-4343.222355
-4341.986463
-5627.624150
-6395.075510
-4633.399660
-4832.141812
-4631.468260
-9452.954426
-3368.290369
-6830.811695
-8503.111474
-6256.477180
-4830.124514
-4931.368275
-4631.468672
-8234.041878
-6170.484695
-2379.007560
-8216.184967
-8012.576829
-1992.832562
-9276.326413
-5604.483737
-4435.769627
-10811.866720
-9261.987016
-8522.053561
-6911.573222
-5480.813341
-9657.336441
-10303.091559
-7704.601615
-5438.672727
-3333.857171
-1650.090213
-48.128627
-2960.071145
-3511.130809
-2181.859607
-9121.982582
-9301.516800
-9429.956564
-2105.197919
-2741.271560
-9616.577092
-5030.664540
-4839.277471
-4640.300174
-7297.244014
-9953.450350
-1145.646899
-5457.961707
-2787.270026
-4541.180186
-2787.112417
-2786.483901
-10544.308003
-8181.954785
-4638.904479
-2882.047716
-2978.650065
-3075.849491
-662.667765
-4937.694753
-2288.201038
-3868.141309
-2688.248105
-2591.603782
-2687.567267
-3368.784659
-4417.915878
-3840.404414
-5403.993709
-2495.065627
-9910.430809
-2546.994714
-10250.206040
-3355.918376
-8289.015313
-8589.915248
-859.526990
-8920.831460
-5125.296203
-5123.137545
-5078.695362
-3073.267285
-2103.642119
-5730.888999
-7594.871348
-5078.415995
-1323.461119
-7562.787486
-7650.437597
-5845.527143
-5211.516884
-5311.423170
-10110.372035
-5214.768038
-6596.912091
-4838.507430
-4639.720112
-9680.402397
-1145.590969
-953.693598
-5411.438916
-5511.562930
-8229.492982
-10169.164081
-6442.535894
-4936.634469
-4835.418886
-5611.795682
-6896.722071
-5517.026980
-5519.468764
-6680.843284
-5034.745747
-10192.388983
-5720.569545
-850.569504
-5812.531250
-2919.875934
-2826.527566
-5421.890945
-6416.405943
-7615.374191
-4142.610954
-5801.403112
-5596.559989
-5592.160206
-5787.461952
-5782.219418
-10600.305752
-5820.715971
-5132.832277
-5033.836844
-7762.534405
-9026.743633
-7087.217516
-5232.932687
-10887.477254
-8262.317861
-1530.371293
-378.172623
-6371.373954
-8683.680743
-10697.793144
-10682.150950
-569.226439
-569.295572
-474.755232
-474.591548
-569.932912
-474.675040
-5331.322873
-5332.072565
-10718.335626
-2078.865980
-5283.850713
-4424.232046
-4934.520896
-5672.199077
-5972.466738
-8595.393440
-2397.669242
-5998.618050
-6002.873186
-6021.158441
-5030.664937
-7715.925706
-6078.242785
-3294.685423
-5912.127289
-3480.249471
-5128.206140
-5327.289829
-5127.192879
-5327.442700
-6142.123933
-9718.552893
-2455.547344
-663.819569
-5445.268669
-5814.612509
-6062.784130
-47.024786
-2967.306434
-2965.599992
-6112.543677
-1987.111141
-6012.189222
-1797.306901
-9465.568564
-5575.734226
-7472.878387
-5684.278797
-5487.380096
-8926.325010
-4001.507346
-8887.519795
-1326.286830
-1618.723982
-1900.507998
-2293.016264
-5303.942466
-7903.014944
-7810.154072
-3667.110928
-2679.018733
-2302.272117
-2302.019694
-9198.412424
-4586.691205
-4494.734430
-1434.353727
-1626.945944
-1902.987920
-1646.337831
-7712.657585
-6684.515810
-6771.574013
-5524.039325
-9869.301233
-9963.746681
-10145.050414
-8918.442850
-10401.971488
-4423.906667
-3954.584824
-10451.040351
-6140.915112
-6226.155150
-6478.665193
-1327.055945
-662.816635
-4321.464227
-8403.154565
-8474.384034
-4865.237968
-9014.057563
-3035.665149
-1909.002125
-2099.944457
-9188.854055
-10022.243077
-569.073460
-9233.715110
-1802.076032
-5404.316766
-4438.034271
-283.168561
-10313.206713
-9224.091913
-8147.813078
-1716.481455
-2302.561480
-283.434386
-10159.925956
-1811.904311
-10608.228468
-6112.541857
-1205.466462
-9929.345573
-9353.816314
-8828.154183
-7720.947878
-8325.915484
-8525.314995
-7688.696215
-7675.528300
-7429.200010
-9457.738969
-9260.883578
-9242.501466
-5922.419439
-947.009059
-9601.688508
-9877.125744
-10088.239052
-5966.312209
-1047.025776
-1046.725282
-1238.519924
-1140.614760
-1043.552422
-1229.178328
-853.443778
-1327.596472
-759.289906
-2689.325956
-10090.333071
-665.377960
-10304.063498
-1891.337965
-2001.779954
-7822.069845
-2003.562350
-471.603681
-10695.896271
-2681.004473
-6157.308146
-10538.124172
-1527.301736
-2548.368130
-8702.561279
-6717.654769
-7264.263616
-7214.255440
-10019.035719
-9034.195002
-10760.604457
-8169.056076
-3172.752989
-7903.231519
-10243.415475
-4665.974860
-2399.672286
-3269.407181
-6614.522167
-9658.919904
-7623.198531
-7723.957894
-8225.956879
-7613.170071
-6291.804299
-4634.764506
-9422.044737
-1230.680928
-5469.876986
-4921.881011
-4830.124034
-9730.757107
-4642.250591
-8310.785619
-4586.056738
-2592.392152
-665.104529
-567.839841
-10697.011063
-3123.108457
-7112.791310
-378.102800
-7752.265144
-3271.779909
-10977.336281
-9456.252395
-5435.606274
-10795.272209
-4828.515942
-9640.796737
-10501.581901
-5055.442955
-10909.295685
-10874.474359
-11066.063446
-4842.408938
-2099.944703
-5572.229300
-10064.141666
-10073.296887
-10404.717363
-6321.711907
-4310.286755
-3694.407525
-5827.938261
-5626.476850
-5825.869241
-5624.568838
-5824.492360
-5621.399727
-5815.592165
-7224.040960
-7824.609177
-7398.957748
-7284.844846
-7181.964349
-7079.332368
-6874.894817
-6773.109260
-8211.751115
-6671.616517
-6479.460806
-6784.524914
-5913.021862
-7015.079933
-6010.364278
-5090.784055
-6107.602887
-7366.266356
-6002.590407
-6204.727052
-7462.349257
-2554.026748
-6211.881157
-3667.692248
-9921.165976
-10149.276410
-7905.196337
-8609.308238
-8857.045739
-6928.451522
-1889.162694
-6784.943792
-5920.913029
-6815.366283
-6318.281165
-7724.641734
-10057.071055
-7950.317183
-7108.925786
-8054.062479
-3271.326420
-3174.370730
-5026.617001
-7815.375043
-2847.844631
-5650.532987
-9716.229397
-1419.548877
-8994.825273
-5233.072810
-3239.960977
-6985.877069
-6920.085073
-6309.439477
-4354.191093
-1859.043625
-9257.734294
-8292.551729
-8178.722350
-2864.504822
-7718.186066
-2279.412096
-5168.207655
-6803.644358
-9323.258934
-3480.085842
-9496.620013
-9771.776386
-2743.973855
-5867.355292
-10476.961973
-5417.765553
-855.330001
-9303.422839
-2922.726721
-2385.822119
-7246.242196
-9214.675588
-2937.961994
-568.890374
-8482.028223
-569.956809
-5322.235549
-2397.695257
-6512.681503
-5062.272688
-7212.283096
-4487.964906
-376.967100
-3752.681994
-9126.820542
-3198.846932
-2849.714200
-10152.998746
-3328.861848
-3476.157269
-10924.263486
-8262.783232
-5809.143418
-7916.479444
-5178.069923
-3145.004310
-2674.213010
-4871.648944
-2186.134964
-1983.563474
-5120.936625
-5394.882620
-6200.201204
-2857.259227
-3269.407653
-7620.050985
-9196.044265
-5340.123038
-10057.853675
-7231.428384
-10203.859452
-10399.158207
-854.569267
-4405.563799
-8776.824415
-10470.595064
-10456.603124
-10328.711545
-9994.385303
-566.402234
-2546.199097
-8708.445402
-7437.831852
-4375.720730
-7110.985874
-10791.950189
-10588.020430
-10600.590376
-10399.836594
-4216.213643
-10563.806386
-1703.197342
-376.873028
-10873.992634
-9768.611283
-9041.236994
-4757.552564
-10145.049430
-10067.302956
-10111.894133
-1482.971020
-8935.762700
-8696.460061
-6530.353300
-6436.904376
-6343.215918
-6350.754373
-6357.966317
-6364.842230
-6383.372666
-6499.479507
-6410.456078
-6309.439208
-6506.993697
-6315.633643
-5726.082337
-7320.553305
-7821.166056
-9122.979358
-9214.675308
-9211.587912
-9203.692530
-9289.944766
-2008.380641
-7029.790327
-9751.480901
-1526.339924
-8626.473412
-2461.402572
-5346.811967
-8120.421738
-7727.260826
-6719.164381
-6140.630715
-9634.687132
-7928.235108
-8047.165598
-8514.502538
-8093.878559
-7888.182562
-9783.967493
-7305.032614
-8317.036690
-7923.090418
-1041.388007
-10458.680013
-10472.047217
-10449.151482
-1717.193619
-8412.914504
-7532.496347
-7023.576605
-9628.940678
-8081.286996
-9136.103926
-7632.354008
-855.786738
-9814.428572
-10729.690702
-471.523577
-1617.355167
-8423.018791
-8692.718699
-6546.941192
-8303.190283
-8108.990523
-9408.894387
-1512.106536
-1801.191805
-7059.735082
-10601.420958
-6795.044172
-6262.831738
-7555.568233
-6955.588151
-10835.743563
-7479.841642
-7703.305274
-5826.903077
-3037.500621
-4490.626437
-7566.269328
-5917.259269
-6305.018767
-6691.878144
-9595.939087
-10866.523243
-8650.805383
-3899.973677
-8615.198515
-8523.958527
-9594.610622
-8560.581626
-4223.842182
-8251.658106
-4054.404098
-9946.418847
-9949.309367
-10515.233347
-661.094491
-10785.858715
-1328.660679
-5946.164214
-4147.000693
-10859.903173
-2302.597696
-2668.021452
-9825.468230
-951.891177
-6983.602766
-2106.241478
-439.757800
-7823.593700
-8526.128301
-4161.534855
-4261.855355
-9121.426843
-7828.160373
-9324.159610
-4625.107414
-4999.830974
-5635.089770
-5908.854004
-9617.089140
-9684.741617
-9544.703395
-6179.835004
-1335.875707
-1984.304943
-9558.726694
-9180.496197
-2359.759644
-2294.853575
-2548.361650
-2736.168439
-2830.572134
-3759.604588
-3950.130681
-4044.590289
-4135.098586
-4318.131837
-1041.732565
-7747.393279
-4773.148638
-4775.613960
-758.093689
-757.389032
-8921.290707
-663.247895
-661.946804
-8608.815394
-10522.958174
-10286.888457
-9895.245697
-10642.721796
-1230.999789
-9886.110034
-6031.738691
-4053.930209
-8732.874202
-4283.637374
-4384.206810
-9482.075696
-4943.771816
-3399.236817
-2826.445392
-1421.101168
-473.007889
-1706.719766
-4428.497575
-4128.273993
-4696.417981
-9411.806922
-2643.219619
-7144.579932
-6451.514951
-1419.528253
-3995.246846
-8717.194108
-7193.296014
-6028.980282
-7175.159033
-10760.190970
-5700.836947
-7374.261608
-10821.785996
-2299.713105
-2299.052010
-4524.209751
-200.224751
-10550.045842
-9322.542854
-3057.102672
-2662.935438
-2566.884592
-2470.949660
-8495.350755
-9569.372068
-6844.568144
-8428.118607
-5741.358936
-4309.356145
-9522.871788
-9621.810799
-9705.959323
-5819.855224
-9188.848894
-3947.477259
-8299.289448
-8196.536359
-10296.306823
-7303.770739
-7825.213688
-10458.680571
-6236.938629
-6287.795159
-5705.166357
-6081.749732
-8079.584449
-6491.002744
-8420.855828
-10091.656845
-6659.367358
-8855.710763
-6790.198958
-10349.418128
-10364.567166
-4443.444147
-4443.768614
-9020.411640
-10593.601927
-8519.609720
-4636.603466
-9012.345918
-8618.154575
-10695.896368
-6484.958006
-6733.318487
-6745.020607
-6871.635850
-5922.851492
-7416.928983
-6412.178096
-9411.806502
-7546.325709
-8304.429337
-4732.999543
-569.308141
-10365.766555
-9431.487728
-8057.707995
-8161.432892
-6409.268021
-9091.038140
-8303.190363
-6427.829051
-7892.701581
-5846.587021
-8039.304423
-8309.016279
-8817.935124
-8843.544564
-6324.972214
-7429.487588
-6803.493244
-10869.124084
-8333.345596
-7887.169074
-7014.469967
-8256.574760
-7119.089393
-8919.184397
-4270.785949
-8721.020281
-8543.587162
-3857.272340
-9155.916523
-8360.437528
-1530.194210
-6373.225059
-5541.670827
-4345.213492
-5983.876233
-6217.983169
-2860.949487
-3138.429001
-3326.503530
-3466.394549
-3984.023246
-1818.021385
-1430.321457
-8583.194154
-2201.147747
-9955.419826
-8358.984638
-2882.704449
-2979.398574
-4858.518599
-2881.206918
-3172.753509
-2290.584934
-5136.735789
-2591.081410
-9831.486351
-3271.148109
-3068.364646
-9512.715076
-9511.282362
-5280.920641
-10548.423669
-2879.455063
-10918.912651
-1530.468753
-4935.557959
-1810.716271
-3466.751986
-3662.033741
-6485.807181
-4836.908642
-8559.447367
-10287.701966
-9621.604978
-8811.315586
-10186.758951
-10789.893827
-10696.399903
-8216.389191
-5877.425450
-7419.589981
-9701.975400
-569.627356
-474.824895
-8006.799402
-3952.809419
-1229.834120
-1433.913512
-1434.069802
-286.486280
-2580.716410
-8804.361533
-10663.496342
-10307.587453
-10196.487414
-5214.209788
-8824.862136
-5230.898818
-851.708857
-9717.817879
-7246.022874
-3062.831941
-3564.447104
-3466.966808
-3661.383952
-3465.255633
-3660.574551
-3659.607437
-3463.561162
-3976.591179
-2089.335804
-2086.193687
-2272.375568
-1894.264982
-1818.732830
-9140.985811
-1891.463397
-7732.437214
-2394.332932
-3671.789763
-3857.870224
-7037.763419
-2683.944510
-9994.386427
-10205.841813
-1797.073960
-1891.211651
-2265.112677
-8154.105358
-8612.779970
-5782.220630
-8697.913812
-2001.595131
-2096.761361
-1905.434875
-4048.111396
-9528.296035
-10301.719904
-1712.570276
-1808.903434
-4051.055478
-1899.502459
-7342.907867
-4052.010276
-10746.739045
-9031.947825
-3438.318208
-3271.147711
-5482.421782
-2582.871811
-3851.749717
-9835.828946
-10317.979614
-4309.283000
-2880.433167
-3107.540989
-1325.418516
-3850.335736
-9833.481440
-7921.559679
-8021.835806
-8137.697073
-9714.102635
-6244.496716
-7951.185656
-7314.416979
-9696.203547
-5774.772747
-9688.905791
-10268.792901
-7981.098468
-9895.248435
-10472.046745
-10465.677738
-4236.403497
-10342.881576
-9799.217133
-6845.941871
-10793.798714
-4145.527757
-4245.485344
-4246.718274
-5691.804617
-5396.303915
-661.183767
-7224.088249
-1708.477306
-8157.881509
-8737.048907
-10846.594829
-5308.026141
-3173.582026
-9392.347757
-4039.323407
-9730.761273
-10010.439246
-3874.146521
-4784.095004
-9973.081899
-6671.303690
-6623.837989
-8995.095083
-8760.652831
-3657.209609
-4076.590036
-8143.720742
-4538.500118
-1704.503059
-4982.528304
-5907.694765
-5807.792313
-1332.116367
-10142.613890
-4626.961317
-4621.646528
-3853.465125
-9693.844237
-9785.658265
-9853.057603
-10164.067606
-2290.585524
-952.838940
-1237.618121
-1139.342980
-1239.195655
-946.993451
-4332.730291
-4231.914346
-4420.993785
-4417.915611
-4414.679620
-4411.293871
-4407.767025
-4404.108362
-4400.327790
-4498.730067
-4137.808864
-4238.596374
-1325.211583
-2971.940325
-6947.516648
-4242.425544
-4244.053422
-4593.211590
-5696.467569
-4194.130972
-950.368233
-9982.122110
-471.947421
-4248.577436
-9960.378374
-3067.849271
-4345.213260
-9116.414099
-7687.109642
-7041.778111
-7308.502145
-8273.309929
-4440.544003
-9512.754214
-8246.960623
-1621.021882
-2576.100521
-474.555186
-378.678008
-9186.818332
-3175.112009
-3273.043285
-2974.821952
-4588.993119
-4346.125921
-378.324592
-7126.611114
-8601.606874
-10502.814192
-7623.425491
-283.540729
-4149.373375
-10210.168501
-3716.239774
-4205.702134
-4016.599617
-4243.500473
-4444.308351
-4346.334359
-4035.079652
-9097.275669
-473.315442
-4032.598080
-3936.152761
-4029.978484
-4027.227770
-1610.928371
-8519.524826
-9017.912502
-4444.659321
-9721.239451
-4713.872342
-4707.678427
-3514.055155
-3607.616889
-8826.232568
-2297.936975
-9221.662193
-9127.885842
-9311.054213
-5369.924434
-5275.643322
-5181.182488
-5280.918849
-4984.274224
-5091.285816
-5095.815807
-5100.133441
-5000.523257
-5196.612760
-5104.229943
-5108.097230
-5204.592541
-5015.465906
-4919.101946
-4924.380578
-9692.237500
-9250.344470
-4832.141387
-3202.564754
-8878.457681
-4833.914458
-4734.831669
-4835.440057
-4931.970124
-4836.715478
-4935.708388
-4738.892809
-4739.759449
-4740.379587
-4641.770693
-4837.406363
-8999.584812
-1049.489264
-8472.386174
-8973.091943
-10497.660090
-4385.747520
-2873.856342
-8303.858453
-9216.537174
-8837.407550
-4635.823224
-9177.608168
-4831.349399
-6821.615392
-7915.797305
-10513.468006
-9187.457142
-9193.783946
-569.634086
-9155.919797
-10773.633627
-8172.384394
-5486.087954
-8433.222619
-10936.091273
-3037.747604
-2980.702993
-8927.651687
-9392.195574
-9634.982648
-4541.348594
-4537.843417
-9509.023150
-4629.503979
-2302.561443
-4772.215437
-9053.455967
-4631.831939
-9110.661584
-1236.084656
-8634.688583
-5300.511756
-9136.105597
-5021.255137
-2759.097211
-3660.707411
-3652.500192
-3455.341716
-3648.664516
-8690.366603
-6585.508664
-4358.467257
-9319.417694
-1819.452568
-3111.153678
-5612.089852
-5557.931613
-5111.727895
-5208.230364
-9916.809704
-9816.700337
-9404.230624
-9020.413506
-5308.025257
-5873.828369
-4018.265119
-9512.498241
-10064.143450
-8536.377436
-853.662100
-758.759943
-2592.965404
-4542.386089
-756.438348
-10541.570847
-3595.533702
-4540.085126
-9010.122268
-2864.991783
-7263.587084
-9211.588255
-4151.766072
-2189.415727
-1808.067600
-5217.994508
-5024.635907
-5031.055130
-4505.010885
-4857.286805
-2872.466181
-9219.349918
-7741.106038
-473.861989
-7932.168468
-3161.984257
-567.820470
-9321.916148
-3350.063760
-9713.686151
-9057.528216
-6460.815453
-283.517950
-376.881404
-8874.963742
-8948.881603
-9883.293062
-5126.116127
-5120.720584
-1433.257196
-2381.871128
-10909.407187
-40.992566
-43.322132
-3899.731308
-8207.798563
-6241.815109
-8234.041757
-2179.381995
-4350.047899
-9209.191060
-8981.645058
-2012.614324
-8829.067406
-9101.253989
-9760.124200
-9666.129583
-6128.482993
-6027.843540
-5454.619316
-5214.886380
-4506.342109
-9519.724558
-9816.419581
-9819.350116
-9817.663192
-9915.277820
-9917.933319
-10114.139363
-8052.838866
-10200.092157
-4740.379699
-5314.765586
-8024.164931
-4739.759616
-9534.571118
-1049.402706
-1049.200858
-1039.876177
-8992.849941
-5896.052502
-8192.648289
-7507.318241
-6795.468127
-5507.953468
-5514.822374
-8155.796903
-8708.078196
-6078.240492
-6168.863967
-7192.826130
-4935.043703
-5230.050560
-5608.830025
-5517.785162
-10486.941591
-4865.729001
-10398.440951
-10294.426324
-8847.097321
-8601.629713
-8915.905633
-5033.173141
-5033.654296
-8933.386958
-3389.053573
-9190.858445
-3109.447931
-6858.152365
-8519.360674
-8784.929074
-1902.988636
-1807.221563
-8721.833354
-9127.820093
-10681.847967
-8855.715748
-663.034184
-5132.103513
-5244.944510
-1135.191710
-1231.615146
-4850.051161
-9889.447422
-10882.600536
-8271.150644
-8477.441581
-10746.238713
-9006.679528
-473.730047
-7946.685892
-9410.421503
-8679.374306
-663.639759
-474.044926
-379.276336
-5425.075015
-1136.788575
-10600.305655
-7594.872998
-5222.646171
-8504.294163
-4836.715736
-2178.387202
-8805.016046
-9705.958896
-9712.187756
-7844.133844
-10548.423461
-3850.854347
-8863.964087
-5330.063579
-757.802494
-9473.318013
-3813.476688
-5229.450028
-5028.771957
-5670.783349
-2371.137804
-10863.747723
-8809.174841
-4937.017551
-8323.959781
-10835.858204
-8352.699847
-10682.151936
-6570.433100
-8010.733396
-5325.991678
-5128.205701
-8897.450874
-10135.713189
-5349.062976
-854.826553
-5303.842444
-5400.436983
-6852.945564
-1810.789552
-8776.999838
-4621.647037
-3652.500374
-3458.578878
-3456.665389
-3644.317653
-3634.287286
-3440.739050
-3811.206181
-3905.153800
-9217.195357
-9315.494085
-9187.456413
-9276.665234
-8655.766256
-1623.883085
-6983.592101
-8393.880071
-10196.405574
-1145.318913
-5466.363318
-8813.598478
-5366.599619
-2592.833294
-5267.034734
-5358.209148
-5167.663909
-5068.497421
-9029.624994
-4938.630880
-8162.456903
-2826.554894
-3739.902705
-2189.415211
-567.829743
-2736.252351
-2479.736911
-10415.177455
-567.994194
-3012.639801
-8031.683848
-5673.816297
-10070.951483
-5186.183738
-4300.040017
-4902.212064
-1797.155159
-1993.811105
-1041.064134
-4098.980445
-6039.572027
-3341.935131
-5225.268222
-8885.607996
-4135.793345
-3068.365155
-2971.058955
-2873.856968
-8425.707758
-2778.037912
-2563.286759
-3516.673014
-4092.599867
-2278.161037
-4186.080323
-4080.337125
-2182.638964
-2682.172717
-7699.810682
-7494.303499
-2108.829830
-1816.086453
-1719.737971
-9115.909131
-9624.391913
-2643.838750
-9467.468706
-9221.407314
-3887.212307
-3505.651183
-3414.929985
-4950.152956
-4769.146945
-10094.140992
-4381.388683
-4474.761567
-9392.482362
-9296.304834
-1990.919988
-3680.747823
-5296.388811
-5196.613979
-3323.842356
-5096.992326
-5101.068647
-5159.343495
-8005.447017
-8564.642426
-8093.258790
-6776.498482
-4835.085711
-4777.015589
-5258.668947
-8655.892326
-9387.864236
-10288.180366
-10186.759468
-1434.077969
-3487.339080
-5111.728793
-10250.855494
-3795.786494
-3563.548814
-4363.497990
-9125.491549
-2010.179170
-1526.830510
-9742.160800
-9833.256274
-9550.189863
-2200.026373
-4512.282424
-1138.908353
-6538.650437
-8714.985445
-10229.429372
-8368.688058
-9651.080706
-6900.398510
-6939.135646
-2735.994842
-10660.078992
-8881.207132
-8986.704918
-10139.958211
-3781.053549
-5779.086272
-5693.578689
-2456.038360
-10250.203426
-9229.830984
-3904.212217
-6684.516849
-6809.808075
-8670.138857
-569.852139
-6083.711011
-5304.394318
-8792.735872
-283.128547
-5569.983602
-5667.981179
-5864.945983
-10790.737143
-8825.680984
-7813.436421
-7801.054354
-7921.052047
-9494.413097
-7249.530712
-5696.894517
-11115.422565
-4219.903983
-8028.418549
-7942.329768
-6495.372542
-6301.253438
-6311.444068
-6314.098884
-6316.378504
-6521.272607
-6319.804847
-6122.062437
-5726.141001
-5626.954543
-6621.755822
-6923.761842
-7023.918925
-7721.156378
-3562.952364
-3660.707179
-3466.480044
-3562.209489
-4456.012729
-4640.387519
-2178.303894
-4915.189562
-2177.204241
-9110.258823
-4817.804567
-5006.273404
-5097.088402
-9378.984103
-1800.701911
-1892.178727
-1706.332160
-1703.994250
-8749.104757
-1890.260123
-1525.825216
-1703.192909
-8532.510685
-6568.317011
-2555.227219
-2831.839264
-2295.804222
-6632.563294
-6823.981097
-4519.081546
-8219.328991
-8229.831688
-2393.909138
-2829.452560
-3487.109497
-3579.528033
-3671.786744
-1230.575484
-2490.840740
-8402.455527
-2737.299697
-1138.047730
-2586.257884
-1232.853799
-2198.469624
-2388.245047
-6436.904616
-1142.546663
-1047.308241
-9488.999946
-4867.008216
-3667.085903
-8915.489751
-10377.473032
-7105.468322
-567.894109
-5389.373500
-9214.079972
-8620.894833
-5332.769979
-5046.502895
-4953.649891
-9893.702769
-1326.107085
-5427.867016
-8089.916847
-10032.639980
-7291.177169
-3573.888798
-5330.063487
-3593.324891
-5157.032316
-2546.382980
-2733.428868
-8728.568372
-7422.572132
-10552.124393
-6901.036615
-5231.069809
-5231.494460
-7746.542338
-6498.536504
-6479.460673
-7661.431086
-6921.156427
-7023.786480
-567.769638
-474.750599
-8721.403900
-5251.216724
-5726.082116
-4345.652989
-10787.374833
-1986.676227
-4028.689975
-7795.304195
-377.051019
-2783.220231
-6405.976711
-7648.994713
-5792.970499
-6063.222823
-2455.235251
-5408.768484
-5139.144980
-8815.803626
-2406.486272
-8422.281152
-3759.338795
-3467.970269
-3560.292011
-2393.910920
-7688.380525
-1915.271132
-10151.607993
-1048.306993
-4205.701679
-3923.408575
-2591.080414
-10586.838871
-10080.232089
-3369.515064
-2002.595023
-2827.116722
-7412.829288
-4563.082459
-3077.951362
-9805.841040
-471.583217
-2975.753549
-9638.505685
-1619.683026
-3272.104445
-11137.049937
-1513.015262
-10013.827503
-10112.055628
-1049.569285
-2290.688749
-2385.822644
-8995.902302
-6300.868142
-2577.837427
-2875.168482
-5718.075753
-7073.154245
-10597.130507
-5600.685347
-3640.584573
-5792.411538
-10288.233255
-7412.054996
-3757.971770
-10512.591241
-3998.949926
-3907.563119
-5888.215256
-5902.082471
-6229.614985
-5428.680933
-7095.705327
-379.709830
-9418.028532
-6130.916550
-6018.990951
-5914.860545
-3075.097671
-3264.682117
-10851.069716
-10869.169073
-6067.329316
-6095.022475
-10760.604666
-10565.741159
-9922.929702
-3383.477278
-4219.694455
-4122.530348
-200.397195
-3562.209809
-10494.979162
-47.442927
-3656.999866
-4886.911651
-2646.318489
-9903.287272
-6301.253816
-946.890734
-6612.615042
-8550.309793
-6892.262168
-10233.824971
-6993.820541
-3933.540206
-8647.044561
-5129.224700
-4052.248996
-6420.781870
-6322.048127
-7759.460857
-7378.838303
-9889.687201
-1608.337757
-2077.747766
-9899.797766
-6725.763463
-6005.960969
-6377.553021
-1812.698200
-474.882358
-474.864209
-474.943855
-5212.707161
-9906.790660
-9605.075506
-2399.301141
-8313.305237
-2186.896568
-9935.317313
-8313.054276
-10989.484573
-4851.736001
-10812.157260
-284.162329
-4580.102928
-3777.899075
-1512.123320
-284.316977
-3554.803956
-3551.289498
-3454.852945
-3450.885498
-7510.689904
-1915.559290
-1045.028422
-4209.374897
-8055.916621
-6776.738789
-2769.837635
-2864.505383
-7088.989817
-4150.244780
-2095.861716
-2094.790481
-1998.458185
-569.816125
-473.113555
-2969.629197
-2172.191022
-3846.399272
-1811.906194
-5483.281746
-3318.886700
-3078.653572
-10262.754581
-3161.000623
-2776.064518
-5600.384837
-7140.601294
-6610.067708
-1425.012876
-4341.723373
-8788.296759
-8426.245967
-8624.722737
-8725.298950
-8925.849378
-3549.355108
-2490.311206
-2394.335057
-2010.182748
-1915.794630
-1819.740836
-5919.861571
-2205.602838
-9325.920322
-2109.497733
-7326.048932
-10244.014332
-9760.546077
-8101.026882
-2639.711366
-9337.419332
-3546.466530
-10889.427263
-2841.673703
-6705.197510
-2302.428192
-6097.830888
-10011.113548
-9926.321165
-7198.417209
-6450.706468
-8002.086526
-10299.166486
-7815.435919
-1818.876967
-8724.996983
-9732.148062
-8122.191770
-6512.775811
-9915.403147
-9751.482188
-5831.035598
-8368.795093
-11219.085856
-11156.978432
-2838.196147
-7343.637438
-5820.716320
-5517.027532
-5519.469243
-3753.683561
-3654.213793
-3658.485199
-3622.051551
-3143.135163
-3044.108063
-2949.887433
-2853.458599
-3720.231667
-3904.214884
-7617.255109
-7682.686008
-7571.406493
-1512.661974
-2551.911439
-6305.773910
-4611.222477
-1134.318732
-8714.455188
-856.380661
-3561.680670
-6310.870703
-6608.051639
-2682.171581
-6901.929130
-6909.856280
-6983.080985
-6242.679810
-6414.704604
-1721.175318
-1911.317623
-7387.463765
-1892.225822
-2188.502065
-9060.230838
-376.759900
-7326.923329
-569.464075
-474.610727
-10969.448552
-6530.741372
-10577.069441
-4296.058683
-284.746714
-3423.135263
-4019.876274
-1993.030635
-3745.113161
-2672.694697
-3246.334704
-2281.949444
-1515.009268
-8507.295230
-4219.694446
-10132.924981
-7520.797812
-2954.062985
-6312.727040
-45.780102
-7059.793774
-4720.411466
-4332.882316
-9069.551764
-1049.329036
-10357.393181
-4047.697230
-10257.531465
-9696.199702
-9798.914622
-4601.532635
-9609.942616
-4399.044609
-378.101836
-4485.270800
-9379.491106
-283.741688
-1432.975419
-11201.250232
-2468.050187
-4257.915546
-2201.930760
-7591.915933
-7539.473434
-2012.724945
-7409.108722
-9569.373182
-9466.359407
-3765.916231
-6181.889620
-3984.027074
-3604.549890
-4379.988787
-7332.023994
-8878.367163
-3701.039172
-5429.742046
-1905.711585
-5156.625905
-4473.319567
-9026.479685
-8964.358373
-1716.020847
-2773.078929
-11143.973447
-47.024285
-9533.713350
-9462.755440
-8036.656873
-7838.527048
-7759.463697
-7896.773935
-7615.184370
-7436.349801
-6707.059686
-6716.513412
-6623.557430
-6371.373563
-6377.552655
-6398.620715
-6406.896297
-6320.296048
-6323.411968
-6219.655614
-6125.337543
-6125.895882
-5725.813383
-5629.584825
-5825.151909
-5728.095615
-5817.110431
-5419.665308
-5317.835494
-6619.242089
-6590.359561
-6923.982866
-7020.289565
-8121.460343
-2106.814275
-7268.286728
-8888.993742
-8001.463990
-4542.889254
-1895.004139
-2011.525648
-1819.397621
-5658.361201
-1797.416990
-6002.873763
-6562.989450
-3021.311663
-8331.757961
-6724.139304
-8227.339457
-3392.768508
-7099.481936
-1045.190025
-947.929517
-7875.037185
-7682.400433
-5598.681771
-1048.745873
-1047.857372
-7867.827530
-10482.946783
-10477.799418
-10376.342287
-10465.678253
-8942.887888
-10463.916553
-661.268442
-10442.741598
-9721.237088
-10596.125450
-8846.636612
-8265.133933
-9201.714234
-8612.935911
-5418.052275
-10787.479519
-2937.324819
-5527.158016
-5431.228967
-10676.099298
-3309.580083
-8739.343948
-7395.685957
-10882.600360
-10789.893679
-5840.187112
-1421.106483
-2271.451144
-5233.514980
-378.342293
-5499.483792
-2843.569057
-6503.521697
-6930.346807
-7017.589736
-10503.843919
-7032.992648
-7551.819044
-947.968804
-3056.452900
-6868.838889
-5727.256026
-1040.777411
-7813.435395
-7019.418001
-7168.194361
-6688.488877
-6178.081843
-7110.599223
-7066.868010
-8726.122229
-8794.985000
-5233.806464
-10065.845641
-10205.736462
-6620.091324
-7996.839883
-6311.444328
-3142.790049
-9008.714197
-9673.068881
-4006.220225
-8981.971878
-8962.877551
-8724.993821
-10294.966134
-4135.793163
-8999.731284
-3214.372702
-5005.616432
-8771.075707
-474.680564
-4660.931897
-3914.117202
-4130.229604
-3934.403881
-7573.642775
-11257.147000
-6666.682493
-6763.264726
-6976.972810
-2853.457643
-1527.296319
-9648.152447
-9628.156051
-4504.829350
-4406.174886
-9509.196140
-1043.178781
-10364.718541
-6533.347284
-9623.369441
-9803.953671
-8502.815651
-10670.667066
-9127.879144
-8413.600084
-6291.291539
-3031.616246
-8683.679218
-8486.266474
-4121.547708
-7152.901283
-9302.656982
-10956.979624
-2829.983540
-1433.920385
-4073.029781
-4892.835110
-5613.422386
-1145.532967
-8953.516397
-8310.790419
-3957.338997
-378.503454
-7828.520170
-10611.621996
-9636.281704
-10336.488956
-3627.689353
-2205.844916
-7290.103659
-2301.696260
-1811.329859
-5382.444861
-1434.358127
-8626.474270
-11265.021658
-1970.174249
-7924.396902
-6444.816321
-6264.992781
-3458.356766
-3554.530547
-3358.901862
-2779.238648
-8878.793826
-1799.354685
-4988.315545
-5647.981710
-5548.116137
-1145.424580
-850.608327
-852.168440
-2786.850149
-2689.721231
-1136.794760
-3573.827201
-5613.418366
-5327.369319
-5065.812655
-10377.473529
-1512.571793
-663.942154
-2358.877863
-2452.588776
-5297.165324
-5225.263797
-7870.725862
-6954.339628
-1608.645693
-2095.860563
-3960.254504
-2080.091568
-8028.919510
-7706.106225
-7717.025363
-10594.514055
-4223.842200
-9616.385879
-10313.184879
-666.265282
-3755.571141
-283.779791
-7740.895177
-7219.616312
-8169.603311
-10857.718864
-1335.890644
-5050.233572
-10903.489109
-1135.610946
-4972.672005
-8313.054169
-7906.561051
-10921.544451
-2267.468749
-7475.959936
-4008.700501
-10111.873020
-8822.400719
-4543.391751
-2590.474296
-2784.771299
-10120.895668
-8767.705449
-10321.301407
-7060.617895
-1420.219022
-10205.736244
-9008.520614
-1233.343365
-757.562880
-8247.426753
-2267.443112
-5682.880220
-5592.161380
-9697.403951
-10870.753832
-1902.060912
-5385.953718
-472.705027
-7404.093536
-9254.458619
-3199.309807
-286.726335
-5577.839273
-10890.970036
-7867.827178
-2776.064961
-3052.472876
-2949.886135
-4450.783916
-3519.464985
-5577.392436
-7651.486182
-2683.266048
-8456.797525
-2591.603003
-2779.237626
-8577.007341
-2495.064962
-8911.351107
-8087.475033
-8103.218538
-4051.139124
-2980.034692
-3172.532899
-3074.236127
-3170.718859
-5407.933359
-4246.718516
-4046.747737
-7860.089359
-9580.518513
-2280.675692
-7303.770616
-10749.634394
-6463.490187
-5675.627109
-6960.752382
-7120.440734
-8786.643333
-6581.998769
-1702.490531
-1048.530436
-10116.937375
-1141.814484
-665.235074
-10476.961567
-8443.066508
-9869.915368
-5919.319941
-4932.791692
-5883.955597
-566.510784
-1702.154646
-1984.039535
-5400.438042
-6646.541731
-6930.345912
-7514.893644
-1622.836742
-10647.710575
-665.703967
-7455.948738
-4783.618378
-9308.593912
-199.980778
-2569.926305
-48.143873
-3156.116274
-3742.085185
-8948.038463
-8722.657037
-9948.587276
-3389.224220
-5514.395952
-6343.216422
-10407.572832
-2690.216357
-8881.209285
-2882.454086
-9734.070964
-8229.510358
-8820.114001
-9785.627910
-1902.061125
-8937.814893
-7180.192194
-4734.832047
-7032.991673
-7571.785933
-10144.355241
-10497.643002
-8173.251014
-9833.257714
-1328.701871
-8321.906247
-5535.057835
-10802.927812
-47.336485
-4429.534606
-5869.321653
-8821.226817
-2961.976381
-2277.473213
-9021.240745
-7601.226839
-7693.857492
-7585.788542
-7461.832284
-7550.183449
-7653.429841
-7532.495312
-7416.432607
-9221.383494
-2084.268758
-1989.231885
-5804.519477
-4607.517656
-9877.517337
-8717.194256
-7012.015421
-4640.648637
-8106.003701
-5464.023600
-5364.163054
-7882.205388
-2690.315753
-5264.508342
-2786.014621
-5165.057022
-5258.671661
-8227.339590
-8312.761377
-3173.265581
-8958.530269
-7417.091872
-1710.898179
-5878.704659
-8926.946304
-10312.068387
-8050.389455
-7567.749072
-7732.438368
-7932.402922
-3420.353385
-8265.988328
-8081.076941
-8093.878562
-8206.807773
-8209.349035
-5091.287293
-5471.149697
-2379.229402
-7894.232225
-10708.192447
-7784.368057
-6680.516763
-4901.064389
-4906.014468
-9625.383746
-8367.878158
-8195.563396
-1994.111212
-2592.041216
-7815.143969
-11227.000367
-7291.562259
-10207.703838
-7778.601419
-953.803534
-4038.989075
-1241.145711
-568.008124
-6789.082847
-5340.120647
-7146.604905
-474.712190
-759.509018
-7981.066768
-9718.203067
-1625.203424
-283.768234
-3409.362542
-5931.433027
-10766.229220
-5977.956652
-8522.591616
-5032.293283
-5227.717030
-761.525744
-1624.365491
-7003.686858
-11273.939657
-11083.232441
-10819.714275
-6470.599327
-6667.307461
-8820.142638
-8046.588046
-7776.185671
-7800.327754
-7688.422780
-7511.607775
-6605.160017
-6447.218025
-6263.334002
-6485.340608
-6517.330199
-5825.320208
-3067.849610
-2970.481677
-2968.935330
-6820.681921
-7023.468726
-7220.303942
-7119.990261
-2469.003862
-2181.516491
-7870.724402
-7273.474451
-7970.244074
-7934.356190
-6575.253325
-6740.151515
-9317.737802
-2082.115230
-8870.678894
-6395.829871
-8759.609851
-1623.476090
-6132.936062
-5828.522315
-1514.948270
-5916.964132
-6102.120923
-6199.626983
-6256.789477
-7226.170555
-8024.003245
-5941.960183
-7707.814437
-8287.094898
-8184.237424
-6225.965992
-6039.663154
-5938.914072
-5941.958262
-5838.391029
-5841.544081
-5831.033245
-9807.480817
-9710.569420
-8022.444358
-8087.752905
-5925.677447
-7991.056442
-7887.879688
-7874.629732
-6596.520614
-6605.575949
-8204.826976
-6439.669271
-5961.653784
-6697.966370
-6698.523802
-8116.782958
-949.039218
-8319.496294
-8663.306925
-5799.710548
-8271.526363
-3883.857483
-8415.863602
-5604.482870
-662.695792
-3412.345541
-5514.391599
-5614.319530
-5616.985753
-10596.391694
-8514.502418
-6862.024225
-6908.384380
-7513.579133
-8201.991646
-7058.065826
-7724.960670
-5946.159972
-6999.199803
-3220.736783
-3126.706866
-9854.898106
-5780.738343
-7264.348537
-6650.306086
-6880.749791
-7068.392453
-8420.144533
-8072.758306
-5395.479728
-5754.548041
-7617.121217
-8008.930519
-7735.190955
-7568.981539
-7496.817361
-7401.839143
-5689.771285
-5600.383866
-7230.747258
-10386.205652
-6303.095190
-6396.846957
-2080.833857
-6772.345702
-5295.442249
-5195.552536
-4479.341886
-7276.490219
-5778.103997
-7107.836857
-9702.591013
-1619.390110
-6321.183415
-10784.393051
-6092.631528
-8240.582813
-6896.722099
-5918.626536
-5575.862649
-5291.665048
-9669.363543
-9344.582356
-8101.641022
-8964.697348
-7329.248429
-8152.687076
-6155.176167
-6998.441117
-9392.194873
-6911.574405
-7444.145355
-8028.416697
-2389.697099
-8732.063903
-7311.395182
-5475.573552
-5754.313190
-5836.504119
-8339.284323
-6621.585930
-1521.081316
-7976.694394
-7896.772140
-5845.505189
-7104.239786
-8812.769222
-5676.127740
-7436.346893
-6804.513879
-8458.785996
-5994.029612
-6222.103569
-5914.052965
-6356.110679
-8047.173907
-4977.255148
-6277.681553
-8177.954426
-3534.038569
-6170.110628
-8002.086558
-1898.375954
-6541.270016
-5862.565806
-6225.542256
-6406.896521
-5797.061684
-7739.428223
-7002.626221
-5600.686288
-7626.401619
-6060.204920
-6252.823244
-6817.271118
-8673.678899
-7823.338171
-1331.136050
-6936.264627
-7449.688531
-5915.995122
-7299.373736
-8051.849968
-5722.870941
-5808.649415
-5989.113558
-6941.505287
-6701.568858
-9815.576659
-5951.725778
-6609.153338
-857.207490
-7347.918528
-7450.090046
-8962.882837
-6921.993970
-9616.386065
-6664.802009
-6219.833824
-6121.436216
-6315.633850
-7605.387668
-6320.296195
-6581.461799
-6901.036603
-11150.469153
-717.444131
-7513.579067
-1989.903879
-1134.369064
-1907.435075
-3666.024348
-4043.505433
-4041.634857
-4333.911541
-9527.248423
-5995.970759
-9237.165467
-7315.883306
-2008.384508
-5538.248445
-3145.005769
-7455.222205
-1990.067398
-2273.483592
-4914.507032
-5005.611266
-1799.508854
-1800.002333
-9467.467591
-5187.006158
-5090.435431
-1798.757849
-5277.262128
-5367.210758
-1797.780150
-1238.537028
-2174.063820
-9014.057215
-2737.259131
-2738.077665
-4043.660661
-4227.180412
-4226.317094
-6251.634625
-4321.568996
-7430.824726
-10058.947590
-1140.196050
-1235.654787
-1043.917672
-948.516204
-4522.214964
-1043.003007
-10373.097643
-4865.274069
-4327.952074
-2550.295142
-6752.662307
-3865.338492
-2173.482281
-7609.056751
-1326.023654
-4146.166796
-5776.693398
-1240.713102
-3218.538544
-8923.631696
-9078.493800
-9569.445385
-8273.109594
-9392.346992
-1525.819242
-4429.210208
-8012.576810
-3588.201103
-8082.517353
-1705.922897
-8017.724716
-9196.615190
-10167.187429
-4065.613131
-9391.311834
-4124.412535
-3929.134148
-4121.296341
-755.827593
-1335.631162
-853.267885
-8526.128274
-472.621435
-7246.239603
-9761.099204
-8922.485926
-7409.498965
-2105.200897
-9822.493465
-9070.196275
-8789.018498
-6470.764606
-10212.799945
-9407.828997
-2941.810248
-665.176396
-9416.378724
-4921.052947
-8339.558398
-10766.269476
-8449.336041
-201.898136
-11274.771275
-11268.096971
-11219.085751
-5869.970520
-1417.604536
-47.464919
-45.765270
-48.088075
-46.772513
-47.100316
-48.108143
-48.114851
-4631.694247
-5251.272307
-5352.133706
-6060.165167
-9292.620099
-7808.140910
-7323.983507
-6310.026278
-5829.567172
-8376.881514
-8019.524120
-5186.182096
-4816.897129
-4730.447133
-5299.814899
-8208.231828
-8293.592324
-8087.475101
-10286.889526
-8468.316803
-8835.597031
-5141.407272
-3694.616965
-7019.417984
-10188.640491
-4909.615939
-8806.231652
-8697.913476
-8510.682322
-2301.302688
-9999.537690
-3109.032823
-6525.099840
-5387.298237
-10142.612957
-2592.833432
-5021.538883
-6288.840531
-11122.778520
-4321.533825
-9738.602093
-9671.725809
-7644.923937
-8005.128439
-850.972736
-2096.913323
-2172.574905
-8712.890115
-7909.794114
-10538.122439
-5920.899829
-1529.490541
-5226.560729
-10359.762220
-3256.586724
-5121.135549
-7381.195857
-5571.037022
-5407.853332
-2685.930318
-2591.114886
-6352.864616
-4640.096227
-10486.941260
-5417.151753
-6459.460341
-852.859416
-3368.290030
-7466.033937
-5797.060811
-2748.641986
-2171.825511
-378.679748
-9498.855556
-7851.822351
-7694.659211
-5323.134578
-1795.084259
-5228.106503
-6688.433089
-2653.200428
-10953.180243
-10716.355009
-7823.593711
-8603.307144
-284.762782
-6923.098826
-48.161797
-3210.339963
-9385.976302
-2688.247250
-10199.675759
-567.331345
-2866.766984
-1715.311880
-2733.390220
-4092.598020
-10420.678758
-10710.874645
-45.393188
-5771.380534
-3908.628789
-2011.782662
-1136.059843
-1041.481173
-4036.424889
-1329.261170
-2688.834333
-10111.047495
-9998.181839
-665.605184
-10007.039656
-7792.415258
-5139.055232
-9969.957139
-10405.896045
-4431.587312
-1917.700661
-10116.175748
-7694.509421
-9224.954599
-4730.932446
-1139.771615
-9908.662921
-9870.690790
-1516.900698
-1717.192636
-4477.751079
-9989.357296
-9169.022875
-10758.044743
-2387.255927
-4803.008465
-6273.872805
-3453.551178
-5008.442648
-4825.371717
-1618.253772
-5924.440230
-2929.481230
-4836.908529
-5658.114030
-8015.409403
-8887.404208
-2674.213302
-6994.268571
-7200.109475
-1607.609098
-4892.425663
-7121.923956
-569.019013
-7233.254444
-7085.392743
-9626.959148
-3246.333532
-6683.152220
-5380.831390
-376.667899
-9844.467189
-10531.524219
-3969.786821
-3409.808079
-7317.756098
-6967.455537
-6017.462632
-11272.551943
-46.608904
-10877.200649
-2467.460540
-3697.794546
-2183.789432
-10364.568037
-4772.216831
-10340.776728
-8820.187674
-1711.545405
-1907.277206
-7585.998666
-2282.900252
-10690.104565
-9706.872758
-3197.960490
-9825.429645
-3247.082563
-3530.423481
-5029.604613
-5282.642226
-2091.515303
-11130.132883
-11246.921859
-11234.268187
-6376.331465
-6568.173490
-5766.829154
-5043.688135
-5617.893800
-5522.804230
-9995.787112
-5811.791112
-10094.190739
-5687.827286
-5317.834821
-5805.432440
-5595.997888
-5783.341016
-1529.994576
-5566.554018
-3016.179115
-569.956252
-8537.805723
-1420.021731
-5877.424280
-6015.173029
-8195.560640
-9413.524220
-661.530114
-8722.000613
-7666.640401
-4839.313714
-7727.104909
-8874.857634
-6012.537997
-6009.560132
-5984.717547
-183.656026
-200.566007
-4924.740716
-11210.508496
-10207.514833
-11142.245299
-10081.145356
-9390.591612
-9317.296041
-9242.929706
-7525.962815
-7074.297124
-6982.940555
-5827.938235
-8121.979471
-9220.547052
-9481.645615
-9237.173379
-6634.125460
-3694.779074
-10572.301733
-662.685151
-6375.882025
-8512.509055
-6503.521530
-6780.728098
-8775.675417
-1615.257264
-6318.157560
-5978.325680
-1809.366748
-9178.269357
-7573.932728
-9044.033782
-474.688893
-4302.804850
-7955.351662
-10025.471972
-8242.943238
-4875.705760
-10892.790829
-1425.286518
-6349.120052
-8521.162638
-10206.680058
-10200.092490
-5783.177849
-6919.217155
-2351.684039
-4531.395189
-8982.533298
-8590.119789
-7256.015836
-759.922445
-10676.099593
-2002.593795
-1519.198175
-6737.987981
-9540.169686
-9324.448388
-6051.046697
-1704.552927
-1040.769751
-2205.241146
-5033.172963
-1240.932266
-11273.939603
-7190.212315
-8991.399421
-6885.474432
-7140.649700
-2176.162668
-9810.988769
-9565.194768
-9741.425288
-1986.051595
-1512.196292
-6438.668771
-1136.052680
-1041.490815
-8719.521981
-3669.996045
-3952.966292
-949.831656
-1137.620683
-4501.677967
-3668.422033
-7551.771571
-758.250899
-5045.315388
-4220.853930
-8325.320456
-4854.749381
-2367.629545
-1241.472141
-9534.572799
-4008.422991
-756.384563
-6207.150143
-2736.109712
-4855.224085
-472.180055
-1526.831358
-10327.016734
-6980.412139
-4033.814127
-8641.099777
-10344.345261
-4217.662357
-569.398618
-569.927583
-8566.684239
-4150.268318
-2452.713696
-9765.432793
-8177.954273
-378.089918
-7565.906953
-9000.512731
-8351.483534
-10122.522950
-9104.752391
-1721.940085
-40.900061
-1527.736934
-7880.081969
-2299.715254
-4730.932921
-10047.236971
-3755.358873
-7539.865381
-8122.483855
-8053.521326
-8319.158273
-11252.332724
-47.002357
-6609.187615
-6609.299691
-9296.070989
-4407.767124
-6742.865506
-2486.478658
-8833.194924
-6190.985015
-6957.090041
-6316.378691
-5128.506405
-3661.830381
-5584.035449
-9245.410979
-4833.914751
-7800.325122
-7833.693582
-8621.850867
-9128.055607
-5893.568574
-6006.789945
-9900.641359
-7174.594250
-6916.180917
-6415.168467
-4930.441788
-10927.838000
-1331.911946
-377.592655
-6906.111033
-11143.972916
-44.383930
-2193.830632
-2862.747581
-3461.358514
-1914.293363
-4710.307303
-10209.106795
-1145.876572
-4641.052266
-5277.632462
-4935.708625
-2883.695921
-2689.075992
-5030.737717
-6518.925781
-5231.069931
-4414.679841
-2641.081882
-663.973974
-569.033752
-10526.375257
-3077.716101
-3452.924501
-2784.002204
-1046.390404
-1620.045466
-5153.490792
-10749.641988
-1482.937370
-46.487637
-44.638475
-46.514535
-5999.390935
-8330.601757
-9813.715497
-2195.280100
-7372.757615
-11246.922040
-141.262054
-7572.751883
-8789.101039
-10424.101933
-10390.723649
-2961.373383
-8742.820602
-3665.181875
-378.789800
-8077.613494
-3060.994003
-8081.151205
-8952.955906
-377.105874
-3440.737933
-7249.368163
-473.210779
-4181.116207
-7134.620191
-2396.383025
-10579.238277
-2395.629083
-3946.942711
-1895.797393
-9853.169139
-3953.471066
-3462.510613
-6998.019837
-1997.835761
-10125.675761
-4246.078175
-283.112678
-3622.049212
-9481.265519
-10738.519777
-4479.507854
-567.728280
-6226.155409
-7120.713948
-1528.910150
-3565.477455
-3461.327924
-2012.667739
-1515.353391
-9549.386768
-2576.325568
-4222.869526
-7504.698464
-7967.928012
-9565.070239
-473.819685
-3564.297176
-7814.429043
-9928.409228
-9873.326117
-1610.050596
-3908.626884
-4013.224509
-1530.546735
-2864.991223
-8726.122266
-2276.934858
-4287.844885
-7661.430533
-8705.193784
-8447.844212
-8575.881542
-3790.918621
-8876.831408
-9115.410977
-2109.430556
-9113.620247
-8988.539198
-8897.451329
-664.021884
-2941.810738
-8495.057287
-10760.190638
-8389.927078
-6314.036226
-3458.578549
-1418.330193
-1332.596052
-853.235684
-10387.782580
-9236.200049
-9527.243626
-6468.029680
-6713.948275
-3449.650483
-9600.802636
-3541.767631
-8141.599736
-3059.081813
-7821.416755
-9219.151672
-9121.021750
-9276.070252
-8679.263844
-9466.358217
-1893.574691
-4909.372170
-1606.933312
-8287.333315
-4509.937811
-3577.573304
-8196.627272
-7894.159120
-1145.002485
-8885.715320
-7101.122910
-8066.613194
-7983.209537
-10433.768572
-9579.741624
-8468.922414
-7051.951664
-9113.594777
-7860.089788
-5317.143407
-10014.516406
-1419.076428
-7623.628317
-7419.498007
-1418.047373
-1626.400749
-3570.948881
-6671.303759
-8609.388165
-9287.053522
-3937.702330
-663.315962
-380.365434
-8625.333583
-8000.958410
-7814.439282
-2552.686398
-10600.592065
-284.176489
-7864.029178
-7927.717937
-8216.506109
-6427.825324
-4227.183449
-8912.484488
-1335.169645
-5623.140738
-4528.887529
-9059.688706
-5031.095978
-7210.993960
-3384.849492
-5029.096392
-6716.629324
-6750.725392
-6758.329355
-3768.151626
-9421.968967
-4738.273500
-3239.485493
-2853.491840
-4516.663189
-1045.824135
-9089.090926
-5272.426120
-5551.563718
-9221.405431
-3722.209884
-4988.873276
-3613.781658
-3551.289545
-8600.208414
-3480.337385
-945.679871
-11191.291206
-2202.296322
-1335.617136
-3598.806986
-8052.888658
-3511.135278
-2388.501226
-9477.685049
-9691.009516
-3133.692492
-5382.446478
-11240.904507
-5458.132952
-6163.881986
-6728.686597
-6170.111557
-7479.551149
-9680.080146
-10080.631396
-5490.880308
-9031.596030
-5935.789725
-4959.049504
-566.206000
-8406.777229
-9391.314454
-1987.651798
-1138.743727
-6901.709859
-10887.902007
-8186.229185
-3106.721091
-46.746927
-8227.703065
-6520.921988
-3858.159175
-5012.379713
-6035.339940
-3671.954657
-3576.263786
-953.298310
-853.459008
-5315.671778
-1137.365867
-5865.636630
-6854.691454
-5628.603877
-1720.257217
-665.501854
-2643.098504
-8456.797189
-9294.549214
-1042.200914
-6119.521363
-6815.366244
-2084.264392
-5030.733428
-6682.777182
-1265.350197
-8622.447728
-3390.154066
-8558.203399
-756.354823
-3769.116595
-8389.285557
-951.515019
-2205.508962
-8099.457721
-10859.902891
-2685.931480
-9000.512179
-2296.704195
-10653.097021
-5927.270589
-5414.745425
-9407.828500
-9913.592209
-3577.794652
-1049.524494
-1144.199038
-6431.658902
-947.163250
-7035.588475
-9104.621630
-5581.163527
-8361.841616
-1516.836290
-7362.542024
-4887.717933
-6270.861720
-6331.859448
-6893.584589
-7459.791222
-11234.268348
-7447.606063
-3391.422563
-852.442934
-760.297419
-757.623739
-376.956933
-3201.924161
-3077.012897
-3075.848904
-7511.604612
-3557.815544
-7099.485148
-9302.659295
-3467.970303
-2266.018977
-3222.992346
-4908.920966
-284.923443
-5181.184307
-8892.174442
-3074.276060
-3697.811335
-7651.905488
-7419.581764
-8303.851126
-10060.865250
-855.819970
-10664.626007
-851.059284
-4125.143389
-856.737814
-1807.576384
-2773.998716
-8499.064721
-2677.104204
-281.765394
-6954.203386
-567.074569
-1521.081583
-9939.251471
-7307.499754
-5251.220046
-5887.827234
-3166.834215
-3451.652277
-6461.188460
-5674.103895
-6209.034398
-6860.614552
-5760.807652
-4739.110295
-46.398340
-46.501957
-45.507759
-9949.281998
-4041.206106
-3075.237287
-1719.744163
-3952.957720
-379.382250
-4128.290280
-1521.710332
-952.297065
-6537.060944
-3072.019933
-3329.144500
-3843.168815
-2109.173802
-284.553557
-2277.471379
-9107.510191
-2109.267306
-1045.508019
-855.605845
-8361.509103
-5060.233103
-9590.477542
-7226.171353
-10689.179634
-10889.427356
-10328.367291
-2109.017660
-7523.566842
-6123.106793
-9210.437377
-10359.778149
-8914.192913
-472.967041
-3950.263965
-5888.912008
-8352.950107
-4371.420445
-3948.731544
-10109.951081
-10624.425192
-5916.217644
-1913.243530
-1719.134497
-1431.973749
-1622.969877
-1239.529106
-947.063480
-853.048055
-5496.361475
-5310.305581
-3676.906685
-10164.066388
-6793.192526
-4249.554386
-569.775642
-5034.745535
-9903.575933
-9193.691360
-4037.416814
-378.038561
-10779.776057
-10729.690347
-10618.642625
-3969.346087
-4137.831176
-10405.835545
-3106.133342
-10590.508046
-47.759372
-7152.622818
-6891.278642
-3138.302552
-3516.985338
-3565.164690
-3435.838986
-5096.448792
-1912.002812
-1720.727152
-9640.793423
-2080.089519
-6439.299078
-2926.806859
-3910.869970
-1134.405598
-1039.890041
-1044.553442
-4683.364783
-854.826779
-8237.683424
-10383.572216
-8894.328743
-566.453873
-3729.200342
-1622.972959
-3592.642178
-473.338190
-4607.122479
-1813.553229
-6580.524680
-10501.582013
-3781.621812
-7912.791894
-10223.039292
-3318.623467
-2549.196148
-4321.574265
-3131.584920
-1432.347267
-10830.722889
-3024.335684
-6285.775769
-3965.835663
-1910.554165
-2361.963084
-3688.373644
-3595.527003
-1523.703095
-4230.509330
-7058.868280
-2361.099211
-11261.374039
-48.154998
-6858.059019
-6584.943746
-9859.252364
-7681.108793
-1046.446635
-8199.019435
-8074.527163
-2640.472776
-6056.329781
-11274.771248
-5764.473758
-7518.909999
-7429.490638
-7339.693110
-3760.577256
-3663.012234
-3562.680540
-3465.739419
-4076.934237
-7426.483540
-9124.208907
-1145.602225
-2588.803520
-2590.429457
-10364.717937
-3225.301379
-5867.467304
-4065.607162
-2101.881427
-4238.812263
-3307.456011
-9275.725070
-4629.322846
-3222.589385
-474.780345
-5484.650698
-3807.085864
-2196.431502
-7907.313739
-10753.531760
-4270.070966
-2300.751242
-7819.159832
-47.428127
-3660.006592
-4169.656757
-4161.613069
-4716.307034
-8017.724723
-1145.667651
-7508.907844
-10581.706964
-5692.336272
-8098.505656
-7175.159470
-7610.807898
-567.856825
-2455.483834
-8775.677368
-2881.285847
-6605.575845
-10394.211646
-8716.486153
-10691.984144
-10442.450712
-379.098986
-3849.021536
-566.336845
-9334.259388
-7520.316771
-4305.724338
-3173.265090
-6022.233591
-947.358250
-852.688469
-1910.583394
-6930.924414
-8906.963606
-11223.021217
-6901.623683
-3655.703494
-4446.318216
-4538.231013
-4629.908732
-4529.124458
-4528.889523
-3112.694177
-1619.394371
-1237.354789
-3022.761276
-2289.463031
-4013.223529
-4408.102811
-2874.640535
-2972.402803
-3273.179545
-4286.485270
-4379.988074
-7322.089182
-7091.068866
-2080.561099
-2777.449365
-2974.580194
-2582.871133
-6221.734108
-3077.423873
-3170.731784
-3814.498690
-3268.251607
-8620.278704
-1714.982854
-1134.341968
-1530.023154
-4644.607968
-2578.952129
-1524.151554
-4207.623697
-2589.658287
-662.626490
-10494.139434
-2922.800863
-1323.789409
-4473.319399
-7552.786442
-8054.696263
-10910.588949
-5486.089416
-1905.436716
-11266.529980
-3056.452141
-2759.045719
-2469.492697
-3459.922314
-3550.736808
-1819.398950
-2367.488053
-5264.382793
-3365.867225
-4114.689792
-2689.403023
-3832.710403
-2866.215183
-1617.513541
-4314.859369
-4931.390946
-4248.277729
-3545.158414
-3175.318703
-3078.283780
-4655.834781
-4133.435872
-3268.345516
-7459.166956
-4584.662450
-4508.633239
-2882.925131
-10299.165477
-2980.035195
-2468.052112
-4147.000421
-1901.513575
-1798.403004
-7427.711417
-4027.227461
-3077.914816
-6918.701619
-9913.430743
-4220.853855
-4216.381072
-2733.519752
-1337.552311
-4045.399374
-11205.860776
-6567.143987
-1536.164428
-4525.162657
-3947.030807
-3750.678735
-3753.860218
-3657.209908
-3557.807241
-3459.922621
-3457.019282
-3261.745866
-3431.377788
-3140.792444
-3041.976979
-2278.163210
-2089.334373
-2012.552780
-4903.478955
-5000.215935
-2460.235832
-2647.711703
-2645.516245
-4608.736305
-6985.546746
-9654.811543
-4004.995058
-7394.840376
-1145.427123
-8609.388360
-5270.170533
-5375.487136
-2689.326514
-2764.372401
-663.978908
-4324.534727
-4959.051874
-2688.835040
-4445.329167
-5355.076388
-3739.902402
-3837.965413
-2880.434086
-5076.522557
-2092.172139
-1709.207350
-5287.443207
-2289.462498
-2095.642066
-2287.000185
-5097.094264
-3074.236838
-2189.678284
-5092.707380
-472.797625
-3162.680745
-2550.267619
-4486.418040
-5088.222901
-5122.605770
-2643.223166
-4905.095062
-3257.638362
-3648.664522
-1999.835830
-4125.464748
-3927.930976
-5285.985345
-7552.466583
-2302.890884
-9729.472164
-4793.251737
-2291.715149
-9484.010593
-471.558496
-4883.086110
-1530.588690
-5218.919373
-9198.873740
-4615.551135
-3940.958439
-3842.708938
-3559.240866
-4225.898114
-10730.472330
-5711.678042
-4792.115779
-5715.124701
-7000.456639
-5115.129781
-4332.730646
-4039.603852
-3995.249320
-4266.477650
-4192.816510
-2087.483496
-2179.386383
-2778.757301
-7494.953164
-7626.400546
-2104.945355
-2178.392231
-2083.381857
-1893.578925
-5162.715597
-9157.261942
-4926.643210
-9206.481189
-5471.933021
-5566.325737
-1049.711565
-1145.888600
-7729.334790
-3883.846416
-3505.356762
-3511.110627
-3412.067667
-4376.969398
-4384.207364
-4439.157385
-5057.727028
-5778.105352
-1996.291142
-10045.255961
-3420.188373
-4894.039609
-9438.188823
-1618.250537
-8921.934661
-2846.000262
-2205.853921
-1901.513227
-3898.085251
-2455.661581
-2549.653775
-4035.320986
-570.406168
-8010.981217
-2390.839564
-2397.163364
-376.697438
-5162.215794
-4873.134428
-6512.682944
-4816.520065
-2652.355930
-10073.188530
-1519.646293
-2206.141873
-5377.369894
-5282.640576
-1997.378506
-5480.921076
-4873.505011
-4769.345811
-2079.551699
-1802.976634
-5385.952166
-4372.504227
-7996.038423
-3035.285467
-10085.976011
-1434.261411
-1434.263769
-4135.995681
-4540.287052
-2200.311637
-4575.711584
-5314.515705
-4822.646305
-8323.958891
-2274.850566
-8846.642281
-8933.393296
-1991.877639
-6237.067542
-1325.154882
-853.522399
-6438.711706
-7859.326529
-4771.991499
-2094.789649
-569.173511
-5310.516208
-10881.882472
-2174.560017
-6796.166211
-379.240273
-5500.496096
-2176.157146
-9306.168510
-3877.312568
-5575.732551
-6081.751527
-10769.503381
-5228.106812
-1329.646232
-6055.169928
-7309.060661
-6067.330307
-4791.722360
-44.625370
-7932.170438
-6789.084136
-6249.300102
-6292.543056
-6320.948781
-7925.402120
-4358.989553
-4828.512522
-7479.839588
-8152.374807
-2275.739996
-4920.111426
-5011.450367
-1797.302773
-5199.712639
-1513.435321
-6189.686567
-6170.485341
-5347.362542
-8334.058127
-6460.816017
-6621.581242
-8390.351507
-5654.364637
-5560.458669
-1134.410904
-2362.256059
-3210.615311
-3667.692096
-5606.002312
-1134.307241
-1134.566924
-1041.614295
-4130.168351
-9017.546405
-1043.547806
-1042.807303
-7499.125420
-1145.915156
-1145.908657
-1049.246155
-951.481994
-1047.567307
-1239.544221
-4869.256306
-8220.656355
-852.470002
-758.423064
-6072.552058
-2455.654942
-1042.994019
-5040.693524
-5411.722721
-5240.528497
-5329.157106
-661.791843
-1241.760364
-8239.744231
-8341.925983
-1232.687660
-4055.358525
-7181.859168
-7429.201131
-3476.845592
-1985.611768
-2267.617841
-5592.938662
-5860.124535
-7509.456990
-5410.967944
-5422.427903
-5237.763266
-5135.208229
-1422.823730
-7169.944946
-3198.844733
-3012.696249
-1326.863707
-1324.276789
-5862.569290
-6944.234597
-8623.083381
-6219.833634
-1722.781636
-1327.729649
-5133.976856
-7536.130914
-7315.884791
-5216.816315
-471.688239
-2639.971027
-7377.024309
-1703.317606
-1891.721709
-5243.876446
-5429.127470
-8104.493916
-6428.669003
-7313.076997
-7216.851749
-7779.076757
-6593.670075
-6985.879571
-8187.266171
-1530.019372
-5232.932533
-5300.768629
-5396.726262
-5664.391529
-378.903537
-472.579644
-4121.406686
-4212.390056
-4304.857194
-7444.148472
-6681.889004
-2007.839236
-6924.324948
-5404.315815
-6049.595378
-2734.445619
-4424.229998
-759.125099
-378.414719
-567.901480
-568.016485
-568.486415
-473.822265
-474.214901
-474.132791
-5208.956449
-1419.076207
-7841.055629
-5233.806434
-1625.862459
-2365.358512
-4238.815805
-472.073697
-3853.890304
-1625.552962
-4253.813373
-1892.103696
-3845.416146
-1991.163125
-283.758920
-1701.520694
-7919.682601
-7898.633175
-6817.480479
-7660.297559
-7912.600748
-6322.388723
-9206.478883
-856.222919
-5411.723991
-1513.986078
-5701.000241
-7469.443813
-9514.103544
-10959.207390
-6920.447550
-1609.675139
-7106.918313
-6713.737811
-3292.322070
-1231.315324
-2459.177922
-2647.697469
-7038.283370
-1528.459991
-947.548770
-6074.815417
-6051.044472
-4671.125101
-4764.121444
-2548.819739
-8902.495363
-7710.751600
-7708.883411
-7129.443326
-663.058014
-7511.939222
-5438.669376
-663.379211
-1516.305724
-7241.263709
-1428.327927
-665.440974
-6716.493878
-3822.679441
-8835.454665
-6797.336718
-7386.734815
-6687.156060
-2079.545978
-5417.442968
-48.171525
-6015.776519
-4278.324036
-1816.710000
-4897.927823
-7167.307097
-952.339023
-6880.748236
-8814.607709
-3897.424511
-8333.161956
-4325.209275
-10355.394410
-9978.440889
-10302.450130
-10191.921966
-5899.409556
-8446.144691
-4322.350084
-4504.828830
-2855.449195
-6561.690197
-4685.297203
-7802.509770
-4132.915528
-9594.984928
-3707.515414
-11180.609409
-5263.344832
-1313.598557
-47.376446
-47.632685
-46.514422
-48.166285
-9623.080000
-7044.771170
-9314.310035
-6092.632682
-9438.185132
-1240.149200
-3114.380257
-4320.211669
-4685.671306
-8804.358001
-663.150362
-5401.329947
-4147.195966
-2368.963307
-9398.106546
-8601.606545
-11019.399867
-8621.634681
-7100.566914
-9246.834625
-9828.095494
-7371.520104
-2551.445749
-5934.809160
-5834.512844
-8081.076976
-5804.516029
-7313.560281
-9448.446306
-8595.393152
-48.107709
-7190.310602
-9990.835516
-5478.386004
-2496.399363
-10019.773954
-6830.925949
-5720.113284
-7437.746677
-5908.261421
-10973.682426
-9049.763854
-1240.172725
-2861.287362
-3464.476927
-6733.316696
-5601.199213
-2589.786317
-758.944405
-8538.776762
-9031.597697
-379.023088
-5456.848042
-4790.683867
-8376.562264
-11201.250230
-8670.265331
-3658.484895
-3430.729419
-2659.599768
-1229.536625
-4341.986190
-1705.924109
-6913.785097
-10451.123239
-4128.265133
-9125.212717
-2084.143521
-1618.977966
-10398.824572
-2481.177360
-7846.067922
-7593.119593
-477.897808
-10029.805447
-7385.905747
-1515.606362
-1528.046926
-10876.076759
-8706.615495
-378.108455
-6415.169017
-2201.150205
-4822.645660
-4720.695087
-4827.866080
-7771.706881
-10489.618935
-6314.099107
-4149.858985
-5484.350186
-2169.982166
-1618.046696
-9970.421715
-1434.386423
-3249.343807
-7419.497958
-9847.598430
-9814.431360
-2456.606925
-8862.884088
-10891.928549
-9620.123635
-6330.467661
-6745.406916
-10448.640224
-8171.338548
-6570.294282
-2361.562295
-7409.500457
-6834.610978
-4290.497513
-8050.389744
-6915.158458
-379.095299
-476.753328
-7021.218078
-8606.967551
-7117.738245
-2290.688446
-5442.168186
-3453.551206
-6117.709650
-8369.484317
-5965.552471
-8493.264697
-948.267955
-471.544672
-8908.279227
-11259.232344
-11274.879175
-11214.776751
-11150.469594
-4583.455671
-5306.095057
-6216.408149
-6804.550040
-7381.322494
-1720.253434
-6083.260546
-5264.284294
-7526.858412
-3926.324052
-8893.354936
-8707.309741
-4964.349902
-4217.729207
-3641.966607
-568.110653
-10982.440664
-10751.074517
-2399.013029
-5897.918345
-2200.838347
-5475.513966
-6711.786130
-473.435475
-7255.783008
-8719.381717
-4659.417620
-6190.985362
-2297.066702
-4412.398927
-10043.713750
-2389.391681
-5760.460398
-1137.064445
-10169.162642
-3941.291469
-9461.477478
-2493.366263
-7899.605887
-6244.495726
-1817.135209
-1622.832603
-8215.669542
-4664.294042
-6813.030222
-7219.381134
-1236.263374
-1337.687829
-9070.358918
-6853.032787
-3671.948219
-7094.897966
-2480.994482
-2688.656540
-2009.234137
-1911.248223
-2681.631416
-3368.008430
-3077.422658
-3855.029160
-10167.586143
-5916.094200
-5203.667698
-4998.764230
-4269.557920
-4060.370068
-3848.869357
-46.671798
-45.201017
-44.838825
-46.619749
-45.592048
-44.618832
-46.656173
-46.985946
-44.992114
-856.528488
-8204.827061
-568.159195
-2081.805511
-10988.004267
-9082.074957
-1904.479826
-2571.566734
-1234.821446
-5654.366924
-2109.296611
-7096.406942
-9448.447807
-5500.056743
-1907.437378
-8807.708171
-2640.703142
-10903.488998
-758.569461
-6971.780087
-6873.490212
-7592.278462
-9831.488932
-7412.189788
-950.706717
-4036.430340
-3171.802637
-377.773895
-1707.021861
-283.987022
-10649.059228
-9692.234343
-9303.424152
-200.390416
-11273.215437
-4833.911583
-9093.344688
-9259.577350
-8801.656830
-8885.619483
-6764.020798
-5479.839404
-8925.849332
-8087.752891
-7808.419764
-281.796679
-6327.203416
-9197.472059
-9077.865140
-5751.925386
-9600.803180
-2495.435331
-2495.959910
-2867.871632
-7670.196116
-8459.220576
-10096.313304
-7681.112042
-9111.749102
-9180.495272
-8885.607408
-8576.265578
-7019.626105
-9522.590942
-9720.735039
-10109.924937
-852.739072
-8426.426342
-3927.930502
-2883.254326
-2458.206765
-8742.795872
-4214.476896
-5493.960844
-8876.828894
-8650.145508
-7318.299943
-9540.070656
-8942.893624
-8782.507290
-570.097777
-8781.181738
-8761.613114
-3945.546459
-7352.380183
-8283.477165
-758.367995
-6133.372019
-8525.314942
-6019.403713
-3261.243387
-2945.654517
-1335.533137
-1145.173506
-664.784931
-7571.904944
-665.563740
-4488.268226
-8218.314239
-1530.640733
-4279.383165
-4084.094681
-2393.462882
-8113.690721
-2012.893240
-9252.024109
-3976.596103
-3697.816539
-5303.847913
-5153.487764
-3514.059130
-9146.309979
-1425.574402
-6026.595412
-3143.133420
-7134.622936
-950.424717
-8398.345581
-9798.718311
-661.099162
-1801.193463
-10092.731814
-1337.825312
-7990.558689
-8727.987701
-3460.016486
-2083.099473
-1891.458499
-1135.997820
-949.567287
-4416.158379
-4682.182939
-2589.018395
-5052.167121
-6291.249443
-3740.753107
-661.407322
-4796.640401
-5934.811273
-1337.505975
-1231.053911
-8560.581156
-9909.647862
-8903.331331
-7359.420215
-5290.829069
-9921.465159
-3157.391017
-757.827315
-7130.004601
-5511.583826
-1431.191928
-6406.427709
-1421.110552
-1429.471556
-10770.117105
-4119.470604
-1704.620315
-1715.742932
-6693.428022
-9708.270596
-11274.324894
-11243.887465
-11230.610914
-2780.574093
-6414.537355
-6611.067470
-1911.903917
-4898.096488
-4642.250510
-4506.341771
-1615.958143
-8565.182641
-3480.057922
-9614.415317
-4577.189280
-9221.383547
-6310.025650
-2876.399597
-10149.962162
-1702.744705
-2573.184220
-8994.147835
-663.012771
-2202.293412
-5647.984243
-1313.524543
-568.083194
-7414.796479
-2205.710336
-8576.265970
-7833.692842
-48.097319
-2276.937666
-8061.474083
-1914.933443
-7888.816193
-7249.844158
-1144.107849
-10069.068690
-7248.940921
-471.608859
-6902.756056
-1701.105129
-8301.981642
-4561.773715
-9118.644577
-9616.176280
-9061.052451
-10628.401835
-852.123335
-6951.401141
-9387.869882
-1430.476596
-1041.417580
-7038.319315
-950.122323
-2092.612151
-5978.713813
-11240.904332
-11227.000228
-3650.648921
-6489.124186
-3694.622807
-2733.086853
-6613.741027
-7610.764849
-9100.043471
-664.214053
-8094.514540
-7968.417232
-8361.508921
-11249.600788
-3447.552126
-5284.726534
-10112.055656
-9503.119551
-5783.181389
-1134.537341
-3569.852390
-2358.953228
-6318.752829
-5879.484103
-6640.594742
-6025.506037
-9814.358180
-2452.690439
-4583.759223
-6359.148379
-9906.820491
-7270.920232
-2012.769264
-7591.912962
-1995.813666
-5608.833979
-9019.854905
-9081.383245
-856.032225
-6361.652190
-6917.915631
-7121.951433
-11275.048304
-11210.508436
-4959.904026
-4220.043461
-4005.555047
-3788.844211
-11034.368453
-10254.443480
-6846.562998
-473.006557
-4659.416452
-7231.185017
-3366.047901
-1723.240971
-2081.187014
-5852.429185
-5606.098324
-6335.362048
-1145.639471
-1145.550679
-7193.296254
-1240.942572
-3478.788109
-2363.983394
-4341.332488
-8447.843856
-9517.960356
-8343.183119
-7653.430500
-2000.816360
-8396.385737
-6023.119483
-4033.203063
-1337.679789
-6697.966270
-5451.706392
-4908.958423
-10600.316144
-6915.342074
-7023.785354
-1512.636022
-3949.891183
-5666.485461
-10435.874108
-5312.458668
-3422.834659
-2757.164791
-1332.520246
-10689.179843
-1807.221037
-7916.143208
-10743.463267
-2465.250666
-7256.167037
-4311.341430
-284.214889
-3613.318114
-281.720565
-379.189872
-7830.042283
-1230.635719
-8672.210990
-1230.837888
-8606.590371
-5229.374520
-8486.265661
-8917.810280
-6970.835183
-9714.106159
-1045.390366
-9418.947620
-10461.460164
-6955.566960
-6085.621228
-4069.210481
-6886.142550
-5660.538820
-5570.029449
-9373.464166
-9004.511670
-8208.231677
-9180.138620
-8820.205187
-10304.485713
-9636.118831
-7831.301554
-7278.153826
-11174.882986
-6691.878777
-3856.815549
-9115.410637
-9300.801542
-9618.914083
-9697.717063
-5823.469122
-953.870008
-1144.599424
-6498.536671
-8618.378341
-10699.753180
-4345.800594
-1805.038328
-286.878123
-6927.052443
-6918.459959
-7181.665496
-7197.629276
-5670.369044
-1722.344702
-4801.758741
-7651.906151
-5664.360053
-5946.156570
-6880.590250
-6420.940733
-6778.519623
-8988.414358
-8865.317390
-6871.634426
-9646.138845
-7019.626106
-7445.048757
-6993.732437
-5693.553536
-6055.173621
-8020.364232
-5409.320653
-10122.866904
-8389.964757
-7455.532605
-5924.145718
-9005.608914
-6575.676655
-7776.183034
-1520.450752
-6867.785175
-5916.964079
-6715.882627
-9408.888353
-7014.168340
-5841.333398
-9336.592755
-8814.601654
-6031.777072
-7183.474143
-9617.091092
-7720.048825
-7564.977339
-7200.401491
-6181.890854
-6268.778858
-5924.491329
-7120.227720
-8559.576731
-7524.298855
-7806.790394
-6507.680595
-6698.523765
-7045.766214
-10004.345346
-7607.925239
-5681.959819
-7819.159852
-6034.688397
-9512.714687
-6693.683118
-7320.431467
-5511.579493
-9835.839139
-7532.697964
-7348.995516
-2107.641328
-8053.057780
-7210.930150
-2109.430737
-9766.865241
-4047.703730
-8914.193154
-9676.626253
-9796.380508
-7496.340403
-3015.960912
-5854.041763
-1422.314270
-473.511892
-8433.220897
-4788.747699
-4127.392874
-9618.433979
-10528.588385
-1238.157288
-8654.401329
-10180.990277
-10969.874772
-2109.497663
-3077.422963
-7152.737420
-7578.744905
-1323.944957
-1608.531092
-665.616765
-1625.207111
-7455.530046
-7607.945440
-379.346611
-6702.981200
-1819.018853
-283.212295
-7238.791154
-2005.394756
-1338.051073
-10399.523393
-3446.498757
-3983.678405
-3298.317694
-3921.859986
-10454.357100
-4580.230900
-2947.788639
-4349.960144
-8877.407964
-8246.959751
-10478.204817
-8882.272274
-10260.210810
-2377.861657
-10898.966528
-5873.713274
-2879.564423
-1798.386076
-4169.321556
-1240.156767
-4218.558768
-6841.341890
-9022.229970
-1334.416033
-9289.878367
-8313.289733
-4915.932771
-2270.122649
-7838.001315
-9577.719608
-7247.228857
-10402.936953
-291.364020
-5472.295379
-7912.602325
-1135.034464
-7472.919976
-10881.344754
-1136.360125
-5147.505789
-7306.321191
-5926.562309
-5927.093486
-2481.176987
-8711.161352
-5838.402032
-6079.378197
-286.482384
-6318.753426
-2487.666787
-10123.457522
-6423.571955
-6705.192006
-8081.151303
-1233.086529
-4030.315638
-1514.084665
-8756.478451
-1989.227747
-6947.517302
-5921.040636
-11027.301185
-46.342437
-9911.903698
-10111.893970
-10362.967044
-4767.315246
-4673.863462
-10825.216877
-2664.606498
-2274.847454
-2103.442962
-9613.914419
-4124.412444
-6074.816391
-8662.651709
-8283.565122
-7280.249034
-9061.051271
-6817.278858
-5571.973524
-11196.254067
-11074.461741
-6687.157066
-2859.370602
-1041.415786
-4221.174358
-4947.627798
-4951.786193
-5145.076159
-8902.495760
-2642.444178
-7041.778949
-285.297615
-984.408214
-45.376880
-9059.691961
-8428.119002
-2452.714711
-7374.261174
-8573.824022
-1434.296693
-6513.773486
-3055.062845
-6493.976549
-5827.277930
-1329.153260
-7146.605632
-568.800090
-6574.811252
-6709.146175
-1431.789526
-6467.978504
-4954.591194
-281.461278
-1717.371841
-2880.420856
-4670.946287
-8937.709061
-3104.304537
-45.950910
-46.409397
-10467.675999
-10672.643272
-9184.394193
-1233.342546
-2478.218318
-1332.512681
-3131.333784
-48.170373
-1228.832769
-9118.500323
-473.765481
-283.236502
-7106.916781
-10624.447380
-3052.969386
-7469.443281
-8426.441906
-1719.197282
-1990.956370
-10959.207148
-1336.527162
-8411.109851
-4100.253746
-2878.391093
-562.963196
-1969.017755
-6705.190285
-8759.610601
-8958.722311
-3316.469736
-9017.420688
-3678.269653
-10746.238357
-9005.609392
-11000.172246
-8822.400682
-9051.902616
-6564.736165
-6780.726991
-8559.446740
-6200.603792
-9127.821773
-2462.985249
-9101.816049
-5388.281766
-663.154337
-1138.021188
-6917.915645
-5715.900323
-9150.632100
-1337.363830
-3120.152260
-9379.490198
-8623.859868
-2455.994181
-9117.781360
-10285.103341
-4954.633574
-8473.076179
-5943.570059
-8703.999279
-9618.433760
-10492.377439
-378.490108
-8747.000996
-10751.074218
-2551.439928
-7821.002149
-1528.037164
-8778.695567
-1240.457648
-4974.596151
-8692.359044
-8949.492036
-3050.831066
-11006.391090
-5692.071948
-1139.769486
-1047.831773
-664.497584
-1803.838546
-3044.713679
-9789.865929
-10440.136516
-9404.228276
-7558.291974
-8583.194617
-5567.201303
-6026.232181
-11237.561901
-6327.202850
-1332.000427
-2643.832953
-949.303939
-7504.748583
-1143.219357
-6821.379562
-664.152988
-5040.759381
-6864.002504
-8048.791235
-570.267331
-4582.918551
-2745.456773
-3852.253464
-5503.268344
-1594.056280
-5564.091912
-2669.540619
-2287.000904
-8845.392871
-1647.109042
-4375.102456
-7611.788608
-4015.069482
-9820.927917
-6249.412255
-10794.177582
-3024.899040
-7810.155024
-6073.510067
-8504.618230
-4041.515015
-48.171185
-9578.026299
-9428.963529
-10059.640546
-4687.536084
-1433.726653
-2081.180224
-9544.544201
-48.006549
-2199.166774
-10027.558787
-10317.125027
-6148.048225
-10720.401054
-2495.609851
-3461.328333
-3483.335765
-8634.982444
-757.144718
-8199.219965
-1811.082928
-953.522105
-5797.346062
-4797.360368
-7907.313675
-855.314706
-946.207855
-1514.946574
-7602.201177
-8988.538482
-5925.677591
-951.635287
-5029.100492
-2094.500844
-5995.760609
-3303.550425
-5349.065988
-8314.381547
-1237.630699
-9506.376401
-9880.631598
-8014.634497
-10263.043168
-4506.866995
-6823.547396
-2759.097561
-1430.939406
-1335.239650
-10664.625670
-661.102568
-4345.652163
-1808.905193
-3110.044707
-1048.066861
-3423.132122
-4586.081073
-10670.667384
-7187.568881
-757.804753
-3119.296528
-9803.442339
-3589.824970
-665.555006
-1803.892191
-6930.922187
-10984.235101
-2199.415826
-1240.425524
-3311.052769
-10969.873398
-3467.038498
-3205.574876
-9697.404537
-2491.207840
-3126.704046
-2100.933855
-8888.986531
-3619.163535
-6765.538218
-3269.205677
-1237.762106
-48.139768
-6292.637158
-3463.827765
-4262.180168
-9106.325834
-1524.728911
-1041.626585
-5321.371731
-8810.266835
-7187.711990
-2079.795060
-3109.056145
-569.712506
-10962.698834
-4421.394352
-8092.532524
-1796.149129
-8422.281135
-6688.488780
-7100.565423
-3114.408335
-945.583855
-2479.737399
-2919.880761
-945.139280
-1802.074734
-4706.736689
-4432.891457
-8207.799086
-3847.046187
-10851.489593
-1041.381767
-10688.839239
-4395.108387
-3054.485958
-2857.421918
-9870.495804
-1145.564806
-3920.395825
-2384.555491
-663.807296
-2480.993992
-8528.929081
-2964.877403
-2760.916230
-8643.285223
-3538.138388
-4577.490863
-9720.454002
-945.119783
-9999.983277
-2568.270819
-9702.591551
-2189.678774
-4711.144745
-6080.376234
-664.810481
-4582.140944
-3858.159098
-9369.467812
-4717.732149
-3069.737780
-2861.286523
-3525.693186
-3241.808527
-3235.025120
-4282.423650
-8568.721654
-2764.592584
-1040.254933
-5298.612862
-5255.747249
-3461.358863
-2829.452574
-2482.576120
-1518.257594
-3367.613780
-2576.325128
-4346.930914
-664.308999
-2398.846323
-2184.954997
-7100.195565
-7395.685992
-8393.880513
-3674.348524
-2472.121927
-2206.033804
-4762.331010
-3735.928139
-4777.016883
-2004.497474
-1530.657257
-5233.871323
-5445.271709
-5156.628619
-3725.109642
-3265.987371
-8395.661114
-7300.530064
-5214.768768
-2971.940844
-2085.225483
-7489.316070
-2366.352829
-2392.949762
-9209.803536
-4642.490651
-949.190496
-9890.612366
-4073.033611
-3697.800045
-7784.281775
-4678.949938
-4913.011344
-9542.439561
-1810.236013
-4860.581161
-9203.693009
-3607.444285
-1808.066491
-1615.229946
-7813.713843
-6095.746689
-8473.077047
-2389.392125
-1329.818495
-1723.202119
-2579.302686
-2388.245083
-3502.529101
-2009.031838
-5108.562519
-7414.203762
-4665.973298
-7762.497109
-9102.688366
-6706.134456
-4464.332999
-10096.227192
-6981.218442
-8814.970717
-1906.369075
-1517.573099
-1618.974044
-6046.999659
-2460.245286
-1136.543130
-10060.863846
-10710.886256
-6221.889200
-7546.057042
-4552.317442
-7273.476661
-7605.875674
-6717.023915
-6402.146661
-1914.739117
-1704.418004
-1703.076398
-7466.687426
-1229.035362
-6124.973933
-2359.303988
-3205.575873
-1145.662482
-1145.092793
-1042.806454
-3762.039819
-8824.860848
-6236.132227
-1138.739903
-6087.070664
-4783.624554
-5323.605021
-8786.358497
-7987.524699
-10481.877620
-10254.442558
-7169.090229
-7152.902022
-1609.277521
-7323.151010
-5042.790050
-8406.508500
-8320.747854
-2369.870322
-7364.667728
-5848.356907
-6891.277137
-6621.755870
-950.107176
-1719.138934
-1718.523544
-856.829944
-7815.438306
-6330.468483
-6431.803320
-7762.531037
-1616.658545
-5252.054834
-5421.968666
-661.799329
-377.615159
-8455.499495
-4882.776594
-7858.926926
-473.841885
-664.330387
-374.784258
-6523.956482
-6539.963509
-6890.392613
-1042.449405
-7333.143479
-8917.815236
-1417.737714
-7798.761333
-7238.792158
-2746.149626
-6023.828700
-1524.722080
-2554.019086
-7138.237351
-6325.167327
-7373.712993
-473.269212
-7216.865980
-4976.882505
-7480.725518
-6803.474789
-473.710499
-8425.707726
-2557.860212
-1041.965956
-1326.859373
-2640.040063
-5708.324800
-1517.981997
-3204.763299
-3293.938080
-1702.747825
-1427.808814
-8997.121905
-2081.181492
-6852.809767
-9397.636917
-7290.103951
-5923.454841
-6604.605053
-854.055028
-4675.942212
-3026.022502
-6022.968079
-9078.684111
-10017.115359
-8712.890388
-855.080977
-2077.373949
-9277.280598
-3300.199311
-10154.822168
-284.061566
-283.393140
-4909.616772
-1987.076906
-10931.504994
-9700.084018
-945.145499
-759.793605
-6874.896290
-8309.563388
-6546.604775
-7218.470286
-10331.452091
-8438.819869
-10624.817387
-7675.135413
-5662.966025
-5599.323754
-10978.049762
-6020.994580
-4669.114791
-8923.631557
-7305.032462
-7379.166443
-2588.172695
-6069.276473
-7611.169636
-4215.213539
-7385.891241
-10764.388198
-1335.248863
-852.530236
-6676.719516
-10672.172121
-1806.660401
-7838.524134
-9353.102297
-2195.280780
-9540.076385
-4786.262232
-3462.661799
-7568.771383
-7545.848125
-8732.867255
-7708.883311
-7462.941431
-8775.562844
-570.294065
-10685.357397
-9937.773828
-9124.375772
-6696.954931
-6151.217168
-757.361105
-5856.122219
-8775.202369
-7015.077582
-6814.883321
-8337.185077
-5238.886766
-10697.567878
-5955.533702
-1894.669411
-10049.376655
-4482.121944
-1620.040333
-2085.205202
-9913.430981
-2267.641711
-1237.753091
-8424.630749
-663.276620
-9505.044250
-7458.839537
-9789.863743
-10100.587437
-3363.561635
-7479.550571
-10596.391520
-6905.619465
-9431.567431
-9924.082309
-10161.690146
-1139.339759
-10332.156374
-9561.234113
-570.399676
-9773.863986
-1207.867121
-4781.893497
-8702.895439
-3682.435310
-10964.626518
-6222.634605
-3760.321553
-9385.104302
-5948.870793
-1811.326711
-6693.221878
-3562.952642
-6090.790600
-6998.021209
-1047.847306
-5943.496851
-10922.736053
-6677.422192
-6681.888288
-2590.475504
-1818.733039
-1623.482358
-4249.895477
-10691.926931
-2649.187298
-566.692332
-6305.428860
-10344.343973
-1418.431435
-8680.116077
-10239.205465
-8270.534955
-9917.652492
-10891.650985
-9788.741697
-8906.963947
-8273.372058
-3954.653210
-381.668268
-1521.035592
-7762.344713
-8468.318084
-7888.817649
-666.224955
-9069.550716
-9277.724346
-9679.446630
-9665.419958
-8551.838435
-1991.880065
-1236.737907
-10433.928812
-9473.749208
-6523.718108
-10298.441352
-2766.384262
-9221.595129
-4971.411150
-10321.423098
-9077.411902
-1892.953757
-7530.658610
-1234.350013
-8798.614861
-8963.708568
-4495.853311
-9395.205720
-6087.072869
-9837.449536
-8795.555080
-282.540335
-8994.367995
-6126.082061
-7284.204296
-8854.683764
-6723.288899
-10494.848353
-4291.989000
-5237.766964
-6494.540070
-7219.977677
-9403.687265
-566.516524
-9644.885236
-856.967647
-2080.233022
-3482.633195
-5120.912273
-4588.936761
-6073.510965
-1422.209273
-1328.667911
-8862.274774
-1136.168550
-9568.794860
-2294.854824
-5987.303962
-4229.135328
-10653.096604
-661.658115
-9377.608806
-8498.206452
-1422.311476
-2136.475767
-10427.909093
-6015.504187
-2101.762547
-6090.543630
-9373.330273
-948.874980
-3497.891057
-7804.059019
-5750.595427
-2579.302606
-1899.501891
-9364.289672
-1333.065686
-1143.829946
-661.326928
-857.424066
-1044.237699
-6322.387840
-6619.242144
-6605.159511
-2090.492316
-757.476758
-1523.554096
-1237.191976
-1421.113266
-5384.667631
-8589.469101
-5246.527838
-2276.147793
-2587.867566
-8874.959149
-10156.766115
-9650.304629
-8908.279633
-10680.933085
-7074.067726
-9017.420400
-1819.162746
-3027.806798
-2674.607780
-6612.614951
-4553.247919
-9825.466622
-6181.422159
-473.144272
-2482.330924
-8778.825234
-10738.296770
-10394.212457
-5990.734168
-10976.281788
-10696.154623
-7018.520509
-7570.422095
-3348.954327
-7490.096484
-6530.353249
-9969.150982
-8591.651238
-946.798666
-9219.151835
-9020.216264
-9120.314751
-852.201998
-8847.983844
-7175.698497
-4883.087717
-6060.843992
-5243.879806
-9311.530158
-5852.427419
-8759.451398
-1624.825861
-5758.496149
-7589.140474
-8412.914601
-3980.134203
-2006.953813
-7682.400121
-7635.913673
-4979.512802
-7727.259512
-6438.038071
-7723.803769
-3713.192562
-854.330232
-9403.264862
-5896.055661
-3404.928157
-2832.398299
-5873.716295
-8866.622721
-10468.811481
-2267.341257
-9070.201677
-4524.715576
-8218.744370
-7636.220333
-6469.565858
-7096.442937
-6535.379518
-6331.788429
-8570.172949
-10454.909365
-5496.903562
-9995.705876
-6963.026335
-6869.561196
-6581.461999
-7910.881368
-5476.085425
-7788.684014
-10134.018623
-8369.008296
-6420.121489
-5897.778990
-5981.921964
-1330.639798
-7229.609053
-7140.646856
-7221.245068
-4566.468103
-5724.575146
-8624.722658
-6722.226203
-9717.256235
-8024.212025
-6034.687012
-5953.145008
-6180.572611
-6847.195629
-6569.517171
-7553.308446
-6620.262376
-6720.379274
-9700.079515
-3481.574163
-10096.682306
-3021.300792
-9589.387146
-2922.734772
-7397.824074
-3497.060967
-9549.090180
-7192.825942
-7910.881320
-8820.706870
-8383.745776
-9155.839442
-6712.053571
-7706.926754
-282.821951
-6659.367723
-7004.145901
-8566.796878
-5314.766344
-7229.610219
-7727.414476
-10856.099962
-6090.141113
-6718.827954
-10532.611247
-568.324512
-7088.939275
-3225.298568
-950.978890
-8999.731759
-1417.851224
-3485.409619
-567.639275
-9579.746395
-6175.869133
-5392.596510
-10987.449454
-7326.930716
-952.957504
-10442.449021
-3334.368556
-6623.004942
-9876.648377
-1996.824592
-9816.419520
-10753.531414
-5890.982200
-11016.881402
-7633.569924
-1333.500823
-9107.510667
-9610.022297
-9015.410558
-3610.378332
-8611.006395
-8087.869840
-2098.947377
-10417.056499
-9973.129460
-7881.720352
-6090.792322
-8600.621265
-4221.419031
-6084.923990
-9407.674368
-5231.557095
-6656.830924
-9669.367430
-1231.440603
-2744.453214
-756.745981
-10526.374681
-7696.534824
-6911.098487
-9565.074184
-9831.873110
-3225.045245
-7968.412680
-9594.980539
-9148.116872
-8600.621521
-1626.728102
-8601.632734
-9023.191580
-4041.213311
-5780.571358
-851.486214
-10096.312846
-4768.706625
-472.180311
-286.631727
-7105.468209
-7044.768763
-3568.399016
-2005.364254
-6766.756669
-9317.415047
-6615.519680
-10878.227636
-853.271000
-6079.377384
-6169.993292
-2922.752611
-9385.008378
-2470.560806
-3145.449869
-10580.379591
-1265.831636
-46.981804
-5557.933911
-10463.483562
-2972.403504
-3619.879897
-8840.311119
-3225.041914
-2479.621756
-8863.341328
-9760.549722
-10305.988982
-6994.321652
-8789.101518
-1329.153776
-377.807606
-5788.647155
-9125.206262
-4016.598846
-9569.450168
-7783.080793
-10488.753136
-285.184992
-9648.735808
-9044.249092
-3894.517428
-9747.051123
-9022.447952
-3754.736640
-7756.736541
-3400.402185
-2265.238356
-9193.693936
-3847.717086
-7295.347482
-9012.345623
-8641.092737
-9019.682683
-3201.922341
-7794.307621
-9509.022686
-7828.157734
-2650.740520
-3106.808897
-661.752397
-10039.329319
-2183.100646
-9403.264283
-4870.775117
-9138.308201
-4912.536940
-5249.878588
-9468.944420
-1519.821873
-1514.320415
-9017.912313
-10535.682956
-10433.928568
-7367.391466
-3052.473941
-6586.646724
-1704.500403
-1606.490050
-7665.255981
-2925.680363
-8989.321851
-475.104998
-9986.560673
-851.767705
-9358.565105
-2359.001804
-8256.379832
-7467.910219
-7146.991585
-6719.545502
-6709.256068
-6322.153878
-378.400421
-7291.564183
-8011.881730
-1337.919381
-9297.438765
-8482.857663
-4080.861650
-7488.997964
-1524.336557
-661.203524
-4955.797399
-2109.267062
-472.983278
-10335.000824
-3338.752799
-3855.829676
-10793.342984
-10229.430650
-5712.122324
-5249.875542
-7332.021497
-5901.953708
-951.401239
-9388.729960
-850.613028
-1799.234312
-10479.293071
-4675.834036
-569.408531
-6300.897698
-10415.175796
-1518.950016
-5723.478287
-761.211236
-9673.067893
-9773.863685
-1143.519400
-951.145546
-4519.645815
-9646.140288
-5264.378009
-3790.909351
-1432.331583
-3404.135901
-2591.115902
-3428.116643
-3784.275000
-47.017022
-3235.022796
-3976.619881
-1333.024474
-7284.181014
-10730.481549
-3300.119260
-4330.215496
-10285.449664
-3525.007677
-4567.945762
-5108.098224
-8768.216195
-3367.095153
-2922.623079
-6322.093627
-6705.827818
-6044.262386
-5908.853210
-566.404701
-1336.623358
-952.732871
-4402.984367
-8964.328140
-1810.238453
-9469.892621
-4499.337580
-9007.907537
-10505.626368
-4055.350973
-7462.582169
-8853.233809
-2205.280665
-4392.443507
-4502.603024
-1039.765297
-3727.938997
-2863.163079
-4595.466069
-8983.277247
-2555.221891
-2664.535538
-3149.338701
-2749.704900
-2472.414642
-10299.631504
-2786.849808
-2285.756564
-10166.848889
-3840.404483
-9903.417333
-10677.307508
-2470.948784
-2280.676749
-2183.787601
-1039.738165
-4972.092037
-2374.634540
-1805.520716
-8703.999645
-1615.997442
-9523.897157
-8822.919925
-2090.994628
-4885.177226
-2671.135101
-2673.025374
-7390.666345
-7271.643326
-8949.493154
-5227.389237
-5240.257893
-4816.897796
-2866.766603
-2769.837245
-1797.988494
-2365.364801
-7806.256870
-8775.097890
-3987.256593
-4862.605908
-9285.052214
-2973.308557
-2194.221063
-3513.886680
-4764.212762
-3230.007964
-3991.518278
-9721.420667
-9199.514385
-1801.442323
-2642.807397
-3248.520383
-7704.002517
-1620.672144
-7638.953771
-7223.054593
-759.273879
-4676.065068
-9312.683214
-7261.698348
-1514.315260
-2740.074713
-3018.183236
-3022.760231
-948.559059
-1238.143733
-4049.165064
-6123.153272
-6225.542239
-5129.250519
-8081.003101
-662.740321
-1241.944901
-566.605717
-7891.134740
-7360.051703
-1606.937671
-2826.550820
-5488.847653
-2078.367751
-1796.633911
-5521.398617
-2458.953530
-5331.322688
-5304.972641
-471.964437
-567.642081
-3777.907083
-3497.067902
-8692.387082
-1516.371787
-2736.607950
-6287.144054
-1529.236787
-1042.440682
-286.827935
-1984.002529
-4932.787656
-3198.543667
-1229.516881
-6068.948411
-7937.038872
-7346.358304
-10504.680973
-3680.755674
-2361.330285
-1040.261318
-7007.995359
-7035.589262
-4520.433207
-6174.708407
-2651.713619
-7110.597911
-1047.048127
-2173.496900
-1891.664927
-760.116457
-5207.558034
-2083.376920
-6296.579141
-6392.749446
-7688.419864
-854.761550
-1987.722855
-10438.622154
-9960.373432
-2399.300877
-45.681880
-3480.099467
-6818.767277
-662.688208
-950.720125
-2109.298405
-3434.055483
-1800.004957
-9645.499759
-1232.369624
-8024.003251
-8818.281223
-9735.821695
-10694.221664
-10913.463421
-6160.557214
-1336.794028
-1046.093549
-8122.392550
-5352.078328
-6580.923059
-7214.803518
-10407.109338
-9042.089066
-9664.463044
-9354.158221
-5808.650025
-5938.915868
-9224.681431
-10835.743000
-10259.896722
-7183.287386
-285.913574
-6697.268531
-9404.308748
-10463.483927
-8647.019962
-10168.514423
-5485.237615
-4420.112734
-6363.486129
-6278.071801
-9224.954627
-850.521061
-7376.982621
-7223.055775
-6174.707700
-4120.691484
-2082.110231
-8939.806519
-47.021251
-9739.804399
-8672.196873
-4304.788981
-8504.294413
-2399.630931
-7592.288616
-10650.666810
-10037.264245
-6596.911982
-3329.141764
-3336.938381
-8924.003575
-2006.252070
-5492.891567
-3046.228708
-1613.871303
-10370.005988
-9396.012761
-11083.697370
-8544.617421
-6553.553485
-9807.480403
-4931.387232
-5120.721178
-1702.486874
-8926.944680
-1241.159904
-1135.665137
-2366.382519
-4057.952442
-9725.259473
-7129.442334
-1606.431631
-1336.809664
-4983.084579
-3203.984264
-8803.487831
-8001.093073
-3713.942742
-8483.015249
-8329.548386
-9121.982607
-10350.228391
-10401.972348
-5304.414207
-9223.276132
-3607.621231
-9146.311468
-10707.204125
-9342.909816
-6191.535413
-946.996448
-856.036023
-1040.383714
-4645.543678
-1608.792273
-570.515018
-1136.789566
-10468.148017
-8218.744166
-1327.057718
-9252.022776
-8957.222475
-6714.548396
-4408.865767
-10346.004725
-10504.681016
-7643.680086
-2868.482404
-4935.557872
-5108.657637
-6150.516249
-10347.019022
-10787.094454
-3311.799053
-1526.083709
-10931.187117
-6474.128749
-10330.783683
-8503.111659
-2082.552140
-4425.222036
-2786.456288
-10134.018032
-2090.994944
-7359.155408
-7453.729057
-9453.790835
-7306.322738
-3846.303712
-9499.350437
-2834.739080
-6181.422880
-664.689624
-2370.342271
-10065.558567
-10039.945357
-6895.719222
-7438.348700
-8415.863684
-9980.645656
-9822.495058
-11061.222586
-3305.444744
-1237.181877
-2641.075855
-5616.353372
-10931.326823
-7153.173115
-9709.361477
-4402.523282
-2012.397847
-2012.120378
-2495.724413
-2458.213285
-3536.695342
-3345.737258
-567.232209
-6862.024462
-5393.162304
-1433.646120
-10248.541142
-8421.480210
-2483.929296
-3639.506924
-4716.368652
-3707.028575
-8009.730394
-5072.410724
-1609.947109
-7270.919714
-7213.411209
-9941.274902
-2271.457149
-7316.408965
-6601.445713
-6580.922963
-4249.552070
-3664.279371
-2006.178219
-6288.840184
-9504.746603
-10637.192501
-2284.253149
-10011.112039
-10159.926737
-662.857897
-4982.266962
-759.467559
-2265.104011
-331.196185
-2173.477892
-3846.542035
-2361.789264
-1623.380496
-3803.851372
-6595.483145
-4405.399572
-6834.608808
-6657.591460
-2397.063322
-8388.776309
-7778.601126
-7352.243778
-9706.486060
-8671.591600
-7373.712503
-6395.830183
-4592.055150
-1240.176873
-10274.215044
-10794.911358
-7020.125319
-5576.400207
-5538.873556
-2269.739837
-1137.203760
-10666.433320
-5711.533040
-6287.143598
-4672.635046
-4080.333377
-6846.549290
-7264.673707
-7376.178927
-8136.537461
-6719.169991
-8388.778015
-7021.218068
-5576.094151
-8919.174938
-7838.003020
-853.060572
-7566.271473
-5383.764645
-5624.692207
-5891.287527
-6363.138270
-6474.129021
-5803.565713
-5859.078794
-6819.830832
-6186.100537
-6706.965141
-7192.856695
-1432.985833
-1818.401434
-1140.616801
-7335.238771
-7222.643018
-8396.385958
-8992.854832
-8519.107677
-4791.543420
-5801.403891
-4640.648583
-6169.992412
-7126.612284
-9874.738237
-9914.716188
-3140.553145
-7778.816599
-1233.495204
-4765.472676
-1241.691165
-10092.728976
-758.451832
-10850.029743
-2920.258100
-7675.915405
-9440.681953
-2380.448962
-8782.519255
-1818.024883
-1040.050382
-4502.981877
-1043.921138
-7316.407613
-9150.635669
-6041.831398
-8478.843490
-6095.023072
-2859.117366
-7671.824452
-3138.431104
-6222.448204
-7649.175653
-1512.657750
-9397.637526
-4508.566143
-1240.452295
-1428.848949
-6056.328461
-10879.231333
-4308.574918
-10027.557015
-10166.817115
-220.469548
-6927.054958
-6822.408729
-10784.393259
-5104.927951
-5668.076311
-8644.865226
-6611.097483
-2583.369529
-10053.678828
-8782.629258
-1041.609234
-6683.152129
-2285.756049
-1995.200492
-2100.860711
-756.398351
-7341.902084
-8297.869577
-7823.340103
-9483.257858
-7698.609218
-9263.052051
-3133.810788
-7232.266767
-8283.479420
-8777.005899
-10417.774379
-10191.079471
-4124.600700
-3686.087251
-6634.128362
-2397.161921
-2647.707756
-10468.812084
-8952.918117
-9305.342889
-282.516134
-9757.130194
-953.160344
-567.895576
-1609.196637
-9031.754740
-1619.678821
-3362.301929
-1419.595609
-3726.285686
-10889.302136
-10205.843219
-10338.040210
-6670.264779
-9182.486399
-5854.937691
-6225.160949
-10525.658081
-10977.336107
-2495.960302
-11016.883337
-6941.879295
-10601.978117
-10716.622461
-4816.520826
-10769.505388
-10359.186604
-6092.157374
-3535.633269
-10572.620021
-2640.221702
-1721.640435
-3129.001197
-9880.014957
-1143.083468
-6168.514536
-3880.545686
-9713.686467
-4050.975152
-6596.520440
-3880.343915
-7215.058720
-664.826568
-10604.098273
-3801.093560
-10429.318859
-3844.872889
-6236.133108
-10027.333129
-10272.049812
-9768.608270
-2396.557853
-6196.083100
-569.786562
-2487.225499
-3123.110218
-9416.606342
-3239.483722
-5109.842390
-6805.515814
-4441.908414
-3129.391079
-7629.671142
-10094.188176
-3344.345441
-378.030742
-2669.726209
-10467.675165
-7296.274617
-3252.703362
-5448.478211
-3563.531196
-5252.674334
-10000.360904
-3855.793161
-1723.060363
-8521.910516
-949.577666
-852.385948
-2667.916297
-2667.915788
-10029.804251
-6196.121732
-947.345243
-7081.602280
-2372.444544
-1230.631501
-4792.589262
-1994.806671
-2185.627060
-3147.727638
-2283.225166
-2206.141917
-2675.684557
-2462.988497
-4207.624310
-4781.703327
-2377.861998
-2495.724685
-5544.997015
-10819.716385
-2870.132910
-5754.550108
-9661.575966
-5560.460901
-8544.264212
-8715.579216
-2285.590958
-8337.187155
-7629.808041
-9049.767106
-5374.060675
-5104.231040
-2206.177964
-2558.450660
-1706.333065
-5627.545288
-1145.306301
-662.752120
-758.661107
-1241.872857
-1097.850966
-1892.408450
-6014.140646
-9862.832314
-2457.763128
-9847.596050
-5246.176579
-3298.317251
-3768.158299
-1144.684756
-1045.388086
-1043.608551
-4679.507902
-10006.788547
-1138.028364
-5422.934994
-6560.681077
-6199.626833
-756.566857
-1889.113982
-7584.820179
-5336.617985
-9697.716442
-8325.303518
-4601.530389
-4792.587939
-1525.523292
-570.410644
-570.447930
-379.193816
-3214.375525
-6374.211379
-665.668546
-6016.128925
-9481.159138
-6923.815005
-1334.781054
-1335.988671
-1721.222255
-1817.722137
-1612.931331
-7478.402499
-6905.618416
-4421.391297
-10470.074177
-5345.781827
-5531.330316
-1241.658302
-6324.972185
-6095.139244
-4140.779209
-1337.066707
-5389.367956
-5676.147965
-6483.286381
-2269.031013
-1337.359588
-7371.522409
-7119.089386
-1240.946884
-3147.191452
-2669.540062
-329.330894
-7123.096832
-3756.095726
-665.172049
-3931.829712
-2205.912404
-8480.102279
-10363.255165
-9710.895988
-10842.239908
-10299.987822
-854.745210
-6702.100424
-11084.861814
-7096.402041
-10496.348488
-3296.483085
-7232.267789
-9507.886403
-6472.031817
-6023.345953
-2775.414003
-3198.956222
-2922.931911
-6572.826838
-10598.083340
-2080.323220
-852.147372
-9410.532177
-10263.384575
-3013.245974
-10984.878624
-6186.099952
-662.638160
-1804.814023
-9297.512097
-5435.713413
-5431.921886
-10758.044448
-6591.888147
-8258.792122
-10642.952300
-8768.107943
-4558.176514
-5704.812199
-1526.336702
-7339.690219
-7138.238203
-9468.940241
-1143.219171
-3860.175799
-3858.392441
-7380.464805
-2552.915762
-2846.000667
-10332.157965
-6287.402253
-10989.484674
-1333.522693
-7359.383745
-8308.076104
-9554.189937
-10645.473060
-10454.909950
-3900.827307
-284.057452
-9301.517407
-3849.405924
-662.804965
-6342.415833
-9935.319799
-9917.837442
-8376.737996
-8854.067832
-9520.341648
-6822.680130
-3016.065903
-10608.228919
-10017.413635
-1626.962679
-9638.504120
-950.097202
-1326.880671
-1984.874856
-7883.215315
-4603.020798
-3850.875652
-7867.948811
-5036.413522
-7195.586012
-10803.677872
-3142.788454
-3901.632454
-3797.694032
-8607.492008
-10669.274272
-4599.617288
-9810.886204
-2011.385643
-4399.764399
-10710.408997
-4592.055822
-11041.724884
-9918.482558
-8491.188451
-10918.912530
-9605.284899
-567.956650
-10510.865718
-4878.182447
-7323.149715
-855.182652
-2737.264336
-4490.003765
-10440.137071
-5073.051912
-10597.130070
-8331.431252
-9922.830618
-9061.795018
-9213.998402
-3568.581365
-10079.627162
-1421.104947
-1796.968526
-7603.978888
-6406.427134
-7248.808595
-1419.527528
-2919.606275
-6133.371049
-8486.706984
-756.938879
-6590.359294
-4716.365399
-7631.221197
-9503.911325
-6608.940631
-9173.612368
-2483.627083
-9636.117221
-474.283998
-9793.953995
-9857.097559
-6548.547890
-8352.715453
-7263.361164
-5644.950447
-5034.368429
-275.893427
-664.962981
-7930.489378
-9196.036805
-7881.673433
-9044.035092
-3019.999814
-9833.466860
-1231.183992
-9541.533992
-6364.692795
-9096.722356
-10669.257756
-6297.321615
-6608.051502
-7181.966312
-7688.271388
-10296.238341
-6489.711669
-6385.005244
-6927.668023
-7056.630432
-6954.557008
-5882.395221
-9600.117845
-7199.386059
-7302.543856
-7998.297861
-7138.310001
-5658.327863
-6095.138607
-1042.169739
-7068.390366
-7508.812972
-6155.175234
-1528.839023
-8069.986776
-7882.173113
-10330.783696
-4589.545428
-3073.266547
-1432.680459
-2205.710519
-8910.916513
-2834.727103
-8579.088915
-6163.802380
-6591.977782
-5066.561096
-759.441046
-3328.859235
-4412.406658
-4654.498025
-6501.715699
-4972.668158
-4779.301568
-9520.508666
-10921.542525
-48.156948
-756.561484
-2204.428390
-9022.169643
-7366.479057
-757.949922
-5151.560389
-10628.400298
-10275.736236
-9864.072518
-219.316553
-10594.930729
-10108.685529
-380.220339
-6710.561044
-6090.544341
-2383.257308
-2872.466614
-10039.946717
-2767.761534
-4577.489937
-2643.862265
-5062.267410
-10995.357984
-10264.359722
-1607.571825
-9320.868857
-2747.017293
-10113.368316
-5060.895462
-7973.954714
-6175.868336
-7420.706822
-6140.512105
-7878.690267
-2376.094138
-755.963970
-7295.553668
-9505.038295
-1046.750977
-4679.005798
-6301.036895
-2184.956284
-10026.925833
-4265.950519
-7497.758323
-4881.627262
-1714.197343
-284.848483
-7159.944612
-9388.727433
-569.056900
-1699.277991
-3800.601930
-1794.956012
-851.260718
-9357.650484
-2362.258370
-8444.693570
-1705.066241
-3207.372067
-9844.734545
-8929.460545
-10697.011004
-10683.348927
-7572.770510
-8494.586872
-8958.529271
-5548.118881
-4139.218743
-2495.931443
-5464.790272
-10879.231131
-8974.134909
-9757.660022
-3495.486097
-4721.344792
-2373.183842
-1233.920931
-5415.503656
-2080.968924
-8348.362219
-1721.168589
-7376.127827
-8358.995601
-4140.773147
-3292.916779
-1042.603335
-951.271935
-7135.814677
-10365.770146
-1722.014919
-2762.632530
-2496.055947
-10362.967610
-1611.446683
-7135.815687
-850.496692
-568.387862
-10016.201267
-9809.376532
-8556.543429
-9899.432215
-4400.849366
-1040.730198
-3650.979210
-7076.204176
-8923.172256
-8432.893250
-3018.845966
-1806.371158
-4245.490693
-2088.643052
-2202.648545
-9692.240605
-3264.682597
-10164.355167
-3497.897387
-7090.160018
-9220.547160
-4084.091416
-3956.028571
-1530.638424
-1046.137232
-8322.608047
-2470.561303
-2958.113153
-7401.852636
-2573.106825
-4675.835380
-852.110036
-7296.312898
-7209.899444
-2571.570249
-8964.690093
-1995.200032
-9220.218059
-1900.203336
-3244.759402
-2091.515765
-2550.301483
-7084.121958
-7332.760265
-1140.608855
-2736.274993
-8251.404964
-2454.028740
-9236.206393
-2678.467156
-9494.554524
-1626.923467
-3801.097169
-7294.916091
-661.272013
-10890.817695
-2268.439115
-6901.609841
-4922.040507
-1703.997651
-7383.433381
-3111.153935
-3303.553044
-1136.167705
-1143.932073
-857.090963
-2265.085464
-4947.331888
-3202.907185
-1612.181092
-5972.974262
-2078.274121
-1419.932275
-377.203442
-7364.665315
-569.825896
-570.132596
-282.903160
-8033.163726
-566.977872
-3849.399260
-3940.866065
-5961.223235
-7383.441936
-4330.215810
-6599.919206
-946.158590
-8547.202718
-5657.196069
-3398.308360
-7740.034490
-8566.801906
-2657.467227
-4069.161652
-8406.760249
-8516.613115
-4875.707338
-5797.346934
-8275.611889
-3302.073478
-10936.091084
-6964.267317
-5733.577039
-10430.696663
-10939.253789
-1703.259230
-1335.972746
-9980.643883
-6321.195014
-7155.077595
-3301.798485
-6374.210761
-9353.447980
-6632.565007
-10983.330702
-1715.315750
-10592.626652
-9062.225854
-3665.872085
-6406.847640
-3939.129140
-10009.328387
-2205.845083
-46.773131
-3649.139132
-379.104426
-4061.602459
-10564.469277
-10567.327629
-6191.536000
-7295.799030
-5906.061549
-3766.466771
-8492.739898
-10793.004996
-10137.952796
-275.741831
-42.544001
-948.882964
-1524.145899
-2668.022079
-9612.658252
-947.177493
-5627.545210
-3296.463805
-9931.367570
-8409.423090
-7937.041643
-9918.965430
-8354.846757
-9459.236812
-10647.173150
-10604.097962
-10015.095465
-7203.340284
-9838.068385
-8535.138211
-2689.637808
-4080.858707
-9437.679297
-3769.125692
-4829.455464
-1890.816926
-1042.441904
-6186.647327
-10014.516548
-6828.386268
-10010.573680
-7874.760371
-9916.809587
-10696.399794
-1986.494135
-10503.843835
-853.040341
-10239.204532
-9951.301048
-8316.546584
-4032.159348
-3972.942501
-7062.870431
-8388.393709
-7289.791819
-3213.324340
-10777.677247
-4533.636014
-5627.523305
-6200.603361
-10245.114777
-3766.475606
-6829.619902
-3425.482252
-7271.642884
-3227.642863
-9234.335661
-9972.574186
-1241.515644
-2577.837140
-3140.551429
-1720.755533
-10952.828908
-2831.835889
-5297.845165
-9904.078452
-759.630581
-1429.843596
-1423.513146
-5323.135097
-7912.791861
-1241.595107
-9381.971832
-4963.095080
-8853.234913
-2845.505689
-4961.087268
-1239.558359
-8611.304342
-7589.158539
-9819.350086
-7241.039802
-5871.056462
-10900.016414
-7065.555208
-5635.091672
-9680.079272
-855.568656
-3838.742775
-10339.045013
-3494.463973
-9518.369581
-9870.688130
-4758.995514
-8472.955657
-4571.119305
-9734.074485
-3272.299750
-378.190333
-8017.360952
-1134.816685
-1801.443955
-4524.212035
-10109.949781
-4525.467736
-852.207211
-7050.637153
-5523.456172
-10647.154228
-10688.226753
-10566.249410
-854.109155
-10503.257766
-1530.584317
-9057.149314
-9601.381705
-5423.461219
-1047.861598
-2079.143394
-3880.552314
-2922.428924
-10065.557801
-8052.846376
-2465.253887
-7188.447209
-9005.073283
-10557.164051
-4266.476044
-8343.136501
-3401.644246
-380.220607
-2646.313835
-3202.064770
-1703.725449
-9903.288947
-9122.859915
-9823.225943
-9749.382259
-2205.602619
-2932.615671
-9802.848845
-2867.871423
-5318.355853
-4035.257113
-4154.187340
-8403.137150
-9019.356412
-4597.307662
-3175.836827
-3023.046891
-6150.053977
-10615.023335
-3883.851533
-2090.421655
-10012.704634
-10304.065193
-8390.351749
-8423.014049
-8124.787650
-10106.432275
-852.674922
-9623.374062
-10328.712102
-8564.305416
-9909.647585
-3579.532087
-1239.188947
-662.619674
-7216.612674
-9911.903485
-760.366637
-10449.151793
-5012.070806
-8957.223632
-945.296207
-285.593476
-4784.093585
-9974.977761
-10011.552428
-10497.962766
-9746.978248
-4062.084273
-4312.328393
-378.120502
-1041.860371
-6200.282991
-6084.923255
-4306.885320
-10976.281615
-663.466787
-4385.747466
-3210.613308
-2577.546806
-1626.924777
-4294.445728
-7455.900865
-5017.330158
-566.348438
-7707.277964
-8400.800061
-4580.230396
-2090.420717
-4543.773550
-3050.421509
-2955.731567
-2657.952128
-7436.052247
-7040.406698
-5067.560559
-1996.824714
-3212.435530
-1802.217582
-8022.444365
-8739.165687
-4337.094437
-1140.234150
-2079.520859
-2109.296816
-5305.130201
-4582.140058
-10662.940794
-3876.902994
-10322.586309
-5108.652303
-6558.594250
-4414.288358
-3759.077770
-8696.465531
-566.845559
-1419.937750
-1889.447534
-1418.989211
-5388.416924
-4032.141666
-6191.285553
-473.152983
-2931.539519
-9140.977850
-1137.358258
-665.752752
-6398.338579
-6074.041167
-5805.433133
-1516.304560
-6113.012437
-7475.017391
-2268.167474
-1135.330424
-1514.440256
-1331.137319
-9996.639065
-6688.433078
-3661.838192
-9594.918213
-8401.853798
-10402.947809
-10888.424739
-9136.429287
-5622.743649
-6439.298800
-8218.034956
-7450.093439
-8921.294662
-9953.448388
-9825.423454
-3027.807078
-7910.133792
-6214.904966
-10567.327790
-473.433688
-10695.193379
-10108.685729
-5036.272542
-10091.657362
-7682.369622
-7447.023819
-10642.721428
-6267.374024
-10502.699470
-2360.367355
-6375.882424
-5518.065310
-9588.756017
-949.843658
-4411.076737
-9999.983711
-8974.704138
-2689.778699
-4242.381020
-11010.136655
-2175.807444
-9595.939717
-11027.303065
-1144.341594
-10111.385825
-1238.451289
-10584.409717
-9805.834982
-8472.919964
-11071.687800
-2268.173871
-9596.210739
-10383.573479
-6586.867213
-1328.146614
-10308.599659
-9793.739644
-7909.690280
-3930.797324
-10149.962356
-10178.735698
-4762.329382
-1897.512380
-3941.039616
-6217.982974
-2399.507023
-7209.900981
-8547.200193
-5952.376270
-2086.341418
-3760.433693
-9626.954745
-9045.079862
-4431.542559
-1330.142417
-661.104432
-2639.802875
-377.872173
-1613.871319
-4626.961850
-2642.511156
-471.912486
-10407.014260
-10210.614446
-10122.867508
-6020.994389
-6204.726665
-1796.690511
-1045.746106
-761.280860
-8636.870109
-3757.733745
-5812.531792
-661.291334
-2650.293186
-10536.804892
-10938.981562
-10909.408638
-1420.516526
-9581.198456
-1818.540999
-5028.880841
-8122.392835
-4940.248593
-10114.913990
-6859.518660
-6246.605607
-7558.963775
-281.957644
-3267.160236
-7887.879505
-8935.768640
-9000.192957
-853.534771
-2375.127151
-10012.704752
-6462.456326
-7651.501720
-2677.609260
-1889.717317
-7657.190921
-7302.545554
-8862.275760
-4237.708090
-2733.383145
-7830.044422
-11163.917550
-9953.236623
-5005.404130
-4937.694694
-9854.896858
-2105.895932
-4685.660701
-2762.767727
-8120.421745
-2830.576159
-10274.219314
-2930.997782
-10614.820045
-945.912742
-2205.509037
-6299.639748
-566.999608
-4362.776356
-2171.395783
-6103.453414
-948.011195
-8476.901342
-3581.458018
-10016.709788
-10161.670171
-8129.613220
-756.242258
-5516.874239
-4420.109555
-6497.453055
-3227.523171
-6682.777173
-8376.881689
-6516.895608
-6906.246193
-10063.668130
-4510.952872
-5114.795509
-8224.368270
-2592.392549
-10107.387362
-568.788328
-10634.110853
-10116.936005
-11122.779281
-3666.007167
-6090.140450
-9979.362847
-2267.967889
-9810.789839
-3669.723502
-6409.528779
-2297.934828
-951.651557
-665.609644
-1135.659058
-8493.265009
-10504.959866
-1046.082399
-3675.939015
-9691.008627
-2298.328346
-376.892511
-2203.900454
-5386.882129
-10189.265854
-8129.006517
-9454.410007
-1326.466171
-10699.692264
-2011.865834
-4456.013067
-2089.817000
-2478.261763
-9396.006082
-6196.121252
-1135.756486
-4920.115708
-9300.802087
-6053.781605
-4491.211576
-6385.005692
-2205.853885
-10192.366207
-1425.575358
-2278.818675
-4867.962654
-4586.089433
-5708.669830
-1137.471801
-7376.533387
-2578.951947
-4689.434889
-1723.347467
-1893.792073
-1897.489537
-9385.110681
-10004.345730
-1722.262163
-5220.836646
-5123.758680
-1513.913081
-3491.013314
-1238.441763
-948.567060
-6150.555327
-1041.395696
-5017.325415
-7726.016786
-6218.459764
-1324.657281
-6352.873182
-286.955932
-2829.636272
-8652.488431
-7297.277666
-378.393213
-1624.803540
-7747.769568
-7284.846826
-6085.620438
-852.853654
-8511.322155
-378.375572
-2648.950521
-1428.381335
-4165.444929
-5934.614199
-9590.476818
-1337.545273
-3753.560175
-9746.743200
-2108.521709
-7199.387805
-6211.880853
-7233.906078
-5036.387266
-10573.410363
-9594.615037
-10000.361355
-6024.417506
-856.441001
-474.443248
-1613.194688
-3109.771629
-1230.187108
-8854.684695
-8363.078483
-1335.539898
-2010.930475
-10349.418844
-10960.747849
-8122.189995
-1142.890367
-3572.329085
-3300.200447
-852.102326
-850.739312
-9402.324096
-10916.015312
-8448.463725
-10015.639964
-8507.460089
-6022.233449
-9908.660903
-8965.997752
-1046.429580
-3425.904526
-6120.972637
-2267.455291
-5620.161242
-6246.359384
-7266.471844
-6117.709408
-1610.186194
-10689.983064
-9986.558863
-6064.486565
-6307.939354
-1234.784521
-4512.337375
-947.558481
-946.149826
-9894.704267
-3877.305261
-8482.861576
-10497.659887
-3640.585084
-8389.964917
-9110.669679
-3174.740954
-8865.309866
-854.547491
-7672.371368
-6019.403472
-5403.451157
-6898.142337
-8414.906680
-2736.174243
-7044.401095
-4345.085601
-10011.299276
-6204.132081
-6211.731134
-2593.339578
-6196.082574
-3738.395668
-9985.364121
-474.287294
-7053.493968
-10100.587833
-4563.081377
-5530.559000
-8151.724961
-1427.220787
-10331.840258
-3756.105780
-1420.937421
-473.314057
-3175.642342
-3662.848824
-3849.914626
-853.004842
-7280.141843
-2590.430631
-10675.985969
-10643.728939
-1325.079067
-3392.888045
-2593.339477
-8379.660748
-10104.277056
-3115.907514
-10013.546892
-3579.727055
-1143.362033
-5230.362800
-758.221430
-1333.512630
-6287.794641
-8896.401404
-7366.263039
-10298.442085
-6041.829391
-6074.043477
-9133.032213
-8538.717301
-3577.571490
-1046.749829
-947.312882
-10306.437120
-1723.243315
-10381.197679
-10003.675695
-2010.680153
-566.332078
-6970.143088
-11027.981818
-9742.006299
-10164.355739
-2109.018093
-5132.652010
-2664.535060
-2649.190551
-7649.674226
-569.200065
-3362.128575
-10390.192299
-10317.126580
-2280.175675
-2399.078263
-4433.775852
-4577.430839
-4773.124958
-3227.526249
-1900.203966
-9183.171834
-8821.278553
-9265.727110
-5034.235433
-1894.672326
-4924.381116
-6111.687853
-1235.220158
-758.579173
-1703.830939
-5380.965581
-8237.870818
-6208.487036
-5130.188057
-1232.371626
-8248.726944
-1334.843344
-1432.543593
-9961.267537
-6501.069725
-4848.321299
-376.883860
-5132.926461
-1334.374901
-853.796084
-6297.530393
-3273.179586
-9596.210065
-10502.699538
-8642.052975
-7223.700140
-8313.291452
-6911.100987
-2204.889789
-10653.783040
-4236.486891
-3943.852995
-5426.915280
-9952.835408
-3272.104620
-9654.813650
-1425.012157
-2684.285980
-9809.656947
-11138.540250
-10088.237173
-4524.717159
-284.195311
-2377.553862
-10106.432534
-11115.423438
-2496.223266
-3292.871514
-8441.747640
-3077.716305
-4345.798505
-5012.384989
-5621.399361
-4762.130919
-9783.975281
-854.972597
-10618.590074
-2659.225814
-7037.785502
-6616.763766
-10079.626927
-5805.192190
-10601.421017
-8311.014575
-10211.735552
-2871.002455
-2492.038636
-10624.817030
-9516.355462
-4775.588399
-3943.890814
-1329.603294
-10103.608627
-2301.282223
-4247.749630
-4242.425854
-11004.718615
-7905.997212
-1426.008059
-8632.312494
-758.100107
-11176.234949
-10223.038359
-378.480084
-10611.622464
-3855.773317
-850.894064
-1229.031154
-3489.586074
-1721.577476
-10096.227640
-4390.032085
-8508.959317
-9246.838206
-5927.148757
-8479.932150
-7203.341832
-10209.106903
-5023.718279
-6153.125531
-6406.647306
-10600.316102
-9494.549002
-6044.260751
-9494.196431
-9675.857655
-947.618858
-9603.977600
-6207.625800
-10738.519552
-11023.256081
-1333.015194
-10726.255475
-567.831782
-4533.659240
-9845.435545
-569.023197
-10274.225116
-8708.355150
-2920.256460
-3078.530253
-10618.642473
-6893.586533
-3311.803259
-9771.774041
-9498.850963
-6210.760609
-567.818726
-10370.006506
-1990.922472
-11259.232174
-9859.250659
-9865.282493
-9765.436609
-4388.363030
-9713.312711
-8590.123595
-8679.473902
-3939.193529
-9306.367569
-5423.460880
-9673.787030
-3760.440831
-5524.996154
-4791.545013
-3668.441801
-9499.879419
-2202.940278
-9809.380129
-4706.093476
-2108.182332
-1324.257256
-7119.302749
-7836.651565
-6099.563512
-1042.191515
-10979.129544
-3940.880372
-8896.393527
-6180.571968
-856.276673
-5155.919906
-2839.091202
-282.098281
-9995.706381
-1723.329909
-6573.104176
-10481.912148
-3876.909566
-4358.988866
-3386.412157
-10602.026195
-945.890547
-10622.784936
-2204.888894
-9558.728405
-3962.430634
-10107.387638
-2739.013452
-2860.950249
-11056.370181
-4142.026200
-10685.177046
-2398.196424
-3052.970508
-2495.931592
-2877.231885
-1329.260145
-1234.782348
-1610.717197
-1520.342355
-1798.234909
-6742.866974
-8803.494613
-5429.685205
-4765.727711
-2742.826133
-2836.351121
-665.347182
-4061.607709
-3121.157136
-851.478176
-1040.496861
-1421.362583
-3308.664650
-5133.818504
-1514.300276
-855.603764
-5298.607255
-761.290222
-6099.399701
-6080.375356
-1142.205431
-3198.340834
-7915.794068
-283.367208
-9741.218697
-3026.022609
-2184.359565
-10515.234689
-2877.544365
-9799.219997
-9974.980032
-10382.489393
-3759.078682
-9677.294876
-2827.358938
-2592.921775
-10635.086154
-1142.564062
-4673.512449
-3691.803245
-2012.380513
-9744.816275
-10012.828631
-8511.255842
-3111.871542
-9995.231159
-8639.503818
-9664.459246
-3773.140477
-3948.731810
-5936.366686
-9365.319979
-9221.245818
-283.259873
-757.957504
-9958.765059
-10147.604072
-3883.841158
-950.885703
-664.476558
-3390.128411
-1702.107643
-566.352756
-4822.612277
-10006.788848
-2736.175372
-8769.978881
-9247.178927
-2827.106989
-8284.607832
-4209.375211
-9996.937621
-3683.364606
-2087.214805
-1896.627270
-1515.807988
-7247.121860
-10732.002009
-10010.573939
-10399.834856
-10012.828831
-8513.064153
-2204.509182
-1799.511401
-3302.069535
-6276.817247
-6797.338596
-2399.311063
-10480.119079
-9137.458390
-2376.492704
-10652.773551
-5150.058797
-8118.862965
-3665.195977
-2203.522785
-1522.333480
-8814.649451
-6201.346544
-10572.619641
-3941.356711
-9777.299625
-10672.538304
-10634.306041
-10114.139417
-8099.473502
-568.000590
-8311.190529
-4683.351417
-10111.494831
-2593.386363
-10576.380254
-6116.991931
-10890.414438
-6103.758375
-9990.616280
-4065.351520
-10100.209014
-6342.600931
-9393.227027
-3691.466043
-3519.909093
-10321.301938
-5945.587990
-3394.785502
-3140.790518
-2108.800544
-6956.254796
-3858.336860
-2842.431188
-10634.306081
-3945.164993
-1723.204095
-8556.539491
-1230.587199
-1723.346986
-9314.365800
-3029.675608
-2302.019931
-1424.137761
-2269.745743
-4443.443999
-8409.534643
-4934.273202
-3973.173461
-6063.220984
-10407.822084
-10175.533122
-2919.773976
-665.793694
-855.928639
-2359.761917
-3825.604252
-1427.793845
-6103.321854
-10864.931243
-1723.134058
-11257.146827
-4669.726839
-9472.937374
-665.732694
-10681.848246
-3573.003040
-9050.387272
-1424.764415
-3569.055730
-2746.151014
-4579.994824
-10187.743464
-8319.496373
-2732.426015
-8418.272959
-11107.618724
-9233.777799
-9910.888950
-10882.834378
-1137.056956
-1239.557858
-1795.860164
-10628.237808
-10384.539795
-11083.231166
-9347.727120
-5963.919877
-10827.508193
-3851.321480
-3201.780039
-2011.524777
-4153.654261
-5333.631391
-1231.609829
-5200.892490
-1228.817074
-2851.458830
-10033.711451
-2465.937062
-4161.538248
-3774.858898
-5387.916639
-8323.778351
-4347.469569
-3071.014676
-7909.774541
-10627.753060
-4533.657472
-10627.753385
-1889.399458
-8405.386079
-7279.376952
-8714.988296
-3778.682823
-2204.907556
-6584.858614
-4583.565814
-8123.475663
-10007.747906
-6310.432481
-6115.539116
-1420.020403
-8354.844755
-569.904312
-4655.832951
-10080.715826
-2752.029701
-3598.800876
-2461.582594
-2186.134182
-6107.602461
-5109.836937
-10497.552502
-10553.438727
-4261.858259
-9698.064589
-9031.869302
-2929.763100
-7007.387543
-1723.308599
-9940.471094
-10729.739140
-10086.489907
-6060.202594
-7632.357277
-4943.770588
-9614.076208
-5970.010131
-10889.302220
-10698.628153
-10306.483343
-3674.356410
-5035.565713
-2203.306597
-6025.090768
-4253.809866
-1800.703992
-4483.848724
-3070.731093
-10960.745782
-5036.113239
-5135.089489
-4561.773259
-1797.763500
-5290.485586
-5052.390103
-2930.995908
-285.322773
-6106.900581
-5258.131880
-8203.257555
-284.049846
-1328.702630
-854.311870
-4807.249483
-1325.869754
-7809.788752
-1606.703876
-7836.776909
-6119.397164
-11131.269601
-9978.441642
-1330.144063
-11082.852760
-10935.840073
-9603.982215
-10515.596144
-8981.976716
-1143.925162
-758.869509
-2106.811481
-10890.817757
-9149.212245
-8982.535251
-11004.028759
-9788.227972
-5244.946519
-7283.058620
-11145.178863
-2185.627645
-4062.090811
-7009.656548
-4855.058276
-9610.018838
-2107.325959
-5524.798573
-6110.131928
-5978.369373
-7996.459382
-9456.245850
-9282.597161
-5606.014232
-10429.319746
-5382.128942
-6111.091709
-10529.612214
-9708.269072
-3943.354238
-10632.425105
-10285.103739
-2736.205323
-9686.153940
-1797.153031
-2107.783362
-5206.117417
-1046.444402
-10756.651215
-1326.326099
-11058.108146
-8114.735109
-3118.123032
-3856.565529
-1047.334169
-5033.836725
-7119.730975
-10110.372176
-761.161492
-3833.815036
-4935.815264
-9206.677415
-3390.907542
-1144.651746
-10207.789678
-10922.702254
-3116.192044
-2109.096292
-3747.103415
-7023.356646
-9757.661065
-10785.501580
-2690.018158
-2495.610422
-3835.398742
-1703.079492
-8439.381607
-1423.356056
-4262.181995
-6427.904288
-3850.844707
-6221.733953
-1426.696087
-1231.941397
-6218.491422
-10513.467888
-8283.476176
-2108.497663
-2922.479632
-761.305828
-10438.622573
-3748.717485
-951.397540
-1047.049678
-661.457166
-6784.526403
-7052.238586
-10351.732313
-2496.487385
-8363.078521
-10488.753516
-6114.222562
-2202.937630
-9503.122431
-3394.534065
-6213.533432
-9566.028192
-10660.191189
-9931.365509
-10916.014564
-10948.358923
-6906.248351
-10288.231428
-10169.026801
-5240.525470
-2956.107716
-10113.298060
-10109.925157
-5126.116634
-2690.315807
-4759.176069
-10840.017242
-2957.654792
-662.988294
-10657.260644
-7490.807609
-1422.283268
-1046.744988
-4051.785879
-9410.520704
-3396.344691
-2782.175326
-4429.209868
-2201.592043
-3209.199833
-8948.045218
-3306.359845
-9512.748519
-759.076037
-4807.359754
-2496.055884
-10167.586855
-2496.097418
-4624.209250
-2301.696786
-3404.141936
-5925.759145
-856.510661
-5521.612847
-4721.553613
-9929.214860
-569.869551
-3215.534013
-760.061665
-5224.740085
-951.145062
-5522.804665
-4716.303198
-6832.520027
-11071.687629
-8936.836269
-2398.644899
-9102.519081
-1609.400685
-4052.776591
-1143.664746
-10951.245302
-7314.438508
-10759.030583
-10458.982972
-2496.223514
-2657.467778
-5415.499724
-5132.926431
-3024.336241
-9418.008739
-5597.519589
-9578.026195
-6209.817857
-6809.977228
-10525.010977
-6065.020202
-9280.275976
-8137.697263
-8211.750807
-5524.853516
-4541.851255
-2204.048811
-9239.521560
-10386.204168
-282.246086
-7493.195542
-8650.139441
-8019.524117
-8202.789500
-1521.710023
-8484.511549
-7312.699136
-5529.922950
-3216.413637
-3309.584279
-10417.057103
-2745.459884
-11081.476789
-6121.436018
-951.933772
-11048.213077
-2593.199249
-6438.667049
-3272.771337
-3175.112057
-1137.378070
-2661.264105
-1136.649451
-2371.140891
-2871.712784
-1798.726161
-8680.863281
-4825.372306
-1423.899618
-6124.407525
-4354.500466
-664.346796
-6941.839062
-5428.618165
-4349.962158
-2742.569142
-282.964792
-7127.768351
-6217.556662
-8222.778342
-2107.119451
-6215.941630
-3936.413941
-2829.590730
-9689.552338
-10670.714892
-6032.586327
-3664.383581
-9763.776744
-7401.842549
-10730.980968
-10739.271801
-4711.140945
-6817.670588
-1626.599022
-2106.537078
-9900.922820
-759.956896
-5319.937197
-10842.239554
-10716.354378
-2755.280281
-8995.098276
-10009.328625
-3732.027720
-10559.149533
-9500.422861
-1230.577069
-3661.880375
-7108.928674
-5604.683222
-8653.519362
-8291.491182
-1329.819244
-10506.379975
-8692.387566
-10235.809417
-1045.740384
-855.825828
-1626.570144
-5882.298821
-9143.563589
-11027.452202
-6387.110717
-2201.928220
-10813.579689
-6022.967880
-9089.887362
-4436.072940
-1047.602781
-6417.421699
-3392.766809
-2105.617673
-2302.121100
-10845.544817
-3015.746988
-1426.619667
-2592.921818
-2592.639679
-4335.102706
-8219.872866
-4069.215871
-5157.031391
-5423.826874
-4441.909033
-5327.442420
-6605.269661
-4533.635178
-11061.246566
-10965.840920
-10750.074093
-4927.198300
-378.420047
-6596.994337
-2495.435775
-9220.253955
-9979.280534
-3208.920469
-10545.962901
-8300.719710
-9831.869634
-5034.235493
-10982.929009
-8420.855924
-1137.010120
-1521.034577
-4763.256652
-3295.210848
-3211.205486
-9876.647532
-760.984650
-4346.178309
-11073.942525
-5421.966493
-1626.136096
-2398.153836
-9590.683468
-9995.787632
-10427.451225
-10723.327454
-6884.978635
-10224.876030
-11019.653337
-11261.373878
-9554.185095
-1238.830234
-10855.840705
-9330.143832
-3955.751015
-1722.344544
-4148.513056
-11077.845204
-2980.703154
-4143.573420
-8317.036741
-2300.752690
-4629.323289
-1424.138239
-1521.719778
-5021.539545
-5528.017709
-7410.404564
-11047.037414
-5360.460962
-1626.859888
-11090.614850
-9804.338749
-2496.487343
-10091.445682
-3572.461183
-10899.912784
-760.539562
-2203.308762
-2399.013465
-10079.894112
-1721.217226
-10017.113151
-8441.747910
-2301.303593
-8419.232105
-2919.471191
-9212.667671
-5528.086675
-9071.467988
-4827.866614
-10455.419950
-11156.611346
-11077.845331
-7422.575279
-7319.531282
-7621.644012
-2464.443260
-5899.691944
-4944.415375
-4043.505683
-2203.902233
-1231.743231
-3119.295299
-2300.311472
-665.339818
-10043.712077
-7393.799438
-2204.429726
-759.905423
-10941.861438
-5123.138073
-2743.970066
-6501.728915
-9619.485479
-4851.354762
-10820.566478
-3114.378493
-760.496335
-2368.653316
-10067.303790
-760.207522
-570.216599
-11075.051564
-10498.567498
-11177.901947
-5306.198314
-664.663386
-11055.832961
-11172.381843
-11105.510173
-4812.538158
-3759.338709
-2108.101175
-9686.465233
-3026.841978
-3953.764058
-4341.331770
-2741.280457
-4150.966189
-11084.861921
-471.623824
-10892.055150
-4897.923046
-4045.399644
-6763.528517
-4723.370142
-9130.049707
-2204.908140
-1612.180710
-2300.151618
-4858.160592
-5032.245248
-7038.339280
-3584.522551
-5078.709751
-855.078094
-950.419145
-5334.989725
-666.028018
-9786.668049
-10433.035684
-5220.284292
-950.120290
-1136.944686
-10212.798631
-4441.968293
-2589.787707
-1232.432226
-11252.332544
-1233.836766
-10477.880047
-8564.307927
-2300.841404
-10478.204928
-3760.577201
-11161.427436
-11099.804057
-3493.186309
-1626.403367
-8429.606033
-1626.846345
-9943.575349
-5327.369907
-10643.975421
-5223.406777
-11265.021804
-10418.335687
-2203.524993
-3946.942967
-856.688508
-2757.317224
-377.067029
-6709.257723
-3660.968557
-10069.066754
-5431.229058
-6064.486792
-10987.101528
-10358.452259
-7184.792740
-11110.541556
-1891.224763
-5527.158167
-3943.139282
-5321.372312
-1135.205716
-6074.014546
-5612.972346
-9984.837845
-10853.011101
-11174.007783
-9890.610531
-6119.521167
-4620.140687
-2780.360367
-2592.656854
-10149.275135
-10836.095815
-3759.502586
-1626.751272
-2751.541020
-9990.836097
-1989.906953
-283.182094
-1330.641635
-10690.052977
-7519.181300
-8760.658974
-3491.964824
-4898.092292
-5222.646678
-5429.069155
-3297.516830
-10961.035954
-10723.869112
-4149.281332
-3118.120414
-11073.429126
-2932.617004
-3665.094042
-856.129271
-1528.450807
-11070.292777
-9516.545686
-2826.588159
-3832.710889
-664.563125
-5529.128608
-1239.238068
-568.961513
-8574.150214
-5526.230877
-9254.465324
-9787.958084
-6065.021782
-9968.226049
-9325.916076
-4150.268135
-2588.174271
-9311.049946
-10205.900590
-473.155018
-5530.399952
-3748.960124
-9146.868168
-10755.649273
-10195.177938
-10049.374732
-10674.776751
-11083.407501
-4801.884094
-4445.776251
-4935.043558
-6246.360360
-4988.542616
-3660.106903
-6969.516301
-6256.506157
-6209.618699
-11079.560985
-8240.583467
-2657.953326
-10827.350774
-11172.381711
-3227.640200
-10505.139370
-665.091177
-1427.249080
-8670.269780
-9058.295447
-8226.464904
-10519.522282
-7231.447155
-7168.441279
-2929.763434
-1624.816801
-4936.634292
-10139.599236
-376.702995
-475.943143
-4825.140287
-10771.163061
-6859.490751
-5619.722587
-11095.547549
-6999.378665
-5528.017949
-4629.906788
-5524.996430
-10242.465432
-9594.918758
-5526.592416
-4051.138939
-2398.537867
-3771.925991
-4988.310653
-3583.559614
-1797.087689
-7598.092234
-5700.764746
-8721.401257
-4937.296761
-4257.917581
-10908.635686
-2492.601665
-5032.043851
-11179.565817
-856.325093
-6898.144674
-6923.817541
-4165.577589
-2931.539436
-6805.517542
-11123.352208
-5028.719029
-10450.284267
-5078.411118
-2973.659318
-10519.512010
-10864.730164
-7114.552839
-11179.011492
-10032.638729
-5527.777044
-5523.456513
-4346.125847
-4053.352772
-3856.388840
-2589.659582
-2555.439534
-2685.225728
-3730.692557
-7970.931827
-5264.279128
-4620.428815
-3775.850150
-6693.222972
-5232.059953
-2829.967098
-1889.122724
-666.100123
-665.274446
-3867.093539
-3387.711274
-5032.545354
-5442.711288
-10877.198570
-1722.544158
-760.882862
-5134.948165
-760.851704
-9346.251699
-953.617485
-11080.074146
-6574.619690
-8054.064684
-11135.293894
-6207.159176
-6416.701864
-10304.484480
-3874.154473
-3976.625702
-3117.541264
-11100.934028
-5430.611191
-8061.707355
-3855.029397
-4538.230356
-7820.872844
-5421.891392
-1626.924818
-1528.539972
-477.484842
-1723.299835
-2492.795695
-4257.805796
-1794.961456
-857.708933
-5427.867200
-856.832087
-5024.205324
-2839.831334
-5449.834963
-5699.759055
-10558.287968
-7032.594706
-5524.041464
-7313.168113
-10740.367133
-2935.332223
-7530.031819
-11055.145268
-5428.452721
-6236.933386
-5429.685418
-11174.891193
-10383.368046
-4169.325266
-4625.104491
-11178.226613
-5115.889861
-761.926120
-9155.976385
-4543.194715
-2653.203363
-4538.498529
-953.041886
-5425.470026
-5426.817322
-7121.926812
-10538.703531
-4072.881829
-9762.170339
-10986.338705
-3028.865398
-11114.771750
-5428.452998
-1702.682947
-9999.226286
-7203.080760
-10576.146600
-2651.717240
-1336.507334
-2838.053584
-7012.631290
-11049.812186
-1529.229987
-7998.299519
-5627.523510
-5329.156135
-1985.462510
-2933.399955
-9926.319775
-11035.900572
-10454.609704
-11269.321586
-5426.817074
-5426.915622
-857.028933
-2301.738770
-9877.516508
-3955.289110
-5521.613255
-11083.697398
-3321.232601
-11119.458360
-2463.914274
-4446.612213
-4630.147676
-5346.808494
-4069.165957
-10958.898405
-1336.305315
-2556.510645
-10594.502027
-11079.529381
-11179.335679
-9940.468405
-2462.627113
-1722.980927
-761.413424
-3827.002747
-10408.873937
-2557.864102
-3585.812159
-761.208663
-11167.854815
-7224.091278
-4625.121775
-1983.320302
-1722.868886
-856.127798
-5084.543801
-1891.390243
-5025.933206
-5324.255235
-5442.961315
-5132.832031
-4903.474393
-3505.645820
-5120.317345
-3954.297149
-7706.606574
-761.131007
-5449.963527
-1625.883688
-665.874095
-10133.578578
-5026.617526
-665.293696
-1722.784156
-9946.417702
-2936.111555
-11046.059458
-4903.603690
-5225.701451
-5131.281635
-7717.858363
-3582.054184
-1528.831806
-664.894304
-10051.318925
-665.197637
-2369.874118
-11174.882789
-665.389271
-5320.626539
-5174.570104
-5423.827252
-1332.103451
-10058.946018
-3012.892420
-5036.279527
-4446.318867
-11065.659601
-4994.133225
-10785.836539
-9894.702348
-9883.910092
-2367.633535
-5036.387236
-10888.422719
-2934.325815
-761.520383
-5524.853883
-1625.861071
-2684.981019
-11052.390561
-11151.198635
-6763.987862
-6941.816598
-7216.854982
-10401.973839
-4926.643693
-5538.926919
-6406.864621
-5124.205555
-6322.155601
-4711.487333
-7210.856217
-760.980569
-5120.608747
-9221.248966
-5084.513835
-2368.966574
-3505.351234
-7326.615167
-11154.285185
-5021.255738
-3870.264312
-11148.571754
-3508.356179
-6417.210280
-4994.214522
-8596.363005
-5353.661871
-6696.956355
-1625.561191
-6705.193304
-1236.882820
-10984.670137
-10022.241702
-7104.544876
-11070.292948
-856.861401
-9915.181826
-7184.244314
-6751.777161
-665.476736
-2556.918591
-6928.422036
-4728.335304
-11176.838373
-10987.449410
-10780.849333
-5787.015069
-1625.199969
-5531.403809
-8928.239544
-9198.387403
-5707.654943
-9862.796570
-9867.777362
-761.616337
-11073.942678
-1626.164712
-5168.580022
-7387.467231
-3871.094682
-6680.829405
-9853.055063
-5803.769593
-5708.200998
-10723.870683
-6918.703859
-5978.375371
-4629.504477
-5538.870902
-1721.572488
-11031.507049
-10739.270398
-5209.040658
-11266.530117
-7802.807563
-7305.535107
-11043.172457
-6655.866438
-4723.454425
-11254.712241
-11159.397245
-11063.223966
-11171.216088
-8493.986436
-5987.150526
-11012.289144
-11185.935727
-11169.305388
-665.943306
-11167.854659
-7104.175960
-1889.178701
-6489.719627
-2753.774444
-665.716215
-10538.710529
-9525.625410
-5174.602595
-5425.075424
-10243.439142
-7481.622536
-8413.068925
-7887.171740
-6160.427245
-2922.781642
-11179.058545
-5298.563611
-6491.033314
-10835.733618
-2840.727620
-1721.636922
-6669.040577
-9169.285791
-10983.330618
-857.630251
-11083.974576
-10994.392216
-1625.548587
-8574.145993
-857.493961
-5213.585923
-5206.445915
-10825.215171
-9420.430261
-9965.231695
-9621.558454
-1722.261569
-8916.633428
-8218.315764
-7475.117373
-10987.450566
-761.711884
-9472.768329
-10931.503226
-6668.041146
-7513.441649
-5531.744945
-761.876376
-11179.058517
-10984.233000
-8249.109247
-11081.742391
-9781.559589
-10594.505665
-7688.196722
-1722.013132
-1722.630076
-8537.805155
-6151.213474
-3010.532336
-760.706449
-761.099641
-5168.202905
-1721.937287
-11169.305235
-11127.703415
-2077.481426
-6405.739752
-1626.372675
-11083.407486
-9590.437270
-11077.019496
-7700.164780
-953.261678
-11165.656079
-1624.357758
-11039.103007
-10864.929221
-6331.791866
-761.471009
-10908.634731
-5795.850282
-11179.565804
-11066.063631
-10948.356932
-1625.198397
-5795.189565
-9861.303552
-8403.928596
-8732.059461
-8662.656490
-10643.975660
-8798.612915
-10177.008806
-2650.743115
-6332.161624
-7790.988713
-6750.597655
-10756.649287
-761.943949
-8702.559486
-9995.229612
-9212.677125
-11176.235043
-857.307126
-953.528811
-11067.747796
-857.851570
-761.568844
-10422.742803
-666.192793
-4626.967878
-5353.833954
-857.285338
-4726.113524
-6321.202488
-9628.705038
-11151.198831
-8778.824967
-11156.611539
-9097.254822
-953.433895
-857.360656
-8854.070341
-11081.742318
-761.944391
-761.989438
-7913.507965
-6160.557024
-2923.675171
-761.441211
-1432.175373
-953.718574
-6941.852524
-9410.502186
-8082.518366
-8484.509670
-11049.812382
-10434.569134
-761.685138
-11043.172642
-6150.553751
-11035.900738
-9280.284349
-10208.019894
-5977.959053
-11039.103210
-6927.641075
-11023.256236
-11154.285371
-11082.865333
-11270.605608
-11019.399965
-10020.113243
-856.959116
-10019.034414
-5987.083822
-11081.476872
-10836.094065
-11046.059672
-9279.181199
-856.444690
-10635.095321
-9936.724574
-761.495776
-10367.605486
-9575.733845
-8842.986623
-11091.526790
-11055.144831
-11174.891302
-8615.564244
-761.089079
-665.893615
-11027.981956
-1700.721459
-11079.529489
-11010.136701
-857.822228
-11031.507233
-9774.532581
-8643.282445
-11165.656249
-8625.331160
-11169.180412
-8587.178982
-10874.473001
-857.866275
-11161.427620
-9782.145962
-857.197315
-11041.724297
-478.959027
-761.993208
-11074.460386
-9146.869839
-8299.366936
-762.039218
-11014.333044
-8331.429610
-8074.528998
-761.540205
-11163.917720
-10986.268529
-11061.246761
-10497.644581
-10498.578524
-11061.222265
-10961.034397
-10945.468680
-857.422607
-11075.051413
-11019.652557
-11135.294052
-11082.865277
-11171.215950
-11119.458454
-476.558872
-8136.539386
-11055.833159
-11145.179056
-11080.074246
-10730.979192
-8166.130986
-857.469991
-857.503598
-11067.746777
-10042.324595
-10689.986760
-9918.460057
-7894.360543
-11131.269764
-11090.614752
-10611.164233
-857.897462
-762.025738
-11179.011533
-11123.352342
-11058.108359
-761.571246
-10771.162783
-10674.775968
-11082.852804
-9060.278253
-11048.212621
-9206.685543
-10339.089434
-11127.703546
-8388.392123
-11114.771844
-11079.560791
-10769.264549
-11138.540433
-761.589258
-11063.224170
-11159.397426
-9265.135270
-8379.660994
-11105.510214
-762.033649
-761.616141
-10802.930845
-10827.349069
-11000.172227
-10958.898109
-11191.291135
-664.966432
-11142.245474
-857.766496
-10660.191249
-9442.161711
-10815.172836
-11110.541600
-10057.852770
-10851.490021
-7905.999869
-9854.514620
-857.916315
-761.600719
-10935.838201
-10718.137983
-10952.828461
-10690.052053
-11099.802989
-9506.366594
-10785.500659
-10744.582741
-665.596475
-762.078857
-857.524788
-10978.049563
-11004.718679
-9437.702179
-8459.157479
-857.538700
-11100.934008
-9589.350648
-8653.514805
-8468.207377
-10740.368204
-10454.640757
-10703.729604
-10477.895024
-10938.980963
-11034.367844
-10941.859682
-857.927216
-10910.587025
-762.066647
-9346.276158
-9393.050847
-10480.564262
-9642.622591
-10965.840607
-857.536105
-10793.002993
-10971.508539
-9454.365827
-10800.108636
-10813.578147
-10899.911853
-8307.796049
-857.942755
-10972.543097
-8322.607912
-10528.609043
-857.942192
-10505.164137
-9651.110211
-9569.047544
-10900.014369
-8157.882813
-8144.426178
-761.616731
-8950.085324
-9768.106661
-10853.009117
-10924.262717
-9883.359094
-9971.414857
-10803.676019
-10461.463897
-9350.455363
-10331.039422
-10480.145657
-761.599668
-9376.192619
-10039.850287
-9939.250181
-8747.005675
-9324.454257
-8886.472264
-9058.296568
-10427.483379
-762.075439
-9308.603311
-857.925546
-11073.428920
-10112.678900
-11027.451447
-8874.857318
-10750.072595
-10558.294477
-953.780580
-762.027420
-10197.212567
-10594.944301
-10931.186537
-10102.927441
-10140.034591
-857.524847
-953.281603
-857.894709
-11095.547523
-665.951307
-857.385787
-9001.271778
-10615.033719
-8768.218045
-10251.012546
-9532.907585
-10443.103503
-9568.615372
-10060.212704
-10707.559465
-10272.098032
-8962.246376
-666.092335
-665.555108
-761.196962
-9130.086912
-665.620569
-10399.560973
-10358.479718
-9366.728520
-665.450762
-10855.839144
-856.807256
-761.303429
-761.774324
-665.359307
-10759.029372
-761.878543
-10433.056176
-761.617039
-10465.590457
-10755.649351
-857.277543
-10573.425478
-666.145548
-10408.895915
-10845.543293
-761.400318
-760.955193
-857.413862
-10331.871990
-569.500772
-9955.418790
-9489.008952
-10840.015359
-857.099366
-856.628857
-9330.157481
-10384.566151
-11004.027792
-761.497113
-9513.051442
-10274.261427
-9957.241031
-10864.728837
-9710.839996
-10996.196456
-760.616784
-10303.585381
-9869.300288
-9460.149087
-10235.887757
-9183.180470
-10156.399310
-9143.580440
-9037.002076
-10455.436061
-10551.766421
-9870.494870
-9169.041623
-857.447487
-10369.911136
-857.796717
-9024.240809
-273.795052
-660.391457
-9821.941800
-9696.472844
-9863.593119
-9806.801133
-9621.395781
-9686.246668
-9182.894338
-9126.902412
-2837.911326
-9893.236373
-9645.509524
-2235.904421
-954.638290
-3469.390922
-985.156794
-1252.239213
-1259.125142
-9194.744996
-9085.365697
-8545.583406
-3096.354443
-9073.471898
-2241.534623
-2244.207128
-8473.209319
-8644.645187
-8606.760707
-9366.695450
-9248.880807
-7997.348022
-5459.648720
-2446.724246
-4999.781584
-6798.938997
-6879.093474
-4117.428998
-4211.194746
-7569.298314
-8358.669979
-10114.109446
-45.846098
-10064.558567
-10113.822589
-10064.755442
-8103.141970
-7343.335546
-7342.873941
-3584.477145
-8410.755947
-9023.395323
-7845.862898
-2725.223022
-8271.582807
-7632.881065
-2192.812905
-1047.167958
-6274.133654
-771.901603
-771.367650
-8539.869582
-8580.373987
-5193.184073
-369.393237
-1042.284818
-948.199729
-271.487465
-370.496515
-8641.097955
-9292.470394
-4740.314575
-4739.451098
-989.139690
-1098.316532
-8312.260707
-8413.895357
-8511.947023
-5058.757454
-8215.738946
-4960.264357
-42.429275
-9074.557798
-4583.806480
-8452.776281
-8732.388783
-2992.618427
-2943.286394
-2298.832569
-4273.153644
-6721.295776
-1970.967798
-1972.009095
-8880.210077
-6873.010930
-9462.482633
-4126.305421
-7545.152547
-4478.508796
-9682.891338
-8385.167061
-1537.002283
-2437.248044
-9532.591449
-9610.195207
-3839.984822
-1039.002063
-7773.575448
-2462.245742
-2455.583102
-5568.982448
-9077.428432
-8356.627527
-4223.043298
-8325.771830
-462.447772
-6775.622846
-5214.254108
-5208.594326
-659.359649
-6274.088013
-8100.756939
-10160.271075
-10160.385317
-47.625720
-7867.078801
-7795.425952
-3020.899257
-3113.006061
-6165.613609
-3101.135022
-2726.456157
-1704.416203
-384.541025
-475.508377
-8350.620989
-7635.353519
-7752.686466
-3297.025131
-3209.611866
-3208.753314
-3950.289008
-4320.741453
-7690.017738
-3841.152412
-5057.341091
-5926.314374
-8381.057244
-5106.981989
-9349.417683
-6666.278286
-7721.409911
-8453.330203
-3583.748095
-442.852891
-2347.773837
-2545.633484
-2297.785347
-1151.668008
-5153.639454
-9442.580539
-7128.732680
-7128.597029
-8264.656030
-7904.534375
-8976.833662
-8360.416586
-3947.972955
-2405.754354
-7023.455821
-7023.130883
-6622.212426
-4381.583706
-9080.432084
-1599.698904
-1905.975952
-1904.913371
-8995.189274
-9072.336738
-8812.230461
-6962.464905
-6961.817356
-4681.074396
-4680.843940
-6335.956046
-6357.879102
-6275.216603
-1533.949270
-7304.970490
-7304.751312
-5738.843506
-3562.232101
-3648.516372
-8576.600837
-865.525474
-778.576200
-865.520329
-777.866683
-2719.859469
-2634.543471
-4006.683944
-4009.466126
-8094.641807
-8175.025147
-5456.505872
-5372.832151
-130.314339
-286.503614
-202.005390
-225.400047
-131.182610
-39.209660
-201.190611
-202.250904
-201.709991
-40.183099
-37.272289
-39.024738
-38.629311
-202.180803
-195.105573
-39.279588
-39.306090
-39.044871
-38.995584
-37.347976
-38.651654
-286.553734
-202.257149
-131.161746
-295.269103
-200.023383
-201.591477
-202.462291
-221.657431
-389.230742
-296.661718
-201.181107
-8459.617163
-2928.788417
-2843.085054
-5401.699125
-5633.499961
-9765.165050
-9764.356062
-9844.139137
-9843.587097
-3470.796894
-3383.768304
-7966.306402
-8550.538860
-8628.064836
-9239.281971
-9161.988983
-4122.686101
-4207.496172
-6519.102009
-6517.706772
-7518.672274
-7519.978627
-3674.689206
-3589.031403
-6109.196525
-4918.576893
-4917.474707
-8612.845039
-2164.756579
-2164.828266
-1337.575322
-1337.895739
-6864.810886
-9674.324317
-9595.141765
-655.610912
-4489.739365
-4225.423377
-2721.560435
-9338.983012
-6775.269502
-5189.418781
-8093.949152
-1797.099141
-8833.453017
-5570.950506
-5655.220079
-197.911562
-136.250439
-199.655353
-199.362017
-197.567931
-199.548263
-198.837362
-134.235950
-43.173146
-43.241983
-43.209919
-199.021226
-41.262195
-43.379748
-43.256907
-135.834893
-41.484400
-44.726111
-41.249310
-43.357886
-43.271308
-292.355273
-284.205059
-198.679860
-199.276859
-198.970150
-388.336724
-1205.702655
-1205.980977
-2939.365735
-9341.812117
-1708.490328
-5818.919591
-564.668215
-652.812279
-9547.036218
-947.361742
-5819.820015
-3472.742689
-2299.341759
-374.965276
-6082.135246
-6164.157421
-2936.065494
-9886.186217
-60.839198
-41.910031
-42.972298
-10011.192430
-61.099463
-10011.203721
-9886.228240
-8978.696458
-9175.591826
-8824.169516
-6858.128979
-4115.877407
-8292.225735
-1047.263415
-8479.599502
-9683.761899
-7998.191580
-1707.302847
-8438.441132
-5055.910432
-5974.579734
-5965.665587
-1798.647513
-8546.785598
-2835.583051
-8193.517768
-8916.456658
-7631.124923
-3268.329387
-4632.469246
-1596.698950
-7768.022550
-4574.433630
-8463.187762
-1143.409305
-6444.269946
-6441.670289
-4322.741373
-3043.765370
-8920.767213
-6667.351480
-9526.295191
-5770.993194
-7201.448185
-7201.346271
-9514.265042
-5263.245156
-5253.244752
-4425.885359
-3754.169868
-3755.059797
-221.634999
-2519.177627
-983.292213
-9628.747284
-3788.395263
-3795.428955
-7152.633396
-7152.419031
-5764.662389
-6464.473469
-6470.534844
-4531.286664
-8901.279464
-1754.389328
-947.441310
-5924.360881
-9678.181658
-2548.097079
-2551.417033
-8283.490541
-1146.087776
-4114.383806
-8389.376383
-9619.724725
-6872.920966
-5295.919937
-5290.055538
-5739.815129
-7866.420799
-3110.229939
-3386.522650
-3013.398583
-477.637414
-9238.751962
-8791.051236
-8355.608426
-7719.707071
-3296.199326
-3295.575916
-7622.759698
-9600.240951
-570.044849
-7919.733902
-6003.757339
-6003.776172
-5024.495309
-8728.647056
-1144.585550
-7659.033311
-2260.379703
-2897.910882
-3951.360952
-8727.628592
-1242.800284
-1241.031634
-8718.026045
-5101.578571
-9395.076938
-5742.858353
-2824.499322
-8386.135325
-4029.608820
-4032.359514
-2351.348132
-8409.936958
-6954.240567
-6957.072023
-4179.694946
-6809.519740
-6696.012320
-1513.415247
-4300.663507
-9558.473331
-9261.258163
-120.533776
-119.206450
-119.209890
-208.199558
-215.271705
-123.253243
-116.934789
-117.182770
-118.498737
-210.008225
-123.343622
-118.565566
-120.628500
-122.831474
-123.218914
-208.280909
-123.212679
-122.900192
-123.270043
-210.472542
-122.822963
-118.674713
-117.158802
-119.182662
-114.651827
-118.364601
-311.129440
-9148.286274
-1512.985083
-1991.288968
-1991.681380
-8987.899783
-8762.420758
-8172.411185
-4760.108033
-4760.152255
-6265.493525
-2636.463397
-6315.096510
-1595.136139
-7375.610258
-7375.488594
-3565.128107
-3383.877047
-827.398570
-827.624781
-7934.708564
-2674.707835
-8117.374806
-5409.211382
-233.254608
-137.719092
-195.564682
-288.911924
-195.786548
-131.195293
-44.926197
-197.327907
-194.226322
-194.359438
-42.630431
-195.393098
-45.756217
-45.013838
-44.947184
-44.865273
-288.904272
-44.875223
-44.889907
-287.872363
-44.937752
-42.611744
-45.008553
-138.733578
-382.165200
-194.297717
-195.304651
-195.989767
-190.310957
-194.416992
-607.127411
-2889.431940
-5477.608333
-5560.308334
-9717.770772
-9718.540635
-3424.107162
-3423.686287
-565.403597
-8033.368277
-8559.914897
-9152.698335
-4164.616739
-8874.273682
-7931.988492
-7459.448207
-7458.852664
-8170.689161
-3636.638098
-6182.785425
-4842.555945
-4842.911288
-8676.913676
-2074.861646
-2075.587193
-2634.392180
-1429.575990
-1429.931207
-6781.416090
-9559.438527
-9632.321826
-2674.530098
-8117.045720
-132.024172
-321.900016
-225.157852
-197.432889
-131.952810
-197.430132
-219.923953
-132.055658
-131.564207
-132.151724
-131.862050
-131.887418
-131.554071
-200.688972
-126.551937
-196.863606
-133.739336
-196.683291
-133.924420
-130.859611
-195.648229
-134.014940
-196.267097
-196.132662
-197.722374
-133.650933
-197.134082
-129.839332
-198.340017
-198.137566
-133.622958
-129.872152
-130.793778
-196.859480
-131.214145
-197.682949
-133.337372
-198.245695
-220.174388
-125.813024
-203.813940
-204.316652
-204.271231
-131.832575
-126.069840
-197.355215
-196.782746
-204.019304
-126.871488
-133.651041
-196.198812
-126.411529
-203.947660
-122.549449
-203.832845
-203.857986
-126.856310
-203.919789
-133.651548
-196.129510
-126.637971
-215.576839
-126.729744
-203.872484
-203.923841
-123.232101
-197.131665
-204.900342
-126.295414
-203.886504
-126.282970
-203.881541
-123.183029
-125.894984
-204.012350
-121.794059
-126.168334
-203.844463
-134.003974
-312.909893
-204.841852
-133.614703
-204.576979
-126.424657
-122.361341
-196.131070
-204.975527
-126.578195
-133.762155
-133.594967
-133.840200
-122.410338
-302.380142
-207.508921
-203.862492
-205.302159
-126.093884
-196.638549
-126.395814
-203.698831
-197.506895
-126.097509
-126.215461
-125.721879
-125.227541
-122.640767
-126.148541
-124.763592
-133.542268
-133.379483
-130.939941
-203.654090
-204.945198
-126.944032
-126.096481
-204.239162
-125.753455
-131.276039
-204.088997
-204.687138
-197.057291
-126.466195
-203.819962
-126.857532
-133.964155
-196.754268
-133.410230
-126.396588
-204.057047
-134.015922
-298.970058
-203.827495
-204.553005
-126.350927
-126.228838
-125.773436
-203.996600
-126.316422
-124.786742
-204.311157
-204.790612
-126.260990
-204.888457
-203.901399
-203.868829
-126.274116
-196.225567
-203.914983
-133.987424
-196.141393
-196.386249
-120.765873
-207.145203
-196.581259
-122.345962
-126.566162
-126.518793
-196.117816
-126.178996
-133.830466
-204.924127
-397.269454
-204.277880
-126.522044
-203.803405
-204.431955
-203.748694
-203.730965
-203.501566
-121.299727
-196.158854
-204.949877
-205.127727
-198.303733
-133.220472
-197.307765
-133.367506
-198.792836
-133.408039
-198.110385
-133.856104
-196.161222
-196.160915
-133.987441
-133.735999
-196.615144
-133.802902
-196.107959
-133.547413
-198.279721
-198.508778
-392.736292
-198.865629
-132.040565
-292.500569
-133.095442
-197.851830
-290.907223
-198.677012
-197.906067
-197.245051
-198.469451
-133.908125
-198.748482
-5612.489622
-205.427672
-126.805776
-205.049063
-127.339030
-203.397936
-205.459370
-205.457769
-205.516890
-38.643822
-298.649738
-38.408761
-126.995749
-38.651742
-38.277533
-37.881577
-37.128981
-35.069417
-36.178156
-293.448255
-38.273016
-37.140075
-203.284313
-37.943434
-396.869694
-205.487190
-205.438536
-205.515093
-8792.115787
-10051.269479
-41.693594
-10051.418067
-3019.708664
-1755.533736
-607.607299
-9423.263469
-1343.180448
-1343.889222
-2162.427420
-8592.694977
-2161.292329
-6721.524872
-4273.276568
-6116.570961
-9946.899787
-119.138625
-117.476500
-9946.898737
-2408.255089
-8362.867839
-5154.309062
-7722.618372
-9262.653414
-329.271627
-7703.556358
-38.878789
-1139.035844
-6808.823862
-4302.421937
-6706.297373
-4180.323826
-125.052784
-1098.930603
-5118.445198
-8260.630183
-8426.363316
-9341.034254
-2354.658954
-8914.550265
-1314.183980
-1314.986487
-2192.769149
-9957.448630
-120.119931
-9957.479725
-2897.379835
-8905.456949
-119.138230
-364.470260
-2190.702517
-8540.661702
-2993.911125
-1059.067176
-9413.338015
-1054.203223
-6700.732319
-4301.099362
-3017.574155
-313.394479
-216.198635
-123.440422
-204.511135
-123.571484
-212.314350
-116.484264
-123.556881
-122.301374
-123.255515
-123.150483
-115.866288
-122.886235
-122.843314
-123.379951
-204.524084
-123.394469
-123.281210
-209.707827
-122.879247
-122.984650
-115.972611
-122.317145
-123.691889
-123.508745
-122.994769
-115.854324
-196.717338
-124.842710
-196.215287
-7694.411116
-5117.946557
-8427.290632
-2356.304438
-2160.668895
-1345.395447
-1341.353039
-8589.770777
-2166.084473
SCALARS stress_s12 float 1
LOOKUP_TABLE default
-9.063205
0.876246
12.783165
8.696059
12.577888
-18.509428
-22.130198
-7.956497
7.665950
21.676131
-25.580432
-15.291518
12.453796
-2.618341
-12.995246
8.788845
-20.161641
19.252877
11.491116
-22.079856
10.189982
-3.691137
2.092865
-1.685349
5.167552
-19.076649
19.149574
-3.037002
14.844743
7.774138
1.542617
10.031550
31.409258
-2.052747
1.930630
10.200342
-1.718281
29.981192
-10.097782
8.667233
-22.443574
6.814994
-15.289959
15.076701
-18.472471
18.291095
-7.609283
-5.783748
-33.419543
1.198768
-8.990764
-33.514933
41.663466
-0.683351
-30.816520
3.057088
-9.053430
-11.377278
-3.675426
4.132613
-0.724732
10.418557
-2.305398
9.070164
-6.981532
2.747295
20.541830
-2.777672
-2.251011
-22.831663
4.729332
-22.395876
-41.362165
41.332628
-12.493691
7.667649
-7.467791
-3.821256
3.755431
19.693232
15.251777
0.184730
-0.866370
4.530975
-18.261290
18.379604
9.456950
2.301490
-16.213587
13.590142
24.432652
1.635789
2.231377
-6.821703
6.709962
-25.381972
61.556510
15.722764
-11.402470
4.289132
30.706380
-0.782560
0.979431
-7.910771
-44.109273
-0.297152
0.745389
-39.401941
29.120341
-3.148036
5.970679
5.753664
8.378095
-14.522462
-0.359059
-0.568362
7.355843
6.601971
-41.245547
-2.003922
-17.444387
17.389870
0.902135
-4.842779
-1.169239
0.261690
-25.958645
4.713472
-3.113059
-1.741967
7.172349
-34.460986
-2.118440
-1.089137
2.569320
4.270853
-3.742392
3.824750
1.072605
4.235760
-35.923592
2.609592
-6.556894
15.841857
-19.509321
23.630828
-8.759834
1.072741
-10.832868
-0.755424
2.575994
-21.768869
-4.295964
-2.810617
2.734918
-15.678939
1.347565
-4.015540
-0.081028
1.881678
-1.570974
16.548734
-15.832522
2.316411
-1.151465
-2.603786
-34.627903
-3.034586
-0.125508
0.073732
-3.610776
-9.016878
-5.910751
28.581126
7.317147
-7.783751
-1.635164
1.941163
-0.814879
-20.616793
-42.205273
37.161083
-14.659230
-11.111449
-38.286777
1.405305
-24.360692
-47.178439
0.656425
-42.900403
2.122267
-10.640157
-6.520085
1.212712
-10.746123
55.237412
-27.592988
-8.397246
8.344935
-24.583456
3.849434
15.561092
22.365665
-2.697934
3.579856
0.273107
-0.127171
45.792087
-4.254322
-75.169070
4.814916
-20.948935
20.630412
1.220665
0.120901
-16.722883
16.704668
-27.207857
-22.732482
-9.617016
-5.294121
0.060042
-16.296924
18.331651
-13.805833
-14.201020
14.856258
7.899319
-18.754343
6.009688
-14.304592
-26.076525
0.860149
-28.957775
3.486721
-5.281510
5.309031
33.205712
10.970706
-0.617734
-9.097554
11.628743
-1.755542
-23.389835
23.921498
-0.512063
15.811371
26.070087
-1.222790
0.491484
-0.362078
-2.886636
0.922767
-15.712383
3.405457
37.243132
-20.221992
-3.676023
-0.374894
0.112833
23.406427
6.077995
-18.982295
-18.873959
-15.023043
12.804454
-3.442734
-0.696474
-4.742694
-2.403169
-1.670366
3.708314
3.562906
2.604367
1.682846
-2.330754
-1.146279
-3.079815
-1.819678
-2.556497
0.453620
-0.028480
0.754157
0.513926
0.317658
-0.145114
-0.712236
-0.356813
-1.036486
0.042456
-0.619155
2.718710
22.111907
-24.793325
24.597710
-0.805925
-9.212074
14.648422
-0.143922
-34.270634
-9.072053
8.953421
-18.505931
18.501873
-1.771956
-5.571968
3.921234
3.078105
28.115721
-6.554753
6.634118
-1.997603
1.835184
40.349237
-1.284429
40.316064
33.076106
11.036586
41.831516
6.415301
-5.427995
-5.593596
-0.000554
-18.854631
-59.427982
-24.710425
2.703973
-22.826606
-19.395807
-16.985143
18.444795
-16.756641
-6.744710
5.958652
-38.132183
-10.525113
10.676195
-27.679899
9.452443
2.364661
-20.941691
21.467290
-3.689289
1.472807
-6.813356
-13.632547
11.504596
4.066940
-18.508517
-35.779965
-60.897019
-1.909898
1.895141
2.493398
2.192704
3.175519
1.542019
0.099050
-2.058234
1.536724
-1.668678
-2.395863
-2.320477
2.025237
-38.095116
-2.674024
-5.445313
2.528466
0.003005
-4.129458
-3.012629
2.686952
2.041546
1.373482
-1.865250
-0.561898
-1.578822
-1.592947
-26.199365
-0.276305
-59.099913
-5.923308
19.894482
-7.501381
-8.588146
30.679851
28.893711
-15.827000
-25.429535
-21.476522
-1.833755
-66.031650
-36.369531
1.989141
-2.158456
-5.380376
0.538413
-20.202069
-0.696859
-44.877330
-56.551108
-0.469859
1.140544
1.764283
39.206161
-39.138857
8.873098
-55.948092
-3.240836
-3.566744
-0.122925
1.098658
-16.148045
-1.351383
-35.940730
-47.843034
2.524106
-2.948149
-28.194870
-44.237159
-0.078219
7.725469
3.276446
-38.804995
-1.440681
-44.297710
-35.826242
17.883809
2.735272
-72.243593
0.043382
2.623947
-36.876039
-36.041031
-39.876480
-5.966088
-38.846288
-15.937687
-42.887262
-35.517163
-8.587040
-41.656993
-8.334354
-2.505221
-39.181348
-6.009180
-6.081168
-8.346043
-15.580907
-45.908581
-7.843074
-34.545047
-7.446303
12.454943
-11.921212
-6.935634
-11.781251
-12.208039
12.368856
-33.241423
-44.472745
-10.706883
-7.353593
-7.349388
-14.134588
41.641297
-6.517267
-38.196495
43.615279
-125.703102
-8.243279
-9.629926
-6.000518
-14.810520
0.957151
32.893589
-48.940457
-10.430974
45.628435
-6.810427
-8.720050
34.318905
13.002521
42.625318
-5.562133
45.318881
8.880989
-11.148031
36.238033
-12.999028
-9.398819
-7.683511
36.779707
-7.179265
13.710678
8.471479
-5.041019
22.200351
37.523882
-4.584342
-47.292916
-11.046389
-10.046489
16.885671
-130.654543
38.068842
8.556752
38.808552
15.813579
0.000056
7.960713
39.355203
-5.144895
44.126736
-4.060602
1.542788
-9.564357
1.555391
-15.386268
-8.249143
-10.337595
0.000089
-7.960368
10.693766
0.000084
42.983738
-16.179277
61.006416
3.026480
45.638713
66.805568
-1.628545
-10.876962
-51.982694
17.808251
41.717375
14.848161
-3.587503
42.411984
39.107331
-10.478611
16.404287
11.076599
38.273146
9.688829
55.372096
18.198378
-7.278117
-25.278269
-25.004165
-26.968559
11.036486
-3.062912
-10.135537
-37.661246
2.883778
60.072787
52.997164
13.418510
-27.247763
-3.364591
32.696148
14.148649
22.706692
-129.868546
21.286647
3.081108
-48.276171
43.165640
18.940736
12.444870
23.994975
-5.091182
9.037133
-13.644964
42.605855
-13.377989
21.417363
7.624658
-124.381912
42.272481
-52.461150
-8.447437
6.475047
1.078601
-42.953653
18.577753
53.046176
20.512979
-9.039921
18.646399
-2.575427
-41.691793
19.074058
-9.142579
126.937568
22.731968
23.924453
103.836222
-97.270165
7.273611
-50.116598
-8.176604
89.217804
44.147815
-130.535111
-1.078307
43.281701
-38.092797
0.000163
-46.299305
47.881528
31.070973
4.072622
-15.780946
47.852865
-125.437411
18.597741
-8.738957
-107.164115
-10.062309
37.105288
-121.631755
23.446647
-4.166953
-3.080790
21.301193
0.000064
57.608437
-47.465415
6.044113
13.246060
-22.862974
-29.997843
17.614995
-61.483888
-52.062305
-45.593530
-27.694607
-20.161014
2.080689
-45.121595
93.239145
-42.670694
99.186300
-9.281800
-6.233219
-8.083029
5.584539
56.223719
33.885218
-8.388983
84.933937
48.088487
18.336659
5.845427
51.139307
44.884547
-14.923038
-47.249320
-121.777941
30.912615
-124.581179
41.498649
-9.585947
19.479505
-2.051817
51.314898
-12.275283
-86.961109
-65.015401
5.743108
5.374735
-47.369903
-67.927715
-123.280303
22.908200
7.092686
34.100471
-11.259873
27.658916
22.794020
-10.739390
-5.123365
-49.415084
-9.798902
-120.605844
5.854748
-18.624619
-8.999123
5.913685
42.464865
-36.167667
21.889862
5.991376
36.121390
-47.714855
-13.363222
-53.359343
-127.400357
-7.890355
-49.872035
41.802139
-9.014857
-6.096210
4.623733
-16.534545
-69.049804
45.102945
-17.450747
113.248634
125.409189
45.089013
-15.134683
86.881314
-55.034842
31.707704
56.880291
-27.390317
11.705187
12.397190
-8.548388
-3.965458
5.804394
104.789777
19.197220
20.796092
24.388490
-1.639842
-27.055962
-17.194064
52.373103
-46.547608
18.111821
34.973926
-99.013975
95.146151
29.711112
-119.085972
-124.296543
-11.826234
-10.296832
-11.121690
34.861940
-127.033555
-17.663176
-6.732078
97.104949
-127.901152
41.935543
-14.927550
30.453014
-62.928979
68.325833
-18.481161
-55.149229
42.670083
16.396914
4.344699
5.758015
23.284805
15.780658
5.032685
17.417318
-127.439829
-20.088388
57.877778
44.947501
46.265320
19.883584
-16.203158
1.459100
5.096259
-55.597850
21.723831
24.671820
-19.753214
18.792186
-47.819642
101.146810
121.635647
7.342210
48.918507
58.459759
-14.052716
4.174629
-9.145068
31.606219
14.007865
-63.388689
120.984970
5.707951
42.793118
3.664861
3.713619
-18.816258
17.925203
-18.566566
-57.370876
-18.126239
23.579446
-15.650909
-17.534610
37.931876
-20.959352
-62.267027
30.216360
28.289640
101.578841
30.904371
-18.372510
-24.961532
22.098901
34.758196
-57.802164
-22.580879
28.053114
-23.373208
33.241027
72.728201
-102.434108
2.403943
-8.639542
-1.716502
-59.615445
77.335935
-19.212150
39.181044
5.633352
123.962368
71.632582
-1.622093
24.813655
-96.253782
5.718625
36.350438
-5.335097
30.234202
-44.954687
25.958001
-60.026524
-1.552068
110.220593
73.106947
136.658682
-6.453139
16.485417
-11.883360
16.904320
-28.998474
-14.653902
24.162480
-42.452632
106.390666
-15.946477
93.875410
24.251587
-51.616306
-107.220608
41.910245
-10.449581
83.559687
-30.985737
41.419777
19.572319
-6.018712
-96.969389
29.664646
15.758425
15.691236
83.458368
-12.618443
-20.796343
-34.210310
45.736312
95.742071
-131.636253
-107.437458
113.636241
90.875511
-131.928534
-17.227614
-39.840622
97.105432
15.549256
4.167234
118.176442
1.022469
65.115571
-58.834367
24.343491
-7.781540
91.683228
-15.356232
53.846925
2.087151
-16.831795
21.490674
52.552964
16.507415
-4.491908
29.428388
-13.699414
-117.403303
121.398952
113.910339
78.600617
46.618770
18.755019
22.098198
20.771521
-1.335917
71.580306
-16.220262
103.635615
22.506743
72.798382
-8.236194
-113.894150
-114.411070
123.489758
53.701813
19.720484
24.870987
-82.232067
55.151386
14.895590
-59.546446
-97.114925
-14.442768
44.969255
-33.331742
1.261717
3.105811
56.266782
54.596319
30.709501
10.002722
34.743626
14.333598
62.088992
15.787221
74.214229
-27.358610
72.455898
134.300212
15.718868
-20.459748
26.491341
2.122773
17.758015
130.325542
-108.280055
107.427182
-117.448592
-61.879236
92.493585
4.372782
-34.646549
-109.266226
128.318764
20.168693
-2.122449
6.847527
-16.391444
49.774841
1.085735
-7.571131
61.994588
-135.827026
-0.521525
133.079843
43.447811
-67.485261
68.650049
16.976483
-13.053059
37.370394
-18.812554
-64.548407
19.073177
-32.568761
54.115278
-29.940659
-132.070982
-44.978775
-18.292648
56.715329
32.681551
21.586869
133.273566
-16.487861
57.814033
-20.485748
-9.114567
-18.353554
-6.586242
-18.201983
5.383752
26.097467
-48.506363
-10.861894
-7.077944
-15.621093
-20.968049
11.369558
-5.152389
-9.039952
34.246750
67.766549
-23.596536
-11.170163
23.601403
-136.325851
-21.432313
41.032334
-64.209577
-126.368657
-17.029755
-22.398418
70.640696
89.563893
21.075258
-31.632086
-140.190308
5.731688
35.651883
56.720226
1.601609
101.789973
21.146453
29.945049
74.458819
23.064741
-93.508687
101.689598
120.898377
-2.534472
-56.758190
136.117945
84.150552
44.623851
-123.201996
-75.306956
-120.329911
-52.942555
-36.079683
139.911507
40.149628
-7.148879
-17.477921
56.805783
44.868889
1.472833
-8.988700
63.736691
41.741846
-2.086863
19.812739
-24.545726
-10.824817
2.884710
75.547354
-139.901320
21.284035
-40.090736
-0.005581
-51.337888
7.128172
-20.937663
83.240465
5.354966
55.600074
139.428644
-14.493936
101.768584
-69.167119
38.527818
-12.677453
32.446908
16.788016
-38.335897
-6.354429
65.967391
-1.031288
-15.892519
-125.937306
56.117697
10.129505
74.049411
-41.319469
-16.980205
39.169271
-11.885726
38.040358
5.816518
-113.684314
17.706519
71.525360
24.167539
16.535709
1.255358
54.955665
-60.084680
-35.813014
-39.723210
-27.464315
46.527381
-65.120203
78.547950
9.907465
-86.741519
44.602755
-9.188446
-61.252219
72.914004
-37.396263
56.236133
20.244876
75.291405
-6.986399
-118.343401
22.012892
-15.947031
76.252498
94.390277
-117.125397
-63.833257
-113.625504
-33.885596
-96.182330
-17.959530
65.943184
-26.206377
-40.124293
-21.951157
-63.063870
-117.053282
-6.017204
-113.132040
-10.590329
-19.905170
-31.161002
-79.599010
-25.626051
-73.374628
-37.179828
39.530078
70.281923
-12.432155
70.886727
117.538560
43.174206
-109.853984
20.731752
54.389846
43.951783
-76.318728
-120.507495
-119.426450
-110.741329
-11.339186
54.285100
6.768844
-11.493822
49.164795
-40.966320
22.149131
100.522262
35.521444
66.304453
-35.433381
-17.779834
120.413980
71.264867
-122.551863
21.528619
0.999789
-118.579706
-131.702324
90.445266
53.029551
7.048905
-108.192383
29.040871
-5.661487
27.932480
126.479203
125.063675
-34.750466
-27.292346
-78.099271
-33.740440
-102.416731
79.770118
-63.413562
54.633831
-38.368017
123.919084
43.676470
-39.532840
-5.676825
82.171328
3.991624
-48.559942
7.594988
-17.898375
124.218829
-6.769868
-9.150560
15.460379
-1.758010
-39.940909
42.581767
-70.875323
48.507102
-17.304968
-17.769082
68.411119
56.007919
-26.707246
45.219194
57.393362
41.895026
73.252596
72.219496
-66.128285
41.812047
4.821778
-9.553647
0.511862
-14.898195
-44.926848
17.021092
-6.611975
9.982517
-115.666905
138.388317
-5.155634
-0.329182
-44.684956
67.324920
-33.911967
-33.370797
55.590570
1.328867
99.287805
-11.381752
23.948028
-44.604899
132.984569
52.299581
111.664190
-13.590589
-109.574619
-45.249275
-17.695185
120.449383
1.426787
19.922043
-7.711348
57.164939
-49.948085
11.487526
-117.553291
25.987886
103.828408
-46.928285
74.577896
-111.489124
-128.679942
85.055194
-6.033080
1.580180
8.965225
40.546770
-69.688159
18.160582
25.522959
44.399293
-17.816326
-32.757268
-12.767927
3.658358
101.169483
-14.576453
53.603644
64.016847
-109.428516
-64.480335
18.559178
19.325048
47.758510
-31.639441
-115.216877
28.831314
30.447180
3.375352
-12.021173
18.725132
-12.945395
22.595830
-24.793452
-107.967503
-61.867082
-69.834716
40.922573
3.000101
-60.999464
-12.405261
55.420233
-7.022677
-14.223332
64.913411
-21.082983
-6.727435
54.677925
27.087856
39.089201
10.248977
-7.486823
-26.972482
115.478453
-116.321708
-116.460694
8.270025
121.417775
-27.718303
-104.006317
119.090144
124.976190
-9.292002
-15.449020
-109.166126
128.690108
90.793474
5.658666
16.804478
-107.192750
-26.197819
-117.009877
47.994809
83.002550
-37.319803
-12.280578
67.137953
-1.794402
72.201627
-33.030680
52.941174
58.557382
-86.617679
134.348773
56.425780
-80.082603
-113.898407
55.501880
-123.218830
19.908854
-24.216790
-104.789607
60.929719
11.642002
130.538421
26.192436
-33.850614
-8.127690
31.699526
28.619253
-87.943648
-56.239220
-1.642175
-6.420206
-46.183554
52.580436
52.658343
77.891581
-6.227560
3.186893
86.601727
86.270534
-28.942244
50.894663
79.027775
81.972842
28.416425
-24.607264
20.868796
49.657135
-11.668242
-114.335392
-95.108211
129.196564
-52.341535
76.820914
-103.210297
-30.267475
62.269745
-44.481173
55.394634
41.322048
-18.053042
-38.867576
-7.356694
74.340695
-39.464272
61.482712
0.729524
30.492191
21.346827
56.265882
-6.954406
-5.698314
-18.530766
-19.922608
3.713286
51.927301
-14.945775
-44.558834
-12.491939
-29.924306
56.253901
-34.382711
3.444537
-20.186989
45.574768
54.897725
50.261379
-34.023988
29.337237
-26.719702
14.052817
115.807446
17.484255
122.531313
-77.531038
-17.007007
-108.731710
123.284281
133.627199
-4.955999
5.756873
-17.003737
74.838032
-55.993556
-18.207591
-8.973412
-0.000148
-61.061143
-25.517652
54.318972
-28.534083
-18.286344
-116.479818
-33.869659
49.278587
21.830843
30.758430
-133.956713
50.011849
58.882720
36.973697
78.109097
132.275870
-22.097076
-17.186898
-132.025520
67.561562
2.863601
62.989196
40.787416
20.939013
-4.457866
-6.677745
-81.870935
132.090971
21.084272
119.834388
-117.220585
19.063699
132.682127
-117.299842
-27.105116
54.955084
-66.351687
50.213757
84.759654
-84.891897
-40.320363
-128.402135
-64.739312
-6.941133
126.606514
119.389278
4.238394
7.842806
-31.653779
64.511703
-127.457346
3.756537
-14.468941
75.654422
126.210801
133.706061
-73.772745
76.677457
4.534027
47.924394
-117.362934
-64.764868
-18.304230
4.293001
-112.979034
-9.859811
-90.222603
-5.651964
-14.679056
19.543425
-37.527679
-6.333103
-80.082677
16.556120
68.625037
-9.142720
-11.387479
-110.541947
-105.345224
30.654096
76.005404
90.272664
93.317393
-19.093938
0.787817
-19.092240
10.248547
20.811357
1.420660
-9.541418
-112.314195
43.012757
1.496063
-1.101573
-28.111113
1.365456
-17.424123
111.859761
-0.116870
-10.964295
-16.484949
-18.838277
21.719759
-52.904377
83.820758
37.763200
72.600793
-37.777169
-46.915628
-20.731798
6.001016
-96.230518
20.439370
96.513434
23.609622
-123.995943
66.723951
72.178220
117.211531
4.330110
-14.901341
-28.067003
75.560249
-38.644851
5.971774
-62.555359
51.872027
-9.822510
-61.430782
-14.017537
16.441974
8.719656
5.127871
-77.007729
-8.769700
82.566758
128.440266
16.120491
-11.406394
-0.000040
93.572119
-18.373300
2.681523
114.895858
-78.356898
-133.882839
2.160335
-27.659184
100.817434
-112.969340
-102.389717
-63.577246
59.535362
50.846260
100.002852
39.362479
-104.964172
-12.059227
104.675690
0.288929
-56.885621
-14.954901
-120.834300
-112.917705
-8.690406
44.237466
-40.227503
2.481650
-14.664825
-12.174773
35.490543
-106.352782
-18.272211
-10.241418
42.100325
-10.381968
95.843914
13.427540
-54.226128
-113.242490
-131.629609
97.358728
115.888308
13.139988
58.040493
-104.048295
-2.355302
22.942317
87.372643
-121.145474
86.635464
130.675319
112.640747
68.227819
-17.683430
46.851988
85.471207
-36.643322
91.719716
0.338667
-58.594289
22.553154
-35.055770
27.449597
-133.371765
24.143116
-38.218793
21.920501
-4.516292
-76.513772
-81.876385
73.236979
-28.779194
-30.679871
-46.525775
56.989333
97.616899
13.380142
89.665667
42.615860
115.843858
67.642049
-12.612114
3.495247
-54.438114
-62.228025
-123.804953
-88.747319
-57.841815
21.682106
14.275222
13.985646
-14.169968
-108.609592
0.133832
-110.967020
-20.426552
53.777816
-124.855848
14.062970
20.786187
55.033549
5.542503
37.677261
-55.862699
-18.005913
123.819423
30.959220
-0.665966
-30.916495
-7.855400
133.088945
-85.428324
-9.501399
-68.701487
27.407773
-73.909695
100.754957
45.637215
48.642576
-5.341766
-10.764530
8.292291
-81.754695
-79.129043
-19.492156
62.566724
63.036260
-17.492343
-104.197069
76.063940
-4.903980
88.095488
-64.381357
-32.232002
-33.805535
-34.104216
-17.997123
5.224038
-12.681371
-112.857904
3.756643
26.396197
74.241282
23.931925
21.772356
44.487175
23.200815
38.889292
-111.614966
15.076134
43.611881
14.875986
4.467585
67.955930
-3.894004
-82.879317
84.112905
71.818500
-84.289236
4.778553
3.578132
80.025972
-84.592943
-38.347586
-11.590044
55.135638
43.576581
-79.133993
-73.570810
-80.013430
-38.936118
-76.564010
-28.507004
36.750442
15.673304
119.042363
-7.003523
-94.307212
46.019942
11.830252
88.375009
-58.114013
3.684883
3.337600
-8.000663
-11.763859
76.202001
37.464514
-52.277356
-2.834893
-21.109677
128.500404
0.775224
-23.617987
-10.610089
112.454848
63.474802
-21.438469
128.309213
57.891901
47.990569
-44.090110
-16.785688
4.068220
126.469752
54.438082
-135.784825
59.386909
55.331495
-82.569732
43.806248
130.731277
-94.928037
-9.321156
69.480028
13.863256
100.611111
-81.301170
-36.963087
-15.119231
68.952327
-12.876332
134.066720
-68.947931
-45.728084
47.489450
56.140200
31.593955
-36.143771
-3.766544
140.146697
23.179199
-61.555312
15.543734
-71.765391
-81.309877
18.366636
-36.091017
21.029481
76.443764
-139.537795
91.602953
51.836398
82.611984
-90.760737
59.526444
-120.182258
-79.836000
129.278592
98.759331
48.121700
-52.218079
86.769829
-53.850709
4.758253
-52.491599
47.001563
49.436306
88.050199
20.382048
3.491434
77.126775
84.598023
44.489598
-71.209969
-7.489358
-6.242003
-71.520860
90.306771
12.680516
-32.059356
-118.433946
-108.495664
-48.641631
-23.065056
45.270762
-15.723388
-51.010200
28.028065
42.886611
-30.238186
22.704406
-1.055196
-70.561677
90.336479
92.026511
0.717686
37.942914
-1.185017
-110.219007
16.275982
117.010037
-48.032609
4.584169
60.292169
110.451529
-16.510966
44.491164
-67.638340
50.415591
61.551025
0.515581
-113.281863
49.457467
38.223241
26.316293
0.298942
117.420024
-43.078065
51.478599
-7.204741
2.068958
53.094407
34.555304
43.961212
-77.481488
-20.492558
13.828120
3.498758
-31.650373
-78.240093
-131.635169
-140.144911
51.941049
18.831413
118.411540
36.069901
-23.202201
55.096043
35.007216
85.228724
67.258984
14.639640
-35.332874
-5.239709
-3.620801
-15.871422
28.533754
-36.783647
-104.547362
-64.170780
-2.636512
32.147569
-108.123982
24.554532
-69.745645
6.425158
87.304456
47.709686
122.306948
73.249235
-133.545790
-20.542694
112.980868
103.735003
89.645703
45.281386
-93.682770
-90.864132
79.709948
103.397331
-48.331663
130.483189
3.946105
-107.121353
70.020189
13.050018
-16.680809
-0.026761
79.292532
-92.531057
65.628592
129.038096
-28.981507
6.687282
-8.179773
9.888376
117.758135
-112.153268
-113.478829
-110.857541
7.791972
4.009081
14.139471
-1.361558
-40.296956
12.622488
-31.137413
87.187213
83.941471
-14.818142
-7.363846
5.412096
9.540947
-116.104571
77.167679
-64.858255
-52.540030
-5.511833
40.756142
-16.648858
-14.658501
-49.544563
-5.674067
-33.678027
95.867554
2.081473
42.545030
11.518159
-6.552339
76.315655
-9.472858
6.742274
7.018131
75.252842
74.007367
130.202282
85.937208
-51.881594
117.210765
139.069638
-18.842575
18.968858
-4.960958
-1.751974
-105.407741
-33.428926
6.544396
-1.547397
77.648647
-90.914347
120.064092
-45.626708
85.866407
-108.754544
135.532809
29.195009
17.030958
-133.886762
-125.164564
6.869373
-3.507970
-21.008668
32.057246
-10.586463
-102.353504
-22.799364
67.599083
85.447964
-112.343907
45.895966
69.961999
-43.740395
137.350995
-48.896331
132.120221
-4.760249
3.138935
57.606382
75.366385
-1.908523
91.897014
-5.804471
-131.057615
11.481698
-19.816155
-112.132991
-23.546684
-108.495185
39.231413
99.893751
-107.031335
7.676704
108.807069
-124.299235
71.406145
121.050274
-107.092651
80.699593
9.424744
-14.254244
-129.953184
72.318521
139.151944
47.291932
132.459078
-135.475599
-10.548223
-138.724371
-80.975607
-11.387791
-37.456657
-113.009158
138.720410
11.386572
21.036833
-47.646594
60.296495
65.536242
12.463813
128.107644
-22.659759
1.543601
-10.714437
67.766125
35.567256
-20.990764
89.118663
124.968562
37.720217
0.152201
-104.105647
-56.721438
73.185237
-6.760330
-61.165441
-138.710725
68.530740
-117.344442
-26.498023
68.178081
-30.596235
25.272925
-90.679314
-91.619293
8.101295
-2.591749
-112.220344
51.129622
-4.403301
8.792521
115.148826
120.632060
70.138093
-11.551591
-5.789708
129.597093
58.172732
-8.048696
134.391657
15.886138
116.886512
-110.553923
-75.353933
123.223968
14.757847
60.935746
-132.931799
-104.995223
-40.132186
-29.338901
-112.639978
38.419084
13.004899
82.389471
-85.354624
-8.298802
-100.506621
-62.345198
59.875896
-107.904306
81.271944
-104.466467
-89.913344
-6.855315
49.747502
8.838510
7.003433
33.834811
96.817859
-104.883916
-93.037032
-47.243272
127.780443
-9.475369
-78.876127
51.097551
-60.264170
87.278714
-106.358581
56.598600
7.191424
117.467025
102.339545
-73.420765
129.245015
79.118288
-3.343482
-7.992424
-17.812215
-18.568997
21.826009
-118.547719
131.710842
23.049235
-3.733546
-5.238151
15.684479
15.498175
12.653338
40.403088
4.920260
-31.901120
-28.620702
-34.845020
-31.650696
23.492237
65.411766
-38.530785
4.761297
-114.584817
-41.534621
-34.865809
-50.781802
-74.668901
-76.406477
-133.080214
21.674820
-72.267736
-6.034451
22.510482
11.577933
14.477714
-38.660262
21.105100
-31.966352
-29.431665
20.239165
20.690407
3.769131
-72.361436
-35.685468
-7.822473
42.382787
6.545517
-2.598690
-19.494436
-4.392618
9.301398
-2.312957
-5.238258
-22.809237
-114.907760
11.658086
26.085397
-10.338852
-82.665215
-31.635174
-10.293608
-3.183301
-11.533794
-83.749518
-8.428936
-116.762494
-50.341592
119.948301
-33.180553
-73.998995
81.517640
18.361163
108.966327
-2.442199
-64.284216
36.181709
60.876957
4.689463
-70.113352
121.601240
-114.403866
0.589643
-16.018747
-9.659316
-115.836566
-0.025410
10.244506
-1.097772
74.185691
112.135189
118.454192
-94.611000
-9.507418
-110.323139
84.850857
32.557367
4.486459
-3.527725
-5.798480
-20.439452
-81.689391
137.351857
55.886458
-0.000284
-45.139077
90.110819
104.278787
14.028950
70.052310
59.211814
-13.469587
15.363685
90.260690
-10.583689
-121.465621
-84.349565
-35.598940
-46.886698
15.793307
45.184323
-14.481575
46.745580
0.291075
-17.570708
33.093178
93.818458
-69.333722
-110.739423
-91.478565
107.349022
-101.213849
-111.193909
-119.742979
-69.062952
-71.829962
-67.917214
-93.231756
-31.433264
-15.072942
34.544720
28.022878
-126.955492
28.081122
6.340055
98.940020
-13.315921
-82.859231
-1.065323
-107.588359
113.978450
-57.981123
-128.128229
-11.203601
-30.447507
50.285610
-42.399674
-53.553938
137.798799
12.525269
5.698447
-39.184171
50.367942
4.276419
10.153034
34.950327
140.578191
69.288463
28.679092
-88.050300
31.392165
6.879838
138.599760
31.534783
-90.282810
31.528018
-8.531219
-57.690500
-54.335459
-114.362067
15.010906
-6.832631
-78.112079
-98.922061
-4.629851
-9.419798
-24.673185
17.378967
-124.546151
32.999010
30.828311
-80.620969
-0.799095
16.564852
47.215853
106.730139
86.972981
119.209968
-27.485142
9.568718
-125.789632
-49.276971
-128.859890
-6.325174
-96.547477
-44.258720
80.045617
-72.836772
78.628500
124.922220
2.598116
126.258132
-115.842445
-103.032334
8.048606
-31.699503
0.543226
-126.595573
-37.782957
-139.143772
31.288455
-0.372226
-11.006290
33.863638
-18.878583
-8.089706
45.250343
-83.011772
13.532635
24.072316
85.021751
-72.566930
-43.750280
0.950190
-1.871750
-51.201205
75.223098
-16.034948
1.165216
37.319239
21.410538
73.772438
-94.048538
13.361479
-60.935824
73.282245
88.971560
-56.062141
49.231109
-86.261453
-4.474653
-16.124021
7.165029
-134.989499
99.472751
40.850053
80.590770
103.212651
10.397802
104.921411
124.860262
84.856569
85.317544
-68.993165
-72.996229
129.719143
118.804738
-65.263050
-14.458480
107.158038
20.947587
55.696929
89.455662
84.921253
2.818122
30.427344
5.035062
-113.247239
104.182650
-111.501681
6.814667
-2.489122
-133.263959
-103.912819
-31.772014
-21.898979
44.338192
112.966106
38.662371
-1.100313
57.825797
1.415461
-114.636306
3.143545
-40.852017
-37.282551
15.852949
131.690980
-25.544187
82.561257
-30.523217
106.716582
83.787033
-8.089964
-21.489958
-26.098278
-30.828235
9.856606
-129.299359
60.276006
54.223251
15.082890
-1.645034
55.924860
-22.013069
-10.577490
-2.641403
-7.014356
20.413698
1.214525
-1.850178
18.648533
83.239248
4.761678
-14.220562
-104.704060
-92.763745
-85.699683
56.348312
38.822414
49.926642
4.352184
-21.450964
7.288103
41.656301
-37.958061
-86.433439
-135.525195
-115.801463
-26.255634
10.189242
23.630226
27.648131
80.720778
-11.630086
-111.863784
50.425488
-16.715783
-9.509236
-25.674791
-28.055402
-22.476207
55.899690
-101.095951
-0.186146
21.030432
64.114028
82.572935
-35.008310
118.809543
-36.751382
42.761199
-8.325655
-51.129959
-6.847639
30.221281
68.919111
-76.553993
-40.463656
-33.474774
-31.196671
56.674928
113.248598
-67.553428
29.510498
26.868150
100.353469
29.116535
50.311677
51.392482
27.472938
-44.399825
-40.062059
-39.572682
20.010625
9.391453
31.380139
17.560839
-82.966406
22.245361
-140.549213
70.868711
4.020130
127.949278
22.006420
-17.756529
52.649604
-131.606220
-0.591874
115.644394
23.088012
-0.547744
34.509842
18.227489
0.046639
-8.357282
-31.317086
45.960852
105.713540
107.291034
13.191201
10.877754
-8.256359
72.686526
-59.686555
-64.177525
106.288244
17.464450
-39.264477
7.698836
131.065714
-115.151589
-46.674381
-11.860815
92.451406
7.086785
5.345859
51.981600
-5.080686
-2.317691
-15.292425
4.946883
2.993313
80.967393
77.356544
119.169034
-13.521443
140.188925
-119.372566
-2.341848
-105.620312
-13.413094
-28.055810
16.373405
5.855492
14.106486
64.208007
-101.547532
-76.173126
7.454558
-104.845334
113.303043
-60.396952
-6.146467
90.248194
30.957513
16.748547
-59.387349
-106.172486
-14.682525
105.737960
-9.550582
134.431099
-13.989060
78.318814
-6.402914
-15.779998
91.824531
-26.057656
105.626323
3.043086
6.514301
3.984613
86.777173
-26.869155
-33.896403
32.878645
29.975148
29.203001
90.756720
-14.478951
29.896532
-122.526624
-9.748292
9.355676
-34.134684
116.064216
-31.143047
-121.754445
-34.324864
66.692800
3.415499
40.805049
-81.859203
33.470830
-6.083660
36.973175
91.007749
54.157666
83.747424
74.038600
53.459980
-22.070173
-96.044013
-27.056088
-29.041251
-42.637209
-45.362113
108.500043
2.706199
-73.130616
32.330164
-94.116394
-109.612256
5.556165
119.566090
122.739091
38.995011
-129.633520
11.028843
60.970058
-4.387481
66.073209
-138.489276
11.354657
-73.827110
-129.662906
30.252390
-20.963631
23.636957
46.214147
101.806672
-64.998645
-76.355143
-2.476562
-40.397634
121.564264
4.857283
4.393178
1.020820
10.856216
139.918410
4.170838
-2.521628
-10.995405
77.566875
95.170008
21.253421
19.887109
23.710640
89.978766
55.766560
31.985745
-72.576839
8.508893
7.789823
57.865625
-126.408830
-15.691721
48.184452
-19.034952
4.906150
34.721606
-95.638649
5.673465
-55.353511
16.364812
-45.497188
37.898642
25.395109
61.124439
-21.683998
-46.766580
59.608357
45.746370
-2.097364
-6.441127
93.051028
18.640474
97.503564
47.482412
26.422711
57.065710
2.911100
-0.948048
70.190680
27.386214
-68.770323
8.037294
3.132952
-11.953206
64.161905
-45.905633
80.751806
41.652436
-99.342652
0.000097
6.813901
54.734122
-109.829584
7.230338
-99.010221
0.000070
-32.987810
59.514601
-3.892910
127.907276
-74.913735
113.683698
-95.869529
108.499832
-99.877094
-110.449206
56.354936
85.148997
101.751719
77.579580
85.794411
53.767338
-111.293529
64.722587
-1.158681
-87.906272
-18.960400
79.281785
50.258420
-85.450029
-115.699979
-78.545327
-31.620392
89.704038
-86.598923
52.183518
-5.300573
23.890875
-21.148945
-50.168728
90.877468
36.287152
-140.567771
-40.348450
-54.501028
-58.363047
3.109656
8.692934
-27.713126
30.499810
-32.124283
-68.246582
26.737424
69.745056
1.689321
30.697655
-15.786969
-58.498604
5.075167
-113.685487
52.686302
73.206688
42.478591
-79.786590
93.227520
-6.410532
88.041266
-24.719486
-14.862509
-20.495714
-74.433690
133.313547
73.752794
102.945031
-73.803797
14.918508
59.410265
116.069476
91.613018
-0.000033
-24.125075
87.928120
130.644872
16.702343
-68.888183
-112.470199
-47.645483
32.798500
95.717749
77.154201
40.549341
96.194038
-92.943066
9.785398
21.901965
35.915582
-8.280926
15.966130
-32.145497
54.467785
102.712510
-9.719784
14.298036
-2.863251
0.000087
121.267660
-9.874038
-49.481464
108.756975
83.228970
-5.733266
99.312696
-98.503111
-6.760323
95.101593
-0.147727
-126.097704
48.505796
102.930005
67.927600
-1.483769
49.878429
21.053350
28.485335
-17.414786
4.099456
-18.869223
-47.656319
36.053056
-54.462969
-7.499770
-30.980231
11.077054
-24.705228
21.932817
-123.233287
-5.087165
90.224871
81.102244
81.743457
10.830035
-122.239612
-7.764043
-33.503242
56.970391
50.963405
-85.475562
-104.392368
-50.523515
-116.030188
-29.711471
123.664375
-14.134891
42.126019
-76.329406
130.368512
-75.025788
-20.779326
17.547800
-41.489030
75.460744
-5.673631
7.768106
-10.870316
104.227587
99.251357
14.145316
-1.295136
-77.326380
-67.136329
-7.645732
29.958056
-5.799517
97.196470
-34.218497
-4.306685
35.977675
-50.820495
85.772293
-14.057511
123.551354
38.215297
-16.024260
41.533021
44.456990
-45.323725
62.231949
79.669525
39.820908
17.969756
35.424227
28.520268
-3.929765
-35.574108
47.647377
-18.222589
-74.942633
-69.607890
-105.886726
-86.295583
-21.729201
-67.619924
-89.289844
-11.028922
41.761084
-4.625036
76.384238
-40.614503
0.000084
49.312280
-6.944778
44.071418
31.771392
-34.784409
14.813218
-18.636988
13.028120
41.808295
20.092702
54.104321
-32.934452
-29.946758
-7.834146
-6.740422
-118.414821
-0.679795
73.378928
-41.009371
-108.541190
11.860130
-29.188428
20.429319
-4.871388
-48.738981
-63.618424
0.879906
47.716072
-47.001400
77.572325
33.073372
25.932282
23.703566
-25.236041
-3.713090
-113.769253
-66.078512
-117.349478
-22.349179
-21.851678
13.327476
-128.492337
99.304925
24.417125
-21.048638
18.867362
-48.772122
1.908008
-59.199503
-14.677058
43.257726
19.911676
23.017211
39.271738
0.224707
-0.184621
124.123874
138.155883
-108.277793
105.962353
105.691220
105.738704
108.292604
-90.252283
-18.576673
-9.611747
-29.847017
-100.810114
-31.871922
-34.401848
-64.706972
-41.449559
12.412025
16.673356
10.167813
-7.945979
-116.257254
-113.925538
4.963988
-19.483361
8.492673
-6.553186
-12.177194
40.105729
-54.568694
-8.482053
10.140490
17.496803
-15.753825
7.238455
-23.504721
-96.297209
-98.343864
15.182747
7.056639
2.773108
1.261532
0.510740
-0.598534
-2.168555
2.855164
80.544732
122.003389
-21.636759
-39.880550
-72.205377
-2.128850
-22.773147
-38.558824
-47.168198
-71.938905
-21.054345
-28.662062
11.960425
-47.357849
-6.632221
105.427378
-123.175139
-78.805632
-41.502101
-96.628327
12.544663
-13.754666
25.773323
8.781580
-92.108489
8.994430
128.589966
55.547897
3.163101
84.570210
-4.618254
-121.179754
-28.008256
-114.938073
-75.664197
6.371381
-32.661225
45.194195
-99.249884
-48.113531
-122.053792
-123.189623
-16.725991
-8.302114
-18.730500
-4.605664
-122.031338
-12.691531
83.977750
-22.305241
32.792482
13.917187
-3.920903
128.865277
127.398804
45.366206
102.526166
-3.242178
29.128914
1.977938
-46.763583
69.161419
35.718216
-31.976748
14.384481
43.873391
-19.338491
13.054950
9.041728
-64.745312
46.142416
-110.776475
95.163240
-1.634300
136.333904
-25.626106
29.923933
-53.686872
40.239190
20.961857
-10.383855
44.179107
83.572830
103.001379
6.006185
-9.840946
-29.560312
-28.967025
14.487096
-34.341718
-97.449062
-44.880527
-102.384617
-4.184852
7.146750
2.275505
10.053850
54.420130
92.431062
82.772528
113.864764
-103.214759
-103.417791
32.742886
67.555816
56.642689
103.038188
1.623811
14.730706
-4.412808
-100.657370
96.312200
45.980523
108.538012
-15.245716
19.323535
16.006721
66.933751
44.159466
16.836971
20.577809
96.240502
89.197744
-107.144489
-114.894093
24.684861
-81.574964
-16.260791
52.973292
-9.856550
94.007122
125.811377
-75.413101
-0.307699
17.574833
46.588429
-32.692234
-7.782569
-8.802606
-120.416168
62.096145
115.288149
-117.083657
-65.536227
-4.865998
95.612318
-8.920333
23.661433
30.616170
103.412760
26.094145
69.555721
-62.831999
-21.588518
-21.285455
98.524684
-27.221707
52.161546
-23.584684
-19.740085
-31.712113
-2.752781
33.469860
103.797134
36.755006
-27.987443
-80.665132
-80.106178
72.025807
24.469577
84.406330
1.248752
7.425112
17.493971
52.342096
2.874050
-78.309676
19.744779
6.655721
132.368624
2.481678
-6.290061
-6.126302
-36.347321
68.239585
-21.135540
-6.813481
-46.541545
79.633449
3.514002
-103.630124
19.757793
76.272793
118.853468
5.159086
120.333465
-49.944546
-29.816214
-13.648353
-32.152262
-63.881507
-84.866778
5.656938
50.115431
-54.165419
133.555605
-54.640432
8.556792
-57.865010
-89.117283
-92.341435
-5.975633
82.592505
20.047716
-48.153634
-68.914051
89.684434
126.882555
58.862763
-89.120156
-29.273984
-108.898686
-63.239134
-6.659177
8.985884
10.368351
-1.403512
33.840332
84.346435
38.284808
96.800142
67.372088
-137.349118
110.325427
116.934443
97.317581
0.538921
84.234769
-108.345072
15.519869
135.783341
82.124245
126.752582
4.181706
13.560135
-85.746328
110.715915
53.396472
-92.379814
68.696042
102.060587
72.395443
-41.680109
-33.206539
-58.943103
62.279609
-44.423826
-64.868679
-100.936944
131.651882
87.877331
39.462101
84.920164
133.872482
55.015237
-97.525549
97.247898
124.309542
-2.257064
-97.310523
101.719389
-131.893173
117.345240
-53.940650
-76.304841
73.610353
-50.586740
17.862663
22.769921
-35.303708
-74.202151
-72.482207
5.186688
115.703637
-4.078342
8.384712
7.412052
-0.846543
-11.726862
101.291619
-124.638301
-52.382044
51.739889
0.990858
43.205818
-78.401594
-10.415557
-117.745987
-92.347278
-53.752370
-39.203298
-45.366694
104.847626
6.778857
13.754479
-42.822797
-126.112317
68.281214
18.930840
98.633284
19.459576
9.239487
-23.446587
74.944690
75.099859
8.426627
26.319476
9.341586
115.821800
-72.699205
-15.395507
-5.022370
83.605461
-84.289313
57.422722
-0.000140
-8.508995
61.865411
-0.231623
-70.930545
58.362601
24.968893
-58.096137
121.037234
5.692402
1.192068
9.052559
-89.081469
-83.568495
82.336036
-53.559947
122.243744
85.416324
-138.378708
12.112850
-22.464668
80.601677
43.761249
-0.698988
21.550997
-17.162246
-101.395646
-75.599380
52.892878
119.442038
78.081823
-127.253101
98.516165
-13.571145
49.129659
-27.262145
7.499852
-65.742656
-41.739693
-111.775767
43.161063
-36.822927
-25.069741
-15.599176
-105.441022
-0.173991
95.745173
-99.005876
51.155481
4.413969
107.081614
53.329629
28.010867
49.555901
9.672013
52.774869
-25.893982
57.082663
78.353482
-90.454336
87.995709
101.158424
118.898898
-138.594937
115.643286
-50.833397
108.355606
-23.428636
101.392779
103.537089
80.522073
-111.490887
-21.941023
101.443187
-101.157113
-23.960395
62.835121
-35.786262
-8.556642
-31.206960
6.994809
-59.673781
47.374381
88.806684
-0.817196
95.017927
3.286874
66.832221
-92.125691
0.974291
-88.428052
8.111287
-104.028840
-3.488766
-25.077880
-30.160302
20.310571
-70.505891
-5.012804
-48.570008
-66.628472
20.508140
60.502524
-0.891249
48.380843
-51.229883
-90.334860
-0.461861
13.792295
-43.033813
-55.439933
68.796821
-5.964991
-102.157741
13.145710
-62.925373
-14.058565
-13.440547
27.564296
125.409203
-137.762331
82.526161
89.498799
-106.244964
-8.718808
-70.334922
17.617539
-58.284241
77.622810
-24.103704
-26.002743
-18.663835
19.277631
68.064261
-32.403223
2.755558
86.956508
110.963218
96.493143
-92.025963
69.126327
31.567930
8.474962
8.070020
-1.496716
-61.825648
39.236940
-1.188952
-21.417594
-9.600098
-4.408311
70.811993
38.679959
29.555651
3.097281
-4.402396
-32.523625
-37.678249
-15.197009
-17.753871
24.888960
-13.182507
36.602061
41.763088
4.923621
35.890021
10.833525
-21.553807
-7.295664
-18.498952
21.416945
5.661053
-139.313176
-89.622532
-4.280008
-52.552905
37.308611
126.884389
-101.101131
-55.796520
-73.766282
56.316948
-24.206585
39.193843
-40.927529
-36.452303
45.391825
34.856598
78.918610
136.654814
-70.413136
-9.407230
-6.867730
-57.421841
37.791862
-67.985409
-79.229064
111.020277
-101.828959
-6.298548
-21.541967
32.660216
-36.903175
-35.014265
-14.453215
128.413517
-48.467329
33.437674
-68.234263
52.612626
128.076454
-22.149208
57.813857
-5.511857
-93.243680
95.667357
58.761233
55.823787
-4.238080
40.061013
-20.010632
-31.522596
60.386123
-4.484548
-111.859269
12.499696
43.190402
61.736395
125.691148
-65.993849
38.944585
28.052657
-7.415229
-26.022839
-34.514776
48.939534
43.135191
37.319027
38.515931
-10.607777
-21.746284
-69.300638
57.804617
-30.448577
-11.370014
-11.695049
76.175617
-29.512052
66.634230
-13.855422
-12.734799
-84.251935
-21.283044
-33.586892
8.799867
71.597055
16.927669
31.345040
-8.120172
-28.777178
-100.753439
-58.555901
39.999662
9.184302
-4.821566
75.073659
30.267027
81.362471
-27.726015
-54.153047
79.784024
22.647825
82.475410
-24.113730
-5.268640
58.592374
19.984762
1.636273
108.151953
19.874882
-9.330396
94.409211
66.321970
74.147564
34.127272
22.981982
-28.761450
24.565877
50.168489
-38.993932
-48.474770
-25.329527
-24.515596
10.596289
98.984229
-39.827070
84.559657
3.766395
-2.762393
3.034338
59.751084
-73.898606
60.278773
7.824430
-59.777353
-25.132898
-76.428731
-17.478410
-18.259298
-36.162609
-1.264524
15.952421
-2.681598
7.583350
62.280450
7.595859
7.903728
98.665727
11.148692
8.604024
-19.687535
37.698852
9.810933
82.574283
-75.658998
51.649250
-8.744096
11.308796
139.479418
13.940436
17.946484
-62.986782
9.451786
36.983540
-13.167206
-86.733957
3.898108
44.068121
-94.219066
-43.389644
5.736313
5.012689
1.649648
34.895753
-3.072158
-21.663666
-14.948136
75.930669
41.640200
15.305608
80.586718
44.709732
-78.953383
-1.826031
-0.177711
1.934341
-3.655301
-10.492008
-91.352098
-6.742394
-12.161868
99.048931
89.935064
-56.705708
-16.268320
-96.551674
-50.802986
-24.939737
-10.000194
-14.032917
65.040316
-66.315380
-31.553626
14.683277
14.240018
3.888705
-44.811441
-73.607260
-83.614931
-5.793976
-11.281072
13.648528
-75.358255
12.423233
93.279395
46.737499
22.940542
-109.491837
-81.021391
7.091482
-51.750527
-97.515583
-15.088263
48.932644
-77.250268
-11.016587
-138.700792
49.950572
36.507550
83.516811
-30.559019
-23.451194
39.779829
-17.862736
-114.730112
-77.891270
74.421858
-21.103124
-89.712383
-93.178355
-35.802067
-20.993992
-116.503868
-92.633706
96.187628
14.586335
-5.119486
-38.947817
-12.791104
48.542210
-3.008335
20.933794
78.793699
-8.377190
-17.872866
-29.142591
13.841585
-19.922496
-2.629430
-6.833167
-128.376774
-28.691638
-2.038719
-103.072296
-29.954738
-24.856078
-7.944557
21.818053
20.492562
47.466457
37.020710
39.643055
21.538942
1.735806
82.593540
79.765720
19.224466
20.122461
-32.275467
77.355195
-46.126013
0.678044
-84.859560
69.496143
-4.288055
30.098663
-22.892632
-20.792843
-30.904685
64.889510
-2.783839
76.193631
36.446075
49.348964
-55.883484
-41.030035
-0.822875
-3.840501
-35.748628
9.481910
-34.947786
-124.722737
19.203065
-23.663479
18.878409
-88.629621
-20.796262
-14.435239
108.189878
104.387075
3.503663
-10.017035
-33.693590
2.904316
-6.650553
-99.775921
-11.550459
73.231513
117.346592
-14.736691
-61.116634
47.741312
10.330049
81.350784
32.744879
84.269324
21.854448
-76.406429
-15.939362
111.225182
68.159222
74.928045
131.735938
-95.168705
-78.149178
94.169086
40.284425
43.724029
-108.197551
-27.367965
-51.407827
39.464413
6.968568
45.022919
32.008525
31.961468
35.853645
65.750152
-76.029513
73.189356
-77.653240
-10.244650
124.477669
-19.066464
-19.372244
36.870656
-1.684803
-42.256936
-121.877480
14.539648
-77.444794
-42.346103
-101.566683
-100.002716
-16.480456
-21.815613
-23.585183
72.466534
-20.429880
-101.571615
89.858151
-110.385730
92.530801
-10.736207
120.755304
-6.788592
25.536095
91.261922
-26.252101
-105.396490
-107.236388
36.554835
-131.109070
-132.832391
21.898959
60.346200
90.863907
99.571102
-102.009125
-65.166663
102.832614
90.970624
-123.198965
68.590075
63.422918
133.366201
123.835099
-130.194234
-55.532008
-60.296586
22.892515
-1.463163
109.212078
-129.949292
111.580430
136.569050
-29.666327
-0.640083
4.325819
-35.897486
13.246285
13.152741
115.769615
-74.499765
86.237091
-45.501537
91.366480
97.459667
24.593156
-51.888442
-105.659234
14.885530
-59.622297
81.220796
15.256690
24.848973
67.926061
-73.578009
-56.020560
58.832952
-9.127202
-39.655944
-94.673841
-60.877280
-27.470967
18.204618
18.859236
-47.909434
-42.371047
-6.492502
93.887159
-53.338250
-97.577931
124.261511
36.470662
85.826018
-126.258220
-129.153554
65.101691
-98.060891
-15.259133
20.021723
-10.489742
-31.961468
-18.234817
51.754804
14.838185
-73.481722
41.436712
-19.865952
-0.278211
-45.068459
-0.679468
19.076708
16.361314
-20.566887
-36.518629
-2.746510
59.568790
49.822339
-26.324325
10.968955
-25.466692
-6.278711
63.104088
135.363252
23.076468
1.673832
9.335681
-95.984754
65.463236
13.570747
-94.155793
10.577986
-26.969738
-52.668131
57.010971
5.729867
18.826055
-107.174776
-4.612786
-116.949806
-12.499885
84.167208
-24.168947
54.758653
-48.147706
8.014165
30.287534
2.501400
-2.918883
45.569644
27.579138
111.663070
88.811081
-26.738689
102.319089
57.373316
39.877081
-137.802561
-99.107877
56.713641
77.714224
-14.849624
-19.648302
-60.429090
-35.374220
-80.564197
23.660645
92.124548
17.533261
-20.130567
-9.377291
108.035160
-13.984061
-21.947307
-34.556225
-99.634192
-36.996677
-92.545434
3.325778
6.955698
107.632121
20.964989
16.181883
-54.535788
-25.018566
-12.907685
-22.647207
-98.710525
130.858018
46.332778
-136.431371
94.660118
-46.019878
-4.701735
-5.643987
31.163560
137.078992
38.395250
24.459970
-15.886500
40.823096
40.396715
14.459299
74.185691
-43.484736
-4.581306
106.751857
-27.022891
-78.876741
-3.265866
18.097579
54.184546
-2.694470
8.970230
-58.497784
-1.852222
62.345844
-3.821396
8.607858
28.224534
43.072970
45.982354
-86.695646
-120.065012
136.027236
35.010722
78.556374
7.999222
-4.949637
36.347007
94.589593
65.262216
12.414378
104.814097
52.145300
11.983874
33.620056
77.384940
-48.915768
27.480066
120.872826
92.127050
9.600312
96.292571
15.803942
-27.932739
103.885665
-103.574581
75.744200
-28.066221
46.968664
-65.912487
-64.614258
-132.264208
133.128106
127.045859
103.063907
-37.625593
-74.331264
18.027778
-84.268128
125.159510
29.981244
16.149287
-17.248275
-107.622220
13.699529
115.189305
7.307460
-102.347491
-24.876244
-108.258490
-37.170978
-41.538412
94.451942
133.272121
-50.999563
-124.707657
72.556094
26.262560
-107.494950
-44.560534
-75.215131
-23.179110
-103.543330
83.674522
-49.945792
-120.664731
-30.839559
-34.542333
-79.714202
-106.964502
100.819498
-39.976742
-111.297202
-104.595961
102.579312
95.365498
103.666440
-18.826227
-91.932930
39.018785
-87.109080
-96.703706
-37.795453
-59.263299
-113.140944
-15.834745
-112.557424
28.985509
2.552136
32.847195
77.251578
47.552761
-10.645926
-7.287968
-76.619608
83.136060
-135.316915
-30.006632
28.210639
-50.739971
-58.865964
-13.810376
-90.039447
38.254779
-30.636671
-99.088851
44.637718
5.708853
-54.849494
-77.182339
-2.715990
-87.317326
2.105494
-62.587185
-34.641076
-36.129942
-97.180506
23.516936
-18.212810
89.561865
9.162028
96.974459
-53.416560
-22.264545
-8.205411
29.826564
14.840749
42.547170
128.623656
-8.700236
-72.629183
-34.066277
-32.958330
-16.285378
122.054233
-50.546630
-86.975525
-20.977091
-40.792592
8.651518
-4.331913
-88.724781
-73.043587
-84.572187
20.096587
-18.801075
-38.095748
37.417150
98.740381
-52.069483
76.719399
-4.331454
7.215677
60.874629
-26.461640
72.429153
100.956406
-1.181270
-22.933254
13.659609
43.703879
-4.573440
91.739041
74.194156
-33.250198
48.135187
27.818793
0.182276
-20.851541
-17.724078
103.145425
-26.324151
-1.079335
74.676211
23.223406
-49.396933
92.377189
-1.379760
-14.688378
-19.806213
10.536638
-7.214674
-28.269968
4.987658
-0.771619
-5.202038
-51.860470
114.264041
5.635887
23.852112
109.488098
31.964212
34.046557
95.483132
-20.178934
18.375852
6.808083
17.574530
-97.481265
44.260413
-4.311206
8.347634
79.487526
-5.231102
22.889929
17.304518
30.382522
-90.795727
50.213464
11.173824
41.986319
-122.336252
-62.513862
-38.528692
34.324084
-25.089794
86.899686
-68.751401
130.709686
19.648054
-0.171846
-47.481857
-47.715579
-102.969673
-8.366934
-89.216120
13.874332
-92.752594
-46.717194
21.147015
-126.212907
-22.134461
-26.157653
2.858604
-77.713987
60.934494
14.867676
-126.257087
96.596827
-96.190988
34.021470
10.802068
-3.252190
-133.299016
15.185530
-86.128079
-72.058348
-2.809653
-28.081111
22.766359
10.987379
46.848123
1.170989
-81.862033
130.817594
-118.768442
-105.698053
65.742980
10.477821
-54.027305
-5.539747
-12.543220
-25.475081
-113.949690
-8.475557
16.815285
22.026611
-21.903118
104.886028
32.647363
106.207087
55.078294
14.135010
113.005501
131.682700
10.417289
98.202505
56.760444
35.601518
-5.638875
94.847592
-106.778173
75.282072
-29.169303
-31.275054
0.000098
65.653392
-81.520716
69.170235
107.624689
34.869158
-6.618327
94.533203
23.960631
92.932892
67.483414
40.987890
37.338376
18.842700
-10.846076
-84.370188
9.501635
99.641220
-85.661859
-18.373932
46.177025
-9.897238
-125.832309
7.777055
-8.792603
-120.852461
23.023788
2.708672
-122.012855
34.749901
-99.724546
-23.354438
-4.432054
-5.604624
-0.732042
19.475173
-8.338765
-126.574309
-69.028481
-0.697869
58.094614
-42.477165
18.496327
51.150993
96.622957
66.749799
-55.327082
-24.631351
-73.201757
-98.231509
-93.111570
105.409225
-82.595346
-94.907639
-41.910677
90.976164
-0.852799
41.583746
-109.051246
-88.485045
85.169664
-22.013796
-83.745266
1.910993
-4.179041
48.740074
-62.068305
-67.050826
-18.408236
-65.653227
31.588969
-17.350880
-77.622514
-22.745424
-95.021662
-92.778867
-23.962930
-75.551524
-121.391892
11.683476
-8.111821
-70.995120
-5.772697
-119.857618
26.769936
2.790670
-19.091409
60.445823
-15.971441
-4.761377
-1.601171
-60.939263
80.633094
-32.742668
105.435850
-64.275444
8.725062
-40.149634
75.548011
-22.037257
-22.423380
-86.239385
-17.234309
-1.070382
102.237965
-27.968057
117.587622
-16.076363
-17.010586
64.999044
68.282982
11.669160
-20.282627
-1.926548
5.684165
3.707564
-2.678206
-2.731835
47.073114
-34.763591
4.347238
66.921653
-20.300244
83.213349
-4.389904
31.349555
-75.648582
57.266143
7.078265
22.760416
59.373172
53.349986
12.648931
31.078620
-45.949806
15.201558
-7.252807
-49.287148
-119.315710
13.606102
-25.041178
-10.201239
-5.509954
23.029136
14.204384
71.927961
-49.647085
-1.889162
-1.277975
97.180806
-58.171099
1.882105
4.661540
-114.557668
33.707527
140.038675
55.543448
-58.905449
-13.902805
113.412866
33.667751
-53.678343
3.769813
7.956175
-47.164651
13.376695
1.463097
-34.701972
-103.036084
-50.910946
68.599451
70.163538
-113.657717
-57.444595
-6.230234
4.426227
-2.471877
-14.065974
-27.350320
24.933917
-2.430548
35.629471
14.256893
-61.350895
8.782049
-30.133310
-5.917564
0.370493
-9.731977
-109.634822
55.698870
-17.255535
-5.571577
-25.460088
-13.491826
90.035140
-41.421039
-77.570676
82.326835
-48.453400
53.312326
52.386129
-13.564325
42.398013
46.780773
39.710194
39.041622
13.612632
-17.463706
-53.863759
-47.916003
-1.024810
-17.630072
132.864535
18.490846
-0.639197
-28.806791
-124.918869
96.340464
-89.089446
6.325258
99.705397
-94.912862
-5.674677
-18.621266
62.775017
-87.875400
74.436114
125.440725
-53.660612
87.773504
-63.467105
40.682123
-140.137459
-98.297355
-80.164658
32.121825
8.453839
-30.166643
2.985555
-11.788587
-23.339506
31.694306
108.607888
-36.977992
-79.157867
-20.580299
127.930310
-3.722719
37.335709
9.879232
-67.931031
-10.385110
50.909769
4.288056
-11.158647
18.648906
-9.316262
-1.541927
-132.209300
116.008017
-17.752640
-57.813937
-44.094324
-98.664055
-99.646897
-13.838702
-47.818984
-7.573837
-42.644878
-4.866361
1.811217
0.739669
-67.765671
-7.993850
-17.909115
41.696652
-8.347002
-12.407041
-20.289470
-22.506749
-48.344677
35.823994
36.285928
2.835135
-21.437643
27.341314
-22.077534
-23.688573
12.551393
11.886489
50.652338
-21.764446
33.783959
59.381841
-1.636800
-26.783267
53.202131
32.991065
34.636568
-8.420549
57.591604
-22.891140
72.568090
-30.894438
-18.916804
-5.379220
-8.774589
-9.315413
-68.875692
-26.869517
-14.158429
-47.603226
26.558933
1.996422
4.193444
7.529412
-122.378966
-12.366505
34.742733
32.400642
-28.399294
128.720973
60.763533
-16.667478
-82.632066
47.040910
-3.898360
-13.055618
-1.542589
-23.785560
-29.661145
-32.800424
-14.825697
64.343132
-22.595368
47.951382
34.844370
8.966501
-0.818854
-10.987196
-102.830483
-27.742376
-4.167009
-19.572115
-5.822180
-21.846169
-28.121984
-21.166772
-27.565859
45.203885
-7.096269
-29.913509
124.301232
89.286416
92.583459
-89.794393
-59.568148
12.761879
-24.162261
-8.123753
-29.281188
-101.798229
-11.525855
3.028655
-28.814746
81.574688
46.140602
60.625840
-7.592888
-81.235871
103.625232
40.309517
38.383799
-0.000188
28.723437
21.975324
-6.094961
-8.506193
-37.794090
-47.378048
-32.305908
69.139839
-35.875813
28.548901
84.330832
29.953724
27.273042
-37.477919
-5.633977
67.834752
30.249445
10.924673
37.331768
-47.406725
-51.735929
-48.851911
-83.220192
-56.531924
68.513989
12.823553
14.509517
11.158345
-26.192194
-26.755695
-18.703025
-40.308978
-40.635747
26.021832
26.328309
-6.330213
29.055294
-17.663467
-31.460091
9.720169
-87.883941
-19.002781
-28.980228
-14.520406
42.764165
27.882626
4.384056
3.063955
57.559566
57.115913
-43.956150
-52.396696
-48.649931
-36.286257
45.695202
-13.144300
-40.154188
-46.195737
29.879819
-13.281320
12.141796
18.272042
76.356609
-23.958700
-56.673696
-11.703080
-50.011164
-50.049842
36.186786
82.475316
44.988511
-28.222234
-30.657576
-53.114454
-54.194232
-58.738365
25.550525
-24.541312
25.819099
20.525538
21.436458
22.873505
20.455697
5.927732
2.751436
-122.588579
60.907592
66.980194
87.755472
22.278046
61.410305
-67.144396
-64.562444
-52.861288
-55.289813
-47.331642
-41.126615
70.090518
-58.093522
-12.018192
-3.701703
91.166053
78.662956
-104.927759
85.424277
84.347315
-48.632301
-44.388060
17.787546
-62.009202
79.838387
-38.475512
-35.805365
110.126157
-69.048883
46.850562
1.897017
48.331751
22.691612
20.284042
25.089967
-4.970999
104.993800
80.081734
22.380166
-124.210382
-68.078548
78.308754
4.173761
23.447717
24.101715
-64.764462
19.862502
-111.789113
-137.136235
-70.217532
-112.350405
-50.786105
-51.765379
-118.787612
51.019765
50.762193
97.312001
-27.467375
23.578926
109.668901
-36.559460
-5.735928
7.237083
1.802197
-0.003544
-54.616198
-52.379463
5.765131
-60.423273
-62.088487
13.978845
98.872938
12.111071
7.760722
0.718112
132.986272
-27.852881
-49.237124
75.382145
-3.752594
-67.372007
68.068013
-20.660922
15.918514
-60.800869
-117.209564
-54.641557
-6.054028
2.253035
2.556563
-3.436710
-84.466796
-53.613099
2.811393
48.703162
-21.598746
50.862705
-74.898350
3.905990
17.689705
119.889231
-9.409954
-38.761611
-27.579841
2.283277
-55.146625
-38.286177
-123.710855
-113.022829
-81.373584
34.343121
5.595337
124.015680
108.862099
112.148654
-65.033971
-36.355976
-44.274402
-45.975879
-49.115436
-20.681124
-67.313308
-68.341621
5.258553
-19.794301
-15.910812
-80.555484
-15.298516
-17.891662
116.684606
61.337009
-43.180936
-24.074790
-24.396935
-33.873475
-39.137543
-6.746606
-35.644735
-14.185250
2.254003
4.881446
9.487066
8.741921
9.894522
13.412255
14.861140
12.283211
12.638844
-41.714024
-41.491959
-11.770515
-10.882212
-11.395286
-12.505711
-98.200525
-43.803714
-36.436050
10.050956
12.895108
-31.091467
-9.952681
-5.532300
-90.981262
-105.261642
7.421498
-77.930975
-65.157767
-39.791009
-46.030980
-21.206399
-20.312729
-33.141584
17.442925
64.548010
86.758245
-33.453195
-43.667071
-43.160782
-83.560491
-89.591852
-95.372690
-98.142232
13.192762
-39.382532
15.391423
-36.019411
-82.948722
17.974679
34.968041
-57.764449
-14.860326
-33.163993
-44.620702
-48.807028
-48.122402
-5.075737
6.875904
-111.474268
12.939983
18.010680
17.506579
-133.699528
33.265076
127.400943
7.302454
-118.344550
-32.359522
-49.907681
13.850653
17.747382
-54.977090
-25.644235
31.435498
-12.100613
-4.723387
-4.627597
-6.749435
124.637286
-61.541882
-127.775248
-111.995700
88.829420
100.525961
-35.136976
-50.365784
-4.777475
-6.948505
-5.468076
-30.084967
-51.118435
121.879205
-24.994008
-20.421254
-3.157597
10.502672
7.974056
4.847295
4.716985
3.952233
3.312685
0.404680
0.052176
-1.651476
-3.193990
-27.940685
-22.606509
-0.959217
4.205195
-3.841139
-12.733119
39.142382
-18.577551
15.585258
10.314915
7.762565
-29.179584
-78.664785
-78.110963
18.406648
-125.534159
17.066363
-15.850781
-65.348608
-57.511147
34.176684
-15.762708
-19.882685
1.749399
2.816904
2.697895
4.484779
-5.541947
-17.278491
95.735768
-68.422041
12.214489
49.709943
105.887576
-86.844390
-95.909096
-82.864545
-80.459857
92.850521
-6.778939
-13.238013
-21.926412
11.614323
12.333833
49.788539
-34.420035
-1.331655
-2.002415
-12.158864
-57.612336
-13.899003
103.624912
101.455240
82.680118
97.046038
-74.819172
-113.813030
-5.765311
93.175986
21.638408
-59.587853
9.893220
-60.952949
-52.752864
49.047388
11.137183
124.009937
12.906427
5.147742
-8.720550
4.679895
-103.029153
-84.239090
2.024593
-2.179486
-26.788424
17.034031
126.112566
-124.149732
-107.297240
20.493394
19.492636
19.727315
-93.572694
126.344791
-60.924892
125.098361
-18.862347
-74.131687
-14.204859
-32.374897
130.434445
51.768621
-67.325660
56.114838
-20.186449
-29.125504
-55.051615
-54.565380
-0.006026
13.535358
12.620998
-61.778991
-55.168018
-66.659746
-84.760695
-21.407432
8.866939
-75.831424
-72.081497
-104.920732
-27.662874
-28.668190
-25.835848
132.180241
-13.137957
-46.990291
81.543751
-55.769154
-44.878538
-46.868842
-57.188893
-21.746620
54.737376
-39.791721
-8.424835
3.465491
70.196295
-70.158496
-11.053782
-42.411391
13.144049
-11.799440
42.575069
66.504014
-10.676886
-50.260764
-35.852884
-0.626327
-0.141557
-0.064445
-11.569901
104.768760
-28.565179
-35.557070
-11.018458
138.369552
-2.196339
50.580428
102.637638
19.941472
-10.642044
-109.534992
-26.138071
-52.809381
-118.925343
46.991170
-81.113620
-68.416172
-67.705106
-66.967045
107.971079
-52.336911
-88.436724
-63.084422
88.190336
-69.047810
98.920735
-16.427927
-89.628996
-23.003711
-74.331785
-16.825639
-87.305103
27.639947
10.233961
67.368599
-17.002858
39.937513
93.871726
-51.620773
-10.914020
-11.949902
-0.850155
113.722931
-93.475439
-94.742234
-22.475505
-18.506047
-2.821882
-82.482928
-19.134841
-26.658945
44.950070
-60.397332
-5.953689
-9.813540
-22.287891
22.761194
-57.953162
117.272838
-60.139659
107.422398
-9.967560
-8.774779
-136.560904
-22.748918
29.695105
101.594991
-51.494641
35.632684
26.782680
8.396273
0.000093
-0.586386
24.204513
82.949409
126.569730
10.295021
-0.233258
-20.521604
93.974082
114.185806
3.887645
82.857348
-9.539413
86.613399
-85.767338
-13.145890
9.606522
-80.555231
107.163315
-1.947563
-38.471144
-27.692001
-1.631561
-56.424416
-98.878050
-56.819415
75.756201
0.987468
-121.444152
79.956297
110.735322
100.959501
72.733856
-9.812994
-24.358084
19.037778
55.264238
48.536446
111.040256
104.384442
106.888623
45.907805
-1.219187
-26.387975
15.847306
54.116822
-7.996719
-26.423842
10.547992
51.502073
-28.696662
32.947229
25.970011
0.022777
-32.649620
48.927725
-31.136812
-83.705663
-39.071944
78.627419
2.959099
-0.549333
-61.126473
75.774460
64.563244
-21.910316
-40.282378
41.907153
29.923358
-70.870728
-13.791000
123.155640
-95.663673
-93.157151
10.137935
-7.067396
67.971495
9.513340
-69.537175
-72.662438
-38.457082
3.173789
-69.345310
-25.933470
-8.587259
-16.295912
-26.094079
-0.000036
-66.034165
-54.402114
24.171575
126.145445
109.261354
65.993516
66.846098
-19.906711
-67.596020
49.839714
43.110362
36.346458
-48.427515
-4.566159
57.163588
-65.194353
-12.588513
82.172844
-0.987736
13.490724
-24.080617
-26.917767
102.003729
51.215106
-11.666009
30.255790
9.766354
64.755590
-6.856490
-20.964612
15.136178
-116.687950
-90.235545
-18.117662
111.472417
-19.158456
30.342534
-18.119419
-39.091353
-23.710260
-44.488819
-41.388665
-113.876729
-98.752698
-6.375893
-8.635758
-13.617241
-134.036655
4.915288
-54.091597
-25.788746
-4.133474
-29.856927
-11.580744
-15.443424
42.095860
-25.969801
3.412467
-71.527543
-90.953946
-101.804598
-102.001419
-117.464321
-73.252083
-2.836472
-31.350963
-81.055538
-89.698992
21.523250
23.089083
-119.953183
-128.595276
-32.747935
44.860964
-50.476981
-117.166586
119.670872
51.276361
0.000154
13.552460
0.292752
8.833108
48.032779
-131.759789
-30.427116
-62.454971
55.717478
21.609196
30.350204
0.159609
-140.682970
19.270170
-4.665315
21.275699
115.804658
-5.395120
-57.945588
104.116548
-10.123810
45.497847
94.163024
-57.694844
119.115014
-13.240821
24.992810
-27.382232
67.545423
131.673806
-2.441904
-117.482457
12.937781
-15.849683
-34.509869
-121.753187
-15.820045
45.067708
-39.115571
4.430904
-56.969261
-77.697614
-46.941086
19.689814
47.084446
8.086454
25.296250
61.570505
-60.553585
8.702125
-99.990130
-7.097314
-43.733965
133.284656
-91.697948
-0.094555
-11.158142
-40.179877
13.024199
47.011574
42.397983
80.453931
-12.144283
-20.282040
12.769587
28.832526
-10.924479
-44.966538
52.582103
-5.127951
116.470993
91.700642
-45.694368
55.440441
1.674378
6.176401
80.548583
-48.649850
-132.478245
117.159417
78.876304
62.378560
28.564676
23.033091
72.996236
52.346686
6.126211
-118.080902
117.452462
116.221080
51.620995
89.011927
-9.798517
18.551565
59.501013
70.399693
20.636544
-5.671779
3.173233
81.236974
-6.192794
-90.024648
42.008028
-3.971828
-1.989184
-18.927686
85.733112
15.773824
-132.083224
21.867704
10.308733
99.393957
118.438229
-5.575441
-39.430176
104.425747
-40.636098
50.138045
-85.701804
-68.901214
-93.319631
-93.248303
-101.444638
8.774846
28.249921
-7.130459
-48.054128
126.200014
-124.537432
125.456812
-26.319701
6.137726
-123.916509
-129.066567
-12.603609
-102.525118
-41.037401
37.796631
-58.986852
71.312077
-56.596422
-0.834536
-24.081313
-105.340854
-69.474295
-57.955104
-14.730667
-100.968905
-16.752529
-4.470276
-117.420114
-20.160885
-121.137546
-35.143454
11.627711
24.052976
-29.043089
-118.808399
-5.364155
119.861138
123.236298
-54.366321
40.635874
32.191565
2.675138
21.987646
49.354101
28.916483
-20.217036
1.857804
0.240050
5.839467
25.917476
-77.529003
20.571349
44.766676
18.846650
-0.054835
28.239827
1.299105
-15.319050
78.109074
-103.834246
29.402030
-49.491501
92.634976
-39.592037
23.428202
-77.656132
19.117378
-67.790219
-18.136030
-17.966439
27.806750
16.401162
-131.643362
-96.029679
-71.607068
-63.262235
-17.439449
0.000042
-44.747806
-21.842203
-13.648104
133.996214
41.840332
-98.514335
58.759318
-62.989058
-20.244888
-91.266414
-103.673284
-28.571376
-59.591001
-104.746556
-76.021152
-74.513484
-80.475581
-97.009263
68.283198
92.236907
57.285989
115.706631
-24.955306
-59.762404
39.028642
-74.215349
-14.810983
-93.017536
98.434798
-41.819771
-14.441607
-14.167113
5.843907
4.582839
132.214587
109.183664
-99.573753
-30.440083
-31.604328
83.213996
94.759496
-12.545102
-13.802003
0.454915
-32.939560
-104.432127
-65.783583
0.530540
-130.538295
7.992665
-59.274691
-64.676794
-21.245620
129.239885
-71.262632
-75.326148
-75.752136
-14.830586
-17.155175
-18.708784
108.776030
-23.061358
-28.529465
-28.844671
-36.561523
-32.935358
15.584237
13.735946
13.844702
-35.292033
81.869842
-41.724965
-53.770243
-6.731053
-38.643395
-50.642332
-25.632269
-41.967921
28.899501
-29.842983
-51.383251
-94.120973
-92.462262
-19.702191
-5.013608
4.502937
36.086781
128.256131
101.568981
-5.566078
26.000944
-75.210308
-56.222387
-1.906788
0.860119
97.204128
103.444803
22.307469
-78.904273
1.940220
87.318369
9.241421
-9.359011
-13.784509
51.617865
28.978272
2.455919
8.559267
-59.062818
-112.920939
69.868693
-63.400612
56.876859
27.609659
-19.313282
-19.847750
-13.068630
14.909001
22.728944
-2.108444
-12.630196
98.138296
-42.549146
70.192307
-38.889728
-103.392358
59.825058
-100.828169
63.029685
82.376765
16.345903
-120.010091
-38.320159
0.419790
-94.659287
11.110283
105.396567
-78.377452
-26.316225
16.215991
3.148037
97.387234
-15.476923
-114.289889
-1.572071
4.789604
3.653910
45.216084
26.968722
20.306551
15.766491
107.135240
-12.501371
-16.814038
-0.000012
-15.576721
-10.248635
2.686623
-23.503615
63.791981
42.399233
4.341229
-23.426806
40.392296
3.191197
2.568354
-0.215569
30.636841
-2.781365
-17.880360
44.759439
53.352890
4.528763
-5.728245
100.723326
-1.635422
-11.369329
-55.488946
47.379326
-7.626548
-54.760339
75.955486
21.273550
11.281045
33.536515
-17.652492
-15.549141
-20.387569
-22.710935
-24.938322
24.085308
-18.820323
-2.623084
9.135011
46.824465
99.222280
62.395077
-0.456258
25.353564
-7.081652
-13.919421
-1.831359
31.403927
30.005243
4.464888
85.664508
43.034228
42.333375
-44.479352
-83.198914
13.815799
-17.852676
4.193507
-15.684536
39.282666
22.463012
69.048747
25.673414
80.671439
13.015324
114.630148
12.159184
25.362840
62.035959
29.021279
127.195711
90.076875
21.123461
19.070660
7.487396
5.921323
-5.741185
-25.117779
-23.039567
102.553209
-5.518004
26.093174
-0.000100
65.400655
-5.412176
38.336012
-4.513967
-5.374460
-6.752859
-11.668999
51.921013
42.833261
-50.750207
3.284319
8.420815
-34.017861
97.434717
-1.027335
36.251869
19.374842
-39.608093
-37.321650
-32.416370
21.846199
35.210893
23.162328
13.318581
-28.289373
14.187244
-29.644146
-49.875628
61.034478
59.095254
-47.426798
51.087488
38.468406
-84.958897
63.288276
3.386714
-56.727926
-36.974490
24.443274
-126.188508
-103.431700
18.048744
-121.573898
-36.134366
-56.341202
-2.900696
-62.572946
-36.832565
10.521856
-27.762694
-3.538900
-54.882288
40.463675
-33.558841
0.000107
59.272364
-4.661348
-23.028760
-4.081002
-61.616862
-33.864742
55.801859
-13.816706
-34.067079
-66.879918
-31.228829
-47.373956
49.941505
54.198239
28.053681
56.359181
-111.004475
-61.139616
72.045068
19.101938
-58.146533
-83.543094
-33.502484
-39.231883
10.965472
-0.000698
-73.174649
-41.267569
27.566760
-7.318079
-1.806524
-5.207962
-30.822963
-38.919889
22.771836
13.533287
30.983084
36.815413
-87.521537
129.626701
15.892660
-36.125700
39.428892
15.833181
22.190600
-13.072944
-37.505483
-40.403118
-43.723980
-42.833981
-42.789411
-34.207430
-31.528203
-51.823738
113.020332
-53.928502
-70.737551
-87.702797
-92.519077
-13.284735
-103.236833
-78.557773
8.075640
-88.831378
-10.148265
24.745659
-2.090920
-0.910643
6.892302
9.048170
-88.442325
106.456449
-108.801119
-104.234173
-46.010135
-21.845982
-126.335761
-19.151311
-111.133538
-122.611046
-134.258733
-17.559002
-54.002808
-14.156637
-111.025234
-114.135442
-111.941534
29.913410
15.757017
-26.567166
-121.057814
69.755856
59.071559
7.123541
29.330172
-3.818250
12.054148
-74.224488
-87.924617
-29.881570
-97.690881
17.177688
-27.713915
-55.093498
-48.157057
-53.016841
-50.392687
61.760576
-18.383344
-20.627219
-12.443482
-24.576527
-35.390049
-34.324417
-75.685187
-49.310838
-16.400521
-22.139869
68.605949
50.733222
7.504775
56.696084
50.394278
-4.911824
44.299824
43.559022
-107.543385
-20.465517
-69.422076
87.828924
36.997238
18.117172
82.586770
-58.145802
-106.789636
42.016327
14.239649
-6.474795
-57.404050
9.854297
8.400030
4.841147
-11.171125
-81.593515
-88.967755
24.633756
-11.142647
-57.558797
93.146151
89.133711
-43.554516
-37.774612
60.247656
-60.898667
130.657671
-50.604267
-79.576469
-93.227421
-63.163055
-13.028269
-60.638185
13.053302
-31.535527
-41.081403
9.618026
99.768329
-50.805862
40.047429
-109.651512
-6.459560
-12.407139
45.689326
-50.570323
-3.625228
49.306705
-104.122658
-98.871070
-90.740300
-84.921113
-84.312371
-75.173619
-70.283378
-67.705482
-55.312130
-49.061110
-30.097020
-5.792169
-2.799655
-6.176125
-14.062423
-48.330672
-72.911887
-83.230642
-88.644853
-89.669824
-10.104357
59.584075
6.818276
57.950674
-31.357920
6.238769
-62.231627
-41.957053
-116.230624
-41.925370
-44.616900
48.735467
11.076723
-130.664563
-45.077703
-10.187638
-99.185301
32.087266
-68.284066
39.723519
-78.292128
-76.108425
67.704112
-33.320620
10.736104
-32.476457
-32.941728
-7.259274
-125.005227
-101.207865
40.174016
65.272786
1.560183
1.144431
-44.639639
62.573585
-21.681128
103.108320
37.487274
17.071619
11.900978
88.134421
-60.654596
18.920775
-4.315655
20.626709
-8.461950
-3.772724
34.846926
82.394394
-20.755484
35.918337
-2.921361
-91.053496
-0.367618
-3.892790
-16.524839
-15.758286
63.806935
-9.867696
-23.179319
106.090633
-20.410627
-120.522621
-19.913975
-111.581069
41.449260
42.989128
-15.847450
23.790338
-27.191903
35.573150
19.611500
-15.766313
-21.273483
1.452192
-26.321293
57.688532
16.351124
34.115895
7.365452
5.707872
13.874667
14.660056
8.985616
38.943113
-122.702688
-101.603595
18.377009
-123.030184
83.442820
2.875436
-66.913615
7.318002
84.144481
39.897226
-20.720616
-23.551804
15.257071
-17.218855
-11.702481
-25.557530
-29.873045
17.064864
-23.689911
-26.276760
-31.323975
-2.370472
44.110839
39.649833
32.035260
-65.640040
-103.291722
-62.535250
-76.095242
29.734756
-3.444252
-24.593542
83.837559
117.749633
-21.657518
108.485760
-6.339759
-3.525523
30.664326
100.700109
-52.467757
9.753852
78.167177
42.895002
-6.454701
-10.460002
78.328268
72.722551
-0.088389
35.837092
-25.756127
-25.419004
-26.567807
112.223012
118.232030
-88.047839
-15.833278
50.998676
-7.645001
3.838332
30.599691
29.605707
6.743287
34.255236
37.284313
-31.671339
48.382878
-19.820581
-2.999886
-25.621708
15.400563
-1.555199
-29.440774
-34.365275
-81.337540
3.647299
3.230992
13.777560
10.364709
3.835077
3.247431
-0.011253
25.635335
35.248500
-21.932749
49.955688
16.483583
12.989850
89.235637
-73.616974
2.081314
2.180493
-0.000090
-55.983912
-18.927613
-138.021645
-39.100685
25.915235
34.313783
39.910693
-4.337001
-4.115588
86.107484
54.016556
-90.801709
51.144140
-6.879683
-87.547681
83.478171
-78.837650
72.356811
70.509654
86.597390
-64.618732
36.060027
36.747558
-53.635773
56.986221
132.708318
44.066714
-91.136197
-39.057334
123.920568
61.747829
28.671211
40.123830
-22.705831
63.728683
-31.530154
-11.855914
28.222438
-118.906964
-116.880555
97.054700
27.940454
6.720066
2.560642
84.686175
20.231569
84.368322
82.067956
-129.032715
-140.610815
42.900184
24.509298
26.706956
28.400662
14.441483
22.982026
8.666523
14.303553
-35.415592
-35.649241
-41.104540
-44.071306
-35.494180
-48.088854
-46.745566
-49.870074
-24.903776
54.565156
76.920138
92.028043
125.811818
89.281041
66.243672
47.705655
72.009066
89.011229
-6.086019
69.457215
-109.893666
-106.892527
99.152156
81.874055
82.662314
69.608472
68.702523
68.080574
-55.791999
86.853664
21.848160
-41.644021
38.011979
67.993696
45.025515
9.175097
77.931550
82.959500
46.635222
49.661873
-26.864712
-53.525400
54.078460
43.364332
53.563895
-30.384413
-114.792405
63.290714
-11.255786
33.817310
89.713120
119.710685
100.508877
24.876025
61.806286
35.208670
81.364014
81.251165
42.621932
19.758367
72.465918
14.113109
11.409391
17.092971
11.580668
5.792180
103.506542
115.114483
125.341378
-11.238379
94.669271
94.607321
81.009323
0.834007
3.346366
6.088176
6.423490
7.822458
6.229890
123.371925
32.696352
-27.797454
38.149419
133.617951
19.717097
32.340467
5.976955
3.622957
67.536361
-57.666464
71.526024
8.203955
7.906847
42.915815
-14.021216
34.360079
55.334003
29.954323
-66.607145
72.643610
20.079446
45.360525
86.286028
6.978019
48.451697
29.586516
71.850042
15.701675
3.222923
95.161393
69.763227
-24.065051
16.182561
112.404698
-8.256761
-8.613818
-46.065794
-0.257471
-138.347399
-136.019493
-129.881691
-133.631227
-125.406399
-128.073936
-117.588810
-118.909113
-110.607085
-105.455037
-102.926687
-100.032851
-92.537948
-91.022639
-87.976993
-81.745480
-70.852159
-70.021574
-62.719349
-40.082251
-28.301250
-4.790133
15.119101
23.588067
28.944019
37.401571
40.264395
36.014641
26.777891
8.424654
5.633985
2.821801
-53.459108
-28.425941
-55.260410
-57.061057
-57.038170
-56.799596
-58.394943
109.512991
109.674499
115.669532
125.537890
127.444278
114.727020
108.110364
113.549613
123.391701
110.536626
103.907039
54.177011
57.558857
-8.453824
-56.713490
43.182541
-81.841386
-75.557893
112.694079
112.346128
108.173324
-76.455422
67.543414
-89.149279
46.151552
41.639609
-72.799675
49.166166
-70.253021
52.221260
112.659855
-80.722651
-80.360025
83.907973
27.643976
68.920149
40.324015
78.149827
-15.797604
-113.901976
-87.758825
63.245286
-65.342346
-62.544486
-56.317463
73.871507
84.310115
35.833374
-53.846948
116.076379
-39.483606
40.868639
91.051254
89.907143
93.585563
-93.102880
-97.169949
-104.569959
-49.556381
-58.863536
-50.134330
-45.891110
-38.223615
-22.694005
33.864166
-105.746240
81.317727
-33.955510
-36.943502
-88.852278
77.294255
81.211966
-45.103503
-43.875139
-37.402113
-4.752560
-50.722751
-102.329052
-37.021184
53.469978
70.086739
90.340209
88.894966
-62.615742
-64.274549
-48.521121
-53.005982
-39.336762
62.968246
82.970931
65.139526
-82.396438
85.474182
93.413986
-117.102719
-118.938060
-127.822269
-31.029651
78.293415
-109.485287
18.855832
19.262474
-106.206467
-35.682528
-102.942873
26.494109
138.394374
124.228237
-25.395453
-25.713286
63.065492
69.338095
105.275161
-118.631212
123.422647
120.466678
127.257753
133.706905
123.484980
-105.435705
3.469839
-33.132020
-119.859622
-125.809982
55.196022
69.391868
129.260990
55.289827
102.832232
-17.695233
-42.985903
-51.112461
-91.008938
-83.516179
12.966220
78.818856
61.069612
92.762466
-130.678263
-55.347247
-97.205496
-14.957124
88.429132
22.092135
-81.924316
-30.098380
-64.041648
74.669135
71.605483
-69.290980
-108.806006
21.253180
23.606954
-104.592683
-73.265157
-79.783860
93.015490
100.195578
-107.419980
-92.123533
22.877003
62.019572
131.901843
122.355430
118.100992
49.011907
35.370356
28.331502
-124.793621
81.589622
84.373218
85.247319
24.108797
-135.107595
-86.454493
113.457520
-95.016707
-96.467143
-111.487965
-11.409673
-42.915617
22.893304
102.850730
64.880523
-72.329111
-72.723949
-23.148356
-16.080196
-25.584054
-22.787593
-118.754276
93.227789
-34.404504
-68.414238
-127.104498
18.144777
28.050644
27.177584
77.481814
-116.225357
-32.069974
-100.630415
77.818393
-29.340357
39.532016
-38.149977
-108.664409
106.247352
-72.645099
-94.180819
-88.727968
126.647526
-19.157290
-53.512900
-56.553826
46.652706
50.771442
-76.920162
11.963196
100.104271
-48.969112
-34.141793
-19.374655
-16.261342
-127.527412
-43.861941
-92.461346
-116.882563
-19.324148
-38.753669
89.789913
36.593159
50.722458
-42.574781
-8.232869
-8.672515
-27.961195
96.027026
101.988809
-39.008179
131.145538
140.154835
-110.697865
81.439510
-57.666134
5.511799
28.571162
79.604028
-46.439613
2.422277
2.518261
17.639066
-98.227297
-96.344577
-93.806880
-75.515593
-45.497975
-13.462357
-12.653132
-61.806628
128.665718
29.095933
-83.472054
-80.172380
35.837056
29.385921
64.726699
5.268612
-100.816657
41.474574
96.699733
44.260069
-104.401950
-6.005116
-1.280577
-0.179540
132.492704
2.271522
-30.698344
-71.315662
-22.521256
-19.652269
125.779487
-51.178978
-44.765899
-23.269773
1.783898
-51.825068
-35.918041
0.333037
-136.652650
-132.697670
-130.966850
-129.823233
-127.803520
-103.628436
-50.539189
-32.053243
-33.312975
-27.235357
-22.360576
-12.094616
-7.022003
10.825124
22.862462
-7.716380
-13.325918
-5.213860
-8.199151
6.552603
-59.967915
-61.513840
-63.027094
-65.934266
-24.974353
-25.820490
-67.316662
62.426506
-60.874362
63.496243
-16.531555
-79.493169
-11.508257
-11.730700
113.246786
-10.305648
-9.145868
-105.867670
-21.034835
-32.067301
-110.123564
30.412476
-92.912224
-37.104932
-96.072590
-13.841880
-13.498586
-66.836859
-29.910778
-114.183788
-14.436102
-12.010084
10.966374
11.506150
-38.086979
-9.558214
-43.242973
-89.057762
93.294523
-49.677292
-52.375815
-33.252329
-30.452722
-28.052859
-71.962453
-31.271372
-48.678769
-25.324320
-24.792639
-21.850793
-36.981009
-58.408394
-84.114999
-4.250977
-18.846168
66.740759
-24.356288
12.502690
17.858749
17.459068
-15.135106
38.088167
-10.378523
-4.072852
-52.127627
27.131838
-6.577866
-11.449681
-9.821948
-22.204634
-48.232198
-17.787377
-136.411923
-79.956130
8.108853
30.481484
-58.027623
-4.284220
-0.554238
6.330393
13.864618
-0.000115
-14.621871
-59.732592
-103.442323
-41.583497
-7.777971
-60.434126
76.753155
-75.292286
6.580854
-49.134785
11.009709
14.810769
36.219694
-13.126798
-13.290856
-110.400896
-27.551456
-6.722089
-8.781836
-133.072527
-50.158899
-52.657584
-75.367670
-77.385877
-32.117500
-1.806952
-82.220100
-128.634666
-85.620186
-89.981115
96.232530
-120.869130
-4.903226
-120.920959
-130.320264
-1.027963
-51.152430
-69.755135
-61.759421
-127.445418
-5.458831
19.798652
36.949542
44.929660
5.928839
-55.442231
-137.719787
8.691501
101.176671
-34.165571
54.181528
-43.637392
64.868730
135.406070
93.033165
-74.152560
-79.578064
65.412426
88.892205
-76.832206
-54.734482
-87.996830
-85.947671
29.050153
84.703539
-73.135265
-70.410128
-65.024021
-62.371222
-60.699983
-57.853347
-55.333593
-55.494399
-52.653186
-52.649585
-46.850408
-41.622549
-36.069680
-35.544540
-23.040141
-21.951984
-7.032685
-5.437523
-1.814117
-42.541104
-14.477737
71.317698
-52.505310
78.556749
19.736754
-47.889224
11.336437
93.865078
-0.000021
-46.647894
-53.515007
-3.793320
77.697965
99.634187
-105.966945
64.065422
34.967466
19.485363
-39.005477
33.428340
77.484006
-110.528451
-86.896227
-88.424154
66.234677
-78.849458
-38.696647
138.027048
31.275297
-15.729374
4.389834
-49.948283
-81.011518
-13.365682
40.549496
28.529798
31.604231
-17.900851
24.355080
-79.117148
-86.078777
-94.005519
26.374874
-49.657163
-2.511443
3.312131
-37.651815
11.702681
-16.978472
-9.541078
-63.760117
-124.223638
11.406741
-113.973631
40.300178
42.723354
26.797791
90.292200
57.778463
-82.302429
-4.341316
-66.634934
30.508943
-4.613315
4.490615
116.233667
15.259524
-16.547646
117.969140
-2.706015
67.144963
-51.150500
-9.041823
-7.611110
38.052967
11.387883
82.063770
-30.234651
-9.435834
94.214202
27.001130
-97.254340
-78.628460
-75.876148
5.437526
-12.552139
-18.970035
-22.098376
-40.810280
27.155337
-82.588918
-17.107855
-15.701737
-97.353259
58.876812
-106.599976
-49.773983
-2.892134
-20.645358
7.128023
-41.646813
11.641866
16.981747
-57.165752
-106.514185
1.734592
-10.754346
-29.275192
-20.753717
137.282949
9.131946
2.577954
-26.582995
-19.270291
43.503799
-3.126273
-45.536182
49.871521
-27.907177
-75.394196
-57.832236
-124.013087
-122.603763
-70.480408
-68.058149
-46.322593
-69.594349
-5.633662
13.017451
97.730014
-12.146481
5.319837
-44.263498
-58.180403
-75.399016
7.922740
-70.036132
-118.488394
-74.165413
-79.390563
-54.798663
16.110363
-16.540939
-106.222089
29.651462
24.656237
24.951513
11.353540
8.784550
86.613862
11.765293
26.762201
87.549089
24.958630
22.606038
42.584754
21.747385
46.756362
6.249243
52.501753
-36.199805
22.140933
-52.358477
-11.166363
-49.735991
77.018269
72.629851
11.156792
11.207172
54.241844
64.620947
-125.280970
126.264919
98.351954
52.537434
28.933640
30.422680
60.727918
-108.037221
78.904281
51.654532
68.883535
-7.575513
-66.023171
89.621874
-108.954089
101.925878
-98.765196
80.659031
-8.398144
-87.373479
23.072837
41.266394
51.121532
99.518849
109.415317
-69.542348
-17.477877
-44.628802
1.201737
61.439984
6.095221
16.472814
-4.140448
20.037417
92.376144
39.875936
-27.362506
67.069611
-6.692332
-33.195341
89.720834
16.755288
110.341705
-81.554409
6.673212
121.820076
16.428636
14.911155
17.005577
-4.945087
5.953600
52.755090
1.994482
49.078603
92.330100
28.974525
31.613839
0.157830
114.587590
46.470618
4.419439
0.929963
-1.535942
5.405174
67.027481
-3.305406
-3.459582
-2.013164
-0.859272
-125.071109
-131.725271
13.262472
21.964820
30.457343
-0.000210
5.525928
2.783556
111.663472
110.375924
61.522620
27.755436
61.584005
32.855411
-94.675607
61.435835
36.203113
-96.593311
58.458247
-4.796545
-74.948632
-83.485060
-91.540953
-2.835343
-44.813677
117.532336
128.917790
-29.156546
9.539653
61.721257
92.989485
136.030767
116.876993
1.763119
-4.196557
45.323804
20.095560
-78.532059
27.035771
0.817495
8.619910
-71.438925
66.074624
-2.186552
-23.931726
121.921793
-12.387834
-11.628033
-8.717419
-8.565006
0.690362
-0.182392
0.062542
51.478964
82.481318
97.477362
72.066081
1.028284
70.220705
11.887397
-22.097840
-21.251551
-20.244471
49.714268
25.465576
23.270158
14.824939
11.703051
47.667002
30.363836
-103.867931
-20.020344
-28.636922
70.956790
124.303587
0.743348
31.432643
31.853562
17.724879
19.491916
19.815944
47.916939
24.049120
19.601856
-1.491439
-89.051269
25.051215
23.496659
87.809554
33.713088
37.827935
27.261604
18.288010
93.148667
91.243488
-32.855487
75.006740
2.114614
61.131371
7.403652
-5.255317
7.108594
-1.035206
7.615625
8.344584
9.691809
-29.348934
-56.146874
50.323521
-23.653987
2.437995
97.162687
63.221957
-8.278789
31.771754
47.427725
-8.477216
-138.826564
37.527551
37.596382
54.073660
26.456940
129.160454
-63.222494
-81.253059
-1.909877
-101.156872
-92.133444
90.983016
-59.071074
-16.177348
-43.504559
-25.377819
63.260987
51.150633
87.108493
-18.925426
-47.987607
-23.948286
-86.748554
-39.993083
-45.984012
-48.351180
-57.844203
-67.220759
-32.879007
-29.036744
-17.443133
-18.288203
-39.221418
119.858516
-105.943815
-102.168716
67.221142
64.169994
-109.898851
131.941671
113.350879
12.577422
23.688469
21.490141
-32.716061
-120.463597
55.881490
69.135460
-20.866560
-61.231577
-17.264311
23.177322
-13.017653
75.713209
30.439615
-19.793090
-23.615555
101.558978
65.618090
4.958469
119.202825
-112.695678
-105.833015
-31.686916
-13.706349
-19.702152
-13.176887
2.520441
-18.082818
-24.470344
-24.357864
40.083237
25.869012
-5.531341
9.793453
43.799439
-37.780833
61.102899
56.730545
-83.810220
1.079835
19.042134
10.541254
-10.840296
-0.992254
36.493559
19.695621
109.749316
124.823508
122.353807
-20.504348
109.554085
36.405696
129.829926
-18.652275
12.825135
-27.123472
31.403604
-11.096748
-6.825326
-5.091044
-110.999913
-128.378409
129.667775
-34.868924
-31.528404
-70.868674
-85.032337
-84.385762
-81.435664
-84.732843
-68.330275
-72.310938
-76.273429
-80.212760
-76.270667
-101.273050
-84.918537
-15.958574
-106.645904
-85.911696
-11.648943
-94.415616
-17.184464
-19.620825
-22.737688
-22.565319
-27.019355
-28.933596
-32.880264
-34.531561
-36.502541
-36.997921
-36.838528
7.140348
10.717772
15.876733
16.904638
15.918211
15.888468
14.802787
13.840917
15.372690
-97.244482
-11.257114
-10.013106
-10.166749
109.630063
-44.880460
-39.797982
-8.941574
-100.373089
-34.098273
-12.821748
-67.073883
-13.558938
6.795938
7.235383
7.977786
8.471110
9.216850
8.120330
15.141122
15.941659
-76.282666
-6.852755
-48.772121
-12.955636
-26.648064
8.424667
139.883402
21.102692
-29.135447
-9.071918
-34.322150
-54.454318
84.326441
4.684148
-47.704907
-26.743911
62.893938
-41.228711
14.727609
-61.388845
4.471564
7.691387
-12.881447
-22.246352
-44.435768
3.308951
-3.620532
18.220954
23.478973
-74.399211
-72.447531
-109.535011
56.731711
-17.061250
-8.116167
-108.389476
-0.605034
-56.092535
4.421053
-116.938260
-44.159376
-139.106666
78.849269
70.994776
-94.731087
-11.213104
-101.773292
83.675846
64.498222
36.819717
12.684331
20.902856
23.040220
13.017142
-5.315779
-5.531653
-68.758214
25.110517
74.906117
21.684236
32.117773
91.768376
54.877737
26.946674
0.816683
-0.306128
-138.377087
-104.015986
-99.667026
-96.716958
-93.739053
-90.287042
-81.884193
-77.687401
-62.208510
-53.565290
-46.400883
-44.450901
-41.786220
-39.746078
-2.898966
-8.396180
36.161126
41.582322
121.755012
111.908733
107.582761
-18.743203
-58.318153
-55.801490
-62.035387
-69.247912
-72.704344
103.384952
115.696218
-92.931151
105.887846
-74.977273
-86.741793
48.057012
-10.529619
62.207324
59.192263
-90.450827
62.561638
-9.099214
-59.470817
-67.561168
-70.131224
-67.371912
-64.532650
-58.663453
50.476127
46.194379
53.512056
43.861220
-96.443328
61.645511
-78.166563
34.542630
-124.969771
-86.899978
-84.688176
15.834583
-49.167863
-106.339222
16.637656
88.151649
-27.812597
-58.660177
-79.234425
-81.654828
-86.376463
-85.055630
-90.620491
-101.657212
-86.702646
64.273708
-103.224201
-28.034390
-25.167251
17.572151
-107.075089
-85.190911
34.768037
130.538353
-29.216679
86.835829
-42.398835
-65.140451
49.066046
-69.750741
-78.520924
60.732877
-96.907203
1.085538
31.620517
-51.268973
-14.159870
-45.784328
-42.770322
-40.338003
-11.260594
-16.871883
16.994275
77.685596
-37.589002
-27.036233
-25.287501
-101.560428
50.366852
-11.538891
-46.129274
-13.188023
-77.395821
-114.183408
-82.345217
-71.057606
-87.691620
37.251285
32.778268
31.039981
43.121743
-95.843236
75.712233
-7.593236
-3.528778
1.996756
0.128987
0.651412
-0.972863
31.648346
40.345865
29.046367
-10.002500
37.250515
11.743338
1.719634
3.538942
76.550167
99.702748
12.631243
14.060349
67.214879
5.123675
11.484493
13.310350
26.322777
-70.955138
10.714738
-9.549271
15.105213
5.313434
50.763639
9.761690
-60.833667
55.984483
65.693946
-19.118385
96.954083
123.298163
-0.139753
-10.329842
20.595283
25.394192
-35.885115
50.050377
-114.566836
-6.592834
-3.570919
-2.475652
-2.706653
-2.701440
-2.886063
-1.733803
-1.202250
-1.891138
-1.030703
-1.012339
-0.688154
-0.039672
0.634250
0.072605
-0.292601
1.387292
-0.127946
0.427381
-1.737103
-0.353068
-1.619480
-0.119726
-1.392798
0.098632
-0.644498
-0.645666
-0.886564
1.153500
-0.047460
-0.222131
0.225892
1.733840
0.762821
0.292317
0.227808
2.091950
0.444359
-0.054285
1.436175
1.733194
0.526996
0.222423
30.504698
25.167080
33.283309
72.447472
81.841701
61.661428
65.158117
73.822264
80.211988
70.812735
83.947509
20.748799
-13.613124
43.621098
-33.147566
-11.487678
-121.689753
34.855461
30.982067
1.167878
-8.125203
-29.121968
-19.807221
-0.707945
-2.012928
-17.794498
-43.507530
116.102623
52.861671
49.945918
130.071390
-18.658400
5.380676
-20.572070
-28.209453
-5.600046
-14.347396
-35.435161
-36.417525
68.855343
29.660138
8.672388
102.368797
130.659833
68.139209
-9.488085
-20.485721
-20.526427
31.909687
71.678919
-13.983481
23.217879
11.016462
81.047100
116.132255
7.973853
-97.397761
122.311271
20.610802
17.566322
-6.454476
-6.409624
21.010710
-57.557614
-107.966596
-94.111324
15.557958
76.964025
22.743279
65.158313
-83.384566
-2.098059
-65.124260
36.951652
-5.432421
-34.178196
-28.499952
99.337542
51.166635
-35.225684
-0.610043
-1.286207
-77.332292
21.926369
19.376885
26.197354
30.405738
27.742186
34.540895
36.030918
39.756626
5.443970
8.232490
106.513984
112.193746
111.375561
108.385065
101.793541
135.321398
38.908305
106.593184
113.950457
44.821848
47.847781
105.137548
40.375036
104.406175
115.877378
44.653466
33.972337
-26.950873
52.407868
86.255344
77.754059
94.599680
33.627224
69.020379
8.769809
78.881872
85.506571
39.791143
60.833170
28.762857
-23.074721
29.072443
39.660635
14.241777
134.600385
-116.812811
-75.433176
117.479555
-41.354903
-81.198659
0.759928
5.316673
8.306238
10.483845
-62.337493
36.780598
51.494210
67.138990
-8.969981
115.708289
71.410624
47.322160
122.551247
45.140038
-42.187964
11.091577
-6.230804
38.787786
1.082659
2.101552
-44.525167
-95.685388
-119.897096
-139.862766
22.262414
133.881683
24.111144
114.934326
-59.981832
52.298350
86.594620
-42.506192
-97.042028
13.756945
15.764907
13.928171
-77.472210
-38.035993
38.761583
52.275549
79.230088
-40.635309
-21.988416
-9.174765
-24.994343
84.108983
-99.962115
-23.517730
-43.370619
-97.627808
57.381434
-24.266942
7.035903
-28.827985
-109.428177
-1.222711
55.656771
12.123530
-4.739741
0.731980
47.999400
-86.477693
114.639455
-80.596253
119.386448
53.697495
60.397557
-89.545747
-0.182946
42.788404
90.394621
17.852889
18.703223
15.819761
58.931479
65.676106
-26.973978
-52.644609
52.617415
-10.966433
-57.402308
-130.654224
-139.906286
18.913862
10.846273
-53.609062
5.231281
130.677380
121.386194
122.770592
127.665988
-63.288046
2.429604
60.772962
64.858716
79.069755
87.925081
0.000020
77.007704
85.966933
77.289289
102.416874
59.421608
104.702312
109.536672
36.485196
117.086577
112.744734
20.990372
130.279802
87.704148
18.450274
-6.834639
31.528591
26.138268
-73.866011
-121.096350
-70.667353
109.604813
32.939715
34.341903
-45.438095
94.559103
115.371383
0.580149
-34.282566
42.985747
44.009263
-5.536749
96.230167
-69.257487
17.705767
60.679183
27.663130
-28.387906
9.571065
-85.423075
43.177101
48.774361
-26.073974
-25.714980
112.912613
107.631210
107.017659
104.419268
93.227397
137.311506
28.149086
32.174062
36.199757
-7.814525
-7.780751
121.511453
77.757529
-4.703257
86.889659
-21.123776
94.297120
19.091148
-56.412714
7.606873
50.484523
-23.908237
-24.443002
128.622116
-36.200756
36.303053
6.358473
-63.792658
57.807878
7.149273
-96.548660
84.722174
10.275538
62.207032
74.074252
-7.594357
18.210666
24.955465
-51.954063
-33.758507
56.652068
6.979443
37.416787
-34.951529
90.360366
16.998640
59.269823
-131.675894
-25.441879
37.112330
-132.577597
45.730241
42.150045
40.698025
37.395581
-138.146941
63.558103
21.910438
64.175244
-11.481973
124.443686
95.630003
101.736121
-30.385645
32.829852
103.007213
-16.351267
-0.580655
-83.409116
-11.062337
-1.205395
-122.576979
-132.630277
16.753440
13.139486
69.614985
132.130305
134.996520
136.419829
137.495021
132.079497
-12.058636
-16.875887
-21.686753
-31.281001
-54.985983
-67.555066
137.723623
138.470475
-72.861317
135.213869
-77.720294
-60.763468
133.438667
-82.494084
131.288447
-87.172046
-59.501276
-91.742396
-63.291048
-74.534871
-75.953720
-78.223937
-81.872577
-90.971424
-102.833121
-97.723481
-103.315571
107.033089
-43.869983
49.648022
78.375745
-6.813769
4.387547
6.833257
6.313079
40.389109
64.259621
3.610308
65.685817
-1.496102
-4.488565
64.164962
74.447869
72.463609
-2.755611
-13.473544
115.825003
-19.475285
76.317235
-41.740695
108.472769
-115.843016
114.576725
-56.715243
111.884708
86.928911
-123.294732
-104.309269
-103.633183
-50.208565
-42.616366
-22.699572
-24.994859
-49.716322
105.396865
-125.775627
91.550220
-41.500753
-31.829157
-31.922984
-36.730057
13.576406
-53.097030
-72.886380
-100.115612
100.364639
41.900122
-25.296028
-32.675928
6.944684
-100.908194
-33.213066
18.698367
-105.719801
72.575803
-37.312218
-14.677416
-50.356484
-16.137380
-117.024960
45.948497
126.637178
-46.399992
-53.143560
69.688354
-26.392563
-72.008312
132.940382
114.338594
-56.769318
-60.248446
-63.569332
-32.511864
-31.712729
133.012845
26.691999
35.415410
-40.293941
79.667608
-125.812537
-123.476659
-116.015903
133.323812
-6.545614
-118.857342
13.875572
-119.137786
132.791291
139.955023
-123.491520
-3.193516
110.531195
-45.566095
51.112790
138.782697
37.288961
16.189403
-17.805105
104.597563
-83.522933
-45.736292
-75.655877
-75.757849
-10.521816
-58.391171
-0.051639
128.636399
64.073530
-113.347423
-90.534988
-94.532541
-1.478044
-21.667103
-32.010658
69.260732
66.339837
51.346178
-62.200065
-23.088729
-26.209906
-43.183251
-22.615969
-102.883610
15.941191
22.956306
13.526010
128.685567
-42.904704
55.262980
-13.178846
-8.232511
-77.861374
-74.571565
-79.231788
43.999522
-13.576542
-132.679669
40.103225
42.609522
23.105750
25.756107
26.206150
26.323796
0.000131
-32.875954
-25.050736
131.734924
93.568972
91.764830
52.410525
54.502161
32.511778
-6.415722
5.831326
69.049617
70.423947
13.924399
5.550394
-5.557205
84.089428
66.566438
37.377854
26.996818
25.874766
128.482721
-8.242167
-25.711651
-26.626384
26.392064
60.700209
-44.693423
42.552271
41.772116
57.853877
60.203183
8.564464
33.249693
28.928400
81.310528
78.263054
17.107682
51.901731
-13.139271
-55.060530
20.085144
-41.055393
-9.755962
9.757022
80.288609
2.494322
-129.254889
-135.180456
-121.049912
-118.395802
-116.152381
-113.810196
-4.599343
43.270648
35.474743
26.373150
32.068588
-10.801340
-2.639586
2.696899
1.392534
-28.793930
-57.585836
-57.352646
-8.859382
16.069285
132.032332
91.757842
-13.248615
-80.643906
-76.688404
25.058971
25.733584
-102.932255
77.947855
-4.712697
25.364581
97.540065
87.974461
74.523710
88.055029
71.732285
-48.838598
-45.628975
25.208232
-119.637186
81.022775
-44.409268
-9.965206
-96.471956
-131.561207
6.456008
-82.171960
-41.381624
-39.566699
-37.803562
-36.754354
-1.215067
-59.757767
-87.963738
139.872901
-2.573981
-28.246103
19.162436
-53.621318
53.814626
-28.858424
55.099495
60.984014
65.235749
21.081511
85.446334
35.028571
-0.226733
0.162303
75.358889
137.771529
22.417063
40.178866
5.013529
23.560318
25.148332
133.637090
-17.634992
-1.085204
69.082333
-33.515794
14.394869
123.719194
-106.047531
-131.295420
6.521772
60.579660
21.821311
-14.079167
94.118753
73.264614
-16.923500
34.381835
-16.679005
-1.185848
-6.984194
-6.714429
-138.723271
44.361614
40.293884
5.342019
-57.822837
-24.112285
-12.432884
-14.811985
-15.919819
-18.420447
80.873966
86.767225
58.148902
87.076865
85.285350
-93.526889
-64.395778
-75.106050
63.384021
69.164904
116.527657
111.056642
0.000123
0.000145
57.002629
102.884884
22.259420
124.226129
127.521176
125.918879
94.240909
-3.661460
130.610072
131.389290
-52.244081
18.082300
105.670779
121.111725
30.126486
-40.048415
-2.588569
128.718392
-117.558216
-52.887912
1.277599
13.125711
45.976133
2.636603
-5.603301
61.337937
0.440728
-0.720377
-6.914405
-4.011095
79.702566
-0.951063
1.713550
2.517288
-133.007676
-123.050962
-122.004602
-114.346430
-117.241136
-109.388124
-107.635473
-2.342569
-9.218910
-13.172511
-2.670378
-5.444391
-7.180967
-61.985987
-60.691817
-64.904944
-63.398653
-66.296576
-25.808647
-22.676495
-19.969556
-72.318453
-17.677750
-19.178200
-70.049745
-73.284613
15.459087
-77.391465
-79.037939
86.739163
-55.697133
-18.123826
-74.677156
-17.480114
-11.300950
-9.977926
-8.705715
-24.478633
-28.552205
-30.925219
-34.906326
-7.122323
-38.344131
84.971539
11.444794
10.215206
87.288606
67.828305
103.189759
-10.779667
-12.623059
4.190730
-103.991682
87.106950
12.978962
12.505240
72.880629
-38.815012
-12.981426
17.475513
-5.820610
-96.577690
-9.396966
-43.800754
28.089724
80.324448
-41.332542
-97.367761
36.466075
91.407603
8.747945
-133.692427
-19.793123
-49.331550
-6.512564
-8.494241
17.251410
16.820937
-6.827597
21.903590
18.885417
-2.081751
-51.924333
43.369506
88.435480
-135.404647
-116.041614
26.733209
-124.711953
-27.870464
-51.106754
-21.058489
-129.462819
-41.721134
14.509711
16.955180
-3.358033
5.717829
22.878474
-130.747510
51.230212
-73.821842
-124.598409
-23.068027
52.753394
-9.918704
-66.891207
10.020297
-126.388303
80.474637
-85.513904
-11.126862
58.920993
-4.527785
118.030881
-12.408148
-15.831780
100.030067
-20.099610
102.516249
124.707622
5.213315
-13.209901
-11.702868
7.748803
3.939292
0.485827
35.168582
22.299521
13.212931
6.941381
-74.105774
123.798638
-14.376364
112.202312
88.642203
50.111779
50.787619
1.726344
33.840952
44.481728
12.205065
43.777315
42.452905
17.146820
36.297048
2.492237
-10.126110
-9.881061
-9.594282
10.429435
8.585408
53.527698
-9.273133
41.158722
21.138101
-41.954986
-66.741500
-118.178248
-123.801776
47.805163
48.823011
15.618313
37.118147
13.734222
-33.136139
-0.304264
87.366721
117.224591
-97.758082
11.635394
135.709421
135.661182
8.172430
-14.726640
134.035767
3.979695
-14.581450
-16.299434
-15.189286
118.709191
2.104366
13.469617
17.317907
21.165917
64.671321
124.715982
28.869384
32.071680
28.522858
0.894949
4.430188
6.096937
6.750283
8.394220
-92.994545
-56.135215
74.332773
-99.442556
-99.400352
-47.286638
-39.757098
-21.410750
2.246126
-24.553031
2.102425
-38.592647
17.414878
39.388545
-24.751605
115.316216
-32.322180
-106.759898
-93.280432
-36.161285
2.186521
-107.819264
-30.459224
33.180060
-110.728917
-50.134170
5.869398
-13.929103
-119.671896
41.226072
-3.204415
-69.083733
-69.554744
-121.277974
-6.488160
-3.269416
49.539000
133.637200
-27.230246
-48.431936
6.639489
5.726945
3.584294
-5.492508
-4.182911
-72.467347
-9.621165
14.955455
-0.186291
-26.469811
-35.965549
-4.579321
-20.636305
59.802025
15.605618
16.807058
-0.076564
-21.453898
23.880955
-42.845713
-80.381519
34.124020
65.654706
9.133486
3.423981
-13.666557
-9.756430
-2.725164
-1.558537
0.860172
-67.014577
42.506719
45.024143
25.004287
22.827255
25.419063
27.977112
39.569200
18.271718
17.724276
15.088476
42.480043
108.725744
108.794003
109.478974
105.611703
-10.086869
-12.805530
-16.402451
64.494142
-16.339631
-17.640582
-15.671661
-18.917337
27.539353
122.363800
-97.559874
6.782561
10.523883
33.365977
16.524986
3.061374
80.380915
73.889521
85.131989
95.255232
15.044051
16.123877
64.909765
-10.750775
-80.698030
13.439626
128.962902
54.907913
37.873790
36.079766
-39.976656
-6.711960
0.113731
35.903815
40.553929
67.366379
132.568305
-0.939050
-28.401365
-19.074034
33.688398
-12.348505
38.429519
34.210379
32.232069
97.346664
-36.837655
100.946180
-29.902334
-0.000027
28.061291
-81.025841
94.094595
-13.628546
40.636321
81.687692
29.940809
32.136623
54.153931
6.874364
-0.997641
1.439647
-0.510707
0.022406
-47.870840
37.758738
28.017756
-5.757059
61.354186
-20.233227
-17.552209
-18.683973
-107.548906
-21.820196
-23.750361
-25.150206
116.826846
77.810892
-29.814599
-39.306655
-99.675913
124.420341
46.129705
35.578382
61.145795
-65.307743
21.941887
-5.724754
-99.609126
50.895900
31.487075
43.521829
-32.558274
47.883688
-16.189635
-0.829627
0.798670
-97.385149
39.816450
41.622806
37.949287
33.252654
31.093562
28.998687
16.871760
11.508352
48.475840
25.713059
25.466105
21.531227
47.952194
68.992964
73.986435
84.559459
93.280787
101.251256
134.671275
3.470694
1.495243
44.949534
64.739097
1.332300
4.712810
56.885664
81.808916
49.516600
92.348299
36.040552
30.692021
83.761335
83.191855
77.785903
27.897892
54.986411
94.178307
83.470465
-2.070624
63.333749
106.174470
37.650556
31.281243
63.822697
42.273917
45.092046
103.958994
-10.047148
39.561009
63.582954
101.601938
46.961579
24.289655
22.133192
-4.550388
-89.567621
-36.054253
60.431365
-43.332328
15.973519
48.429719
37.625761
69.256946
52.555853
127.776190
-45.295234
98.868507
100.917882
99.104395
15.104392
2.502000
-0.000193
4.434619
6.766801
11.260844
24.545220
33.131465
34.598321
37.025605
40.805840
38.068209
38.998070
40.525369
41.126769
8.346719
2.819034
0.000025
41.027717
-23.840784
-23.921438
-37.026883
-38.516138
-39.877293
-41.808249
-42.192338
-43.135431
-43.928869
-44.978784
-44.568024
-42.125325
51.411486
111.488811
114.289739
113.057603
129.468373
103.023939
100.416112
97.767502
12.434057
13.648609
-7.520743
127.456113
102.338764
15.430156
38.752971
44.569794
11.327014
-36.975814
-18.003446
51.885680
-92.498033
98.939088
-96.544562
-95.738363
-92.089070
-37.728592
34.186685
-5.267849
-25.547867
11.172430
13.048149
15.336463
-94.074467
83.611156
95.430251
-30.533722
-43.547907
-93.978040
90.824610
-2.191039
83.712562
-63.035938
134.986823
-23.790127
-22.997760
121.171668
13.640314
16.266049
62.558863
43.406278
119.135855
28.666171
39.717237
60.651207
131.938113
8.326141
6.315084
5.973319
123.895061
-23.285153
75.324204
50.820526
119.550321
19.163238
17.386608
10.750168
-0.465300
-2.226130
76.659533
-7.499601
-23.076698
44.567711
-51.482065
-35.903598
-22.939023
14.106320
-22.486694
-33.634402
72.745019
-10.206384
17.948165
-4.405331
-102.985700
83.010082
61.008537
-0.000282
2.884553
-87.839584
13.800037
1.377833
1.314641
126.022271
127.036792
128.686422
28.175290
-2.271392
4.037950
112.833201
27.045763
37.062549
79.928835
80.630394
84.039168
87.417849
106.198867
112.093419
-3.329211
-2.729399
57.116522
-1.981821
140.199425
38.888914
41.339725
17.554813
57.429434
-40.270946
-28.240714
23.418210
90.023717
19.066452
-7.768240
-35.903323
-24.218273
135.807986
72.699042
-21.639622
22.473516
34.979934
102.386886
0.799081
-0.417807
-119.721216
-133.258928
-133.623684
11.147199
2.666916
-28.030954
-55.539789
-54.268036
46.940945
77.214561
86.315204
10.695850
4.336585
2.899763
-1.453468
-18.358145
44.225682
68.876310
78.089144
63.266403
7.584386
-18.672706
-12.762145
-3.568669
90.167555
14.662847
14.455607
6.664786
34.983024
64.900292
61.163652
107.123581
35.466237
6.630101
11.921327
-31.290261
-32.672716
-2.152732
-61.422929
-27.977027
-25.875616
-24.223483
0.000154
25.287447
-49.074008
2.707785
-33.293889
-28.860046
46.977717
18.262007
19.960994
5.065079
-66.204116
28.101840
9.869815
-20.609199
11.598924
61.458537
-30.835291
-30.127109
-33.074166
42.345136
-27.223427
123.206160
113.744148
112.341507
7.741117
-27.652047
2.436970
0.178042
-137.049726
-81.441422
-74.008905
-59.153391
-51.886651
-36.803539
13.801521
40.636082
41.267660
13.897159
5.622301
42.474763
43.895384
45.311291
46.718922
48.114634
0.000122
-35.114997
-37.985539
-60.922593
105.837738
116.622163
118.756655
122.614335
113.808490
122.607679
103.026674
-133.234692
12.303520
9.102755
-12.902459
-15.202433
-15.087298
-14.913852
112.847607
-14.681884
-14.390948
-15.158602
-15.370315
-92.586748
47.169556
-13.040895
28.718099
111.620818
-89.648848
21.021315
36.548637
-10.807995
68.890313
27.041889
-14.854493
54.010001
59.152259
-91.041122
-9.765447
107.108259
52.571961
-10.476721
-62.853052
-9.355911
-7.445470
-72.797904
-60.244241
-57.432246
-52.227646
-51.654854
47.897432
9.094635
34.159741
32.976062
49.292224
-57.835097
-46.442909
-118.027463
29.556911
-41.154238
-22.481118
-22.971191
44.364307
39.348293
-16.676889
60.206572
99.989487
84.034808
-86.597886
-95.634444
-50.863208
-35.798808
31.258234
-42.893720
91.103004
-3.954431
22.699281
21.861871
-34.160291
-41.267594
-69.502742
-77.764884
57.503573
11.307356
87.523614
35.107798
-30.386232
-49.881419
-71.411409
-68.827782
-77.491963
-87.829807
-90.852267
-93.818900
-96.719575
-104.490077
-15.044230
-16.932673
2.434152
-98.990011
-107.240993
-78.417492
-80.289273
-76.285345
-83.301671
65.782605
65.870234
-113.210001
-34.242742
29.813905
32.824234
-1.458869
-22.299752
34.957086
28.300586
23.231987
52.398895
53.133225
53.681332
20.974231
15.316089
33.039064
131.967336
125.052549
119.430303
41.737091
40.865308
-32.404888
-90.600155
37.910626
37.552018
-4.758380
-16.753672
-38.050080
-44.259686
42.769789
24.466019
124.240407
120.590391
-8.188406
-36.613545
16.895549
9.906792
-33.309224
-40.407101
-20.747795
-15.423398
-18.907195
62.769579
-22.460263
-121.515528
-87.838602
125.909090
37.432333
39.745308
5.758617
-3.453285
16.688486
0.000161
127.047726
127.116701
-97.179682
53.317959
-13.897444
-46.482713
14.256164
22.009812
-45.233067
23.063302
-57.854965
75.059003
-36.820328
-32.824764
-91.602385
44.877923
-28.825270
123.711459
9.796115
95.230587
-15.618681
-30.960106
-84.042135
7.499194
-0.000289
-21.501196
-21.826855
-26.918254
133.793075
114.193662
99.994497
-8.075580
-109.513199
18.620687
-45.138311
-92.661494
-110.715891
-44.654021
25.377645
1.090335
1.329385
18.418781
-67.140102
-62.726888
-89.722665
32.938743
31.219061
10.031947
1.960144
-7.006746
1.163609
1.772307
14.640124
-135.797829
38.216696
16.006265
41.052636
47.657220
-7.624397
-10.129267
-8.619657
-34.116372
-42.761177
-44.535807
-45.191931
-41.697851
-45.048609
-38.077386
-36.811044
-36.617357
-46.938557
49.494018
50.590031
50.852924
108.091206
-3.471777
-11.677379
-10.593750
-12.938871
46.184026
-17.483874
107.711844
108.517919
109.915802
-15.863572
-17.510254
-17.277278
-18.735617
-36.288156
-18.571574
-11.904612
-97.391105
32.413694
51.483939
39.428012
-10.496268
97.681056
35.997212
95.984739
70.151119
68.177166
-18.701301
14.027843
-2.828389
49.672637
-57.391486
72.661176
-17.271217
40.319995
38.319943
-45.011399
96.553252
-5.212622
36.081456
31.139710
2.359094
-27.649040
-18.465105
2.899213
82.471513
-101.756783
-22.885543
-50.961760
-48.931438
-23.086471
47.967365
-56.506041
41.752464
29.558653
46.328361
45.427439
46.940217
44.387212
86.550523
90.535595
-52.109673
-34.800077
17.204964
-19.760238
16.088436
-14.285516
11.290727
-34.173539
17.037636
12.275498
11.710553
9.586177
6.867971
-52.250526
52.186802
138.733390
130.293073
64.686748
65.905731
-2.088847
-10.408604
-61.218679
-60.935859
-16.502813
124.285008
10.507428
-12.295057
26.955702
52.063954
53.418513
49.416362
-12.837747
29.833006
100.374800
83.612385
-132.523752
-41.034660
10.337554
-116.898297
131.122662
79.858644
47.267411
36.969815
10.669231
102.225347
36.657219
1.096129
78.442111
-64.158977
20.766682
80.387426
68.963398
82.877214
-1.065607
2.062149
-128.728035
-139.869330
-140.024288
-139.940877
-139.631581
7.887041
14.927748
0.000135
-2.551849
-3.713328
-12.602800
-17.424948
-29.236525
53.491041
17.354552
14.802876
-11.577916
11.272360
7.156429
2.087189
-1.496162
-9.100982
5.283160
-83.250033
-17.073885
-77.165287
-83.887940
-16.441924
-84.929715
27.924642
-81.405969
-19.907487
-21.348773
-111.678571
-84.376179
40.158800
69.063496
73.571041
68.176899
73.044337
47.132432
67.045582
70.738329
-115.308084
-116.336607
-20.029146
-18.665273
-120.588647
-21.773741
-20.092836
-20.097318
47.250316
71.123922
-12.627902
-22.385597
-23.562130
-22.008765
-24.702600
-25.563736
4.643570
-20.041034
35.347129
74.324932
-18.445076
-16.785416
-15.067995
-13.298890
-52.849168
-46.553299
33.143499
113.143501
-9.421897
-45.289555
-44.166910
-57.916603
-74.194002
-35.035078
-34.028900
34.631087
50.815746
-11.867713
-75.258875
-20.769394
44.349509
100.106892
-69.958212
40.731851
19.674173
37.550407
36.738419
75.605507
-82.069402
42.263135
-68.154611
36.772587
35.679076
34.022140
-59.838950
32.850485
-4.213436
-33.004875
106.423727
-19.386584
48.693661
-34.748207
18.404228
36.130148
-60.045447
35.797096
101.271866
-131.873303
-16.397889
-31.409235
-13.961183
-90.262782
-91.251486
2.520324
115.846278
52.256294
64.335241
-109.918101
-13.637942
-15.076113
-59.582471
1.193197
-21.214040
-23.019151
-5.634115
-16.459871
18.414562
-40.551550
-34.980250
-8.179586
-4.799865
81.882094
31.273428
-4.972846
0.560610
1.121095
-93.148823
-81.104260
-74.075871
-66.323264
42.768022
45.304023
30.698628
25.715083
26.357410
36.614829
36.808139
11.182602
19.245395
20.088548
17.534790
-19.758279
48.228314
25.807471
54.760175
116.017998
118.087929
120.013549
111.992397
106.959419
132.218182
59.786733
-28.097488
-37.388445
-43.299426
11.172664
8.528828
-8.089046
-76.036997
-56.642497
-56.326432
109.631408
122.543244
-69.755178
-12.670460
112.605818
26.793318
-67.365816
54.617217
54.907322
-19.557451
-31.209636
-33.739305
-31.419140
-91.769115
53.564307
49.470859
111.810539
-12.301618
-72.553615
-61.625951
-55.657086
52.086575
-24.992933
-26.330146
7.793985
9.370815
66.912450
-11.087265
-52.617820
-113.740647
-93.885432
-33.959737
71.102366
-38.703666
38.900493
36.313038
-22.210652
-10.939801
-54.765667
-82.566389
-36.471024
30.932972
-41.327383
84.648027
56.553009
-33.283539
91.828665
-56.781438
-117.534856
-119.386391
-25.208685
69.785151
71.865635
57.825841
-53.673056
-63.534553
-70.300618
-72.896117
-77.357592
-83.459239
-89.236101
-92.028246
-97.846318
-102.368608
-16.263844
-18.138977
-82.958769
-36.430958
-82.587635
-82.389103
-80.453754
-3.024337
66.204861
-14.020396
-110.794751
-111.756427
-18.681284
-112.970811
-104.911369
29.408125
-20.451593
76.284835
1.222995
117.365537
33.312272
28.033743
25.389211
23.012343
20.373378
-19.611676
-22.406944
-24.232783
16.438235
-15.495565
132.256989
125.408771
122.527231
123.448104
35.888660
-56.192415
-3.959126
-14.192647
83.741212
-48.493485
-17.093255
39.986472
35.649218
10.227805
27.403481
25.621577
-102.405256
35.798034
35.368382
84.374953
-14.028169
129.837180
14.834236
9.840369
-45.492735
-34.079677
-88.838035
-23.856439
6.547307
75.171930
-28.017863
34.543035
42.388685
42.902028
9.266821
5.307552
5.549853
-2.777303
134.323031
12.164896
7.309300
-52.408675
-6.155521
-110.841930
-15.942938
58.744635
-103.384174
42.760419
41.119646
38.072727
49.166645
-37.284964
-29.408645
-14.824825
-16.849183
-39.523794
-32.340947
-21.684682
-96.535544
33.805515
62.004442
2.501244
9.640514
-10.619910
12.144855
20.754898
-2.870799
-45.746846
44.902669
-9.759344
-9.696054
-42.796107
-5.812644
80.222436
80.382048
30.151902
-47.709550
-48.184394
-90.792644
-84.110775
11.589147
4.748031
1.348758
35.516862
5.402494
3.939631
-18.271568
-22.029731
-24.231893
0.000088
44.063549
55.989064
58.350431
62.514923
-7.759415
-16.876425
87.958716
65.159929
121.149782
69.223070
40.184603
-3.163156
-8.792790
-8.269414
97.983734
-8.096773
109.854338
-110.029531
77.444316
-26.585220
-21.975250
-27.734138
-26.998517
91.533467
-4.583103
-10.480901
-11.484300
-12.823431
-9.630525
-7.743956
-24.960057
58.318624
-29.176796
-23.471002
67.089095
-23.094873
-29.736577
-111.358854
13.387566
-24.213821
42.322449
-31.141352
-8.275887
106.112301
-22.979868
-2.403639
53.866209
54.526532
51.826059
56.481980
54.994292
20.297853
38.340144
-3.183507
17.013404
71.104682
-24.679467
53.462105
50.472951
34.800467
-54.527335
38.727483
12.940633
80.123500
-79.697537
-55.887557
-4.394751
30.130008
-2.260540
-14.148429
-26.373647
-22.919344
69.328614
-22.732244
50.411085
50.757488
48.241244
60.430325
-75.606625
-52.656069
-3.284175
-5.461858
-7.621751
-11.859951
-13.924291
-16.727032
-24.968436
64.184531
48.700603
46.939183
45.192015
43.461650
44.535877
41.750603
45.564017
65.919611
97.515804
53.612508
-22.998256
-7.826317
-9.051095
131.186482
2.206795
22.880691
4.800156
39.070517
-26.109219
9.492890
-4.938148
-7.756163
2.924108
42.217792
38.253731
33.833625
31.712244
27.652198
35.231962
2.863366
11.126993
21.566701
20.484621
18.675919
52.227518
57.432131
67.553348
90.620550
98.664197
133.078534
20.566387
6.236619
1.377701
19.797623
130.188122
-17.494849
4.385315
52.341505
86.734771
51.990656
47.715986
94.068417
70.370662
93.838991
85.656066
103.226161
-26.603777
-73.457462
22.900088
101.830675
-4.413740
53.018937
-27.946156
5.172354
40.323262
96.468330
8.506430
-56.943962
25.955774
-20.674944
103.385316
-10.233757
-17.617651
25.546159
-27.458161
-4.183246
90.955435
46.542331
79.370896
46.442596
1.035213
-4.203760
-4.748143
-8.318589
1.593442
1.793322
4.500554
5.739589
6.839494
6.724408
-76.161352
43.870005
41.793995
34.513124
35.408954
31.194281
31.525228
47.392177
13.363440
10.739626
8.083279
9.145564
-26.357468
-27.653057
-30.350352
-28.501420
-32.085433
-35.248936
15.981961
85.180788
57.668801
128.725690
125.833693
63.148221
65.042708
6.727914
6.389526
-4.994439
-6.388880
-17.241153
26.255975
28.513302
-17.534249
51.130832
50.539708
28.860045
32.705335
53.852536
49.873430
88.847581
-8.066789
-7.310449
44.979507
29.775609
86.257862
31.280230
45.782056
42.954101
33.937288
-7.378039
-3.026549
40.966506
44.669301
-30.648714
-9.412618
10.882746
72.064112
-31.381862
-30.501450
-32.711341
-92.441652
48.321526
68.427506
-16.726026
0.000108
-6.043901
-24.644041
-24.978492
-25.215438
-23.274063
83.293291
48.333115
-7.074013
-3.922515
-5.025082
-28.020231
-18.754805
-54.184879
91.252537
38.546227
32.198999
-59.625490
80.460609
129.463415
73.175025
78.295077
-33.302579
-70.090347
8.112082
-18.014416
62.459183
62.519627
62.426839
70.253757
30.373598
-53.721740
67.626903
70.936378
71.214610
-29.665112
-60.047349
50.999675
36.610937
2.226423
-31.345953
67.285783
41.008704
40.123689
39.100130
37.584459
66.115469
63.967813
89.940374
37.985105
-21.490459
-28.964363
-27.409236
-33.712831
-34.231965
-29.827099
-20.306368
-3.386687
-6.115856
-7.449937
-30.093148
18.934293
21.741542
31.223738
60.255805
59.734536
63.066357
58.807840
56.534001
10.476662
-4.809958
-5.632532
-6.707578
-22.827086
-27.350426
-109.629793
-0.000206
4.426592
6.505322
13.238747
38.592111
37.020298
38.090783
33.301363
33.671121
11.053448
15.946673
-37.943428
-32.925594
109.051539
111.989596
121.782082
110.604112
109.603641
128.383415
107.813137
100.651878
14.058931
128.604367
139.319616
101.275158
-3.581246
64.193365
97.996017
44.262782
13.503345
50.117606
25.889139
122.831512
56.093973
56.326375
65.469055
-15.758358
-89.565358
68.860073
45.594395
72.572743
9.757642
11.323394
14.488371
74.943920
98.958378
121.225577
12.004140
94.701726
-3.714539
-1.952430
103.211963
29.793267
71.710551
-61.724508
-82.365613
43.548721
39.844234
-31.377768
41.834447
34.524399
16.192549
14.079251
-24.217018
-23.200803
12.785654
14.039783
12.915582
15.085705
16.073528
16.964887
16.999179
-7.754176
-4.029982
-7.901855
28.201370
-34.278893
65.852370
16.847337
5.244601
47.328369
23.521820
5.060231
6.536106
2.169323
4.602230
81.584396
12.983816
12.465147
33.722473
13.500882
-28.929826
-30.223055
118.853020
10.578855
-31.290137
30.531867
29.126950
-30.510352
-4.173641
58.153994
61.053283
59.200723
29.811154
-5.173055
-4.534940
19.426319
77.444923
-62.951811
15.037427
2.573423
-0.664463
-0.807368
11.108574
-2.334216
-99.334691
-113.270785
-104.301783
-108.796423
-112.850225
-134.988507
-126.931769
-130.012367
44.967088
38.036437
40.250698
25.278427
23.840850
20.959501
27.653088
27.879038
28.110812
47.492268
28.065614
29.439877
31.633814
32.123170
32.709924
35.485231
-2.745911
36.863688
33.674156
32.413458
16.710830
28.791948
18.481334
16.724986
16.715982
-33.952926
-35.591282
-37.377872
-37.112586
-38.510794
-39.780109
-40.914994
-43.012678
-41.910194
-42.760751
-43.462023
-45.730072
-41.191224
-45.687966
-40.001537
-37.530330
-36.254987
-35.411696
-34.957350
-39.635327
-33.640104
-47.552080
-49.391974
-49.077176
-30.957188
-51.247105
26.189548
26.023717
28.668025
38.703437
45.449843
-0.001119
-2.752981
62.184330
66.049638
60.148813
-123.888928
26.178983
26.752187
25.463812
-87.774970
-99.192091
49.876448
47.560926
52.393172
54.186078
48.276043
51.706837
50.783761
-14.807317
122.744116
-103.216796
-102.555900
-36.636334
27.797705
-101.642666
-40.106180
-40.373546
-42.767519
-98.477388
5.522246
-106.817157
-105.828200
-81.908055
-6.524738
-5.712735
-4.877614
-4.767341
33.312259
-103.016965
-40.548964
71.135944
75.875560
-112.336034
-11.634258
18.928743
70.496788
74.942489
35.622940
32.436695
90.246385
-38.253259
-42.940833
-35.154224
0.000125
73.898965
41.934035
1.010162
3.026824
5.033332
7.022940
6.233487
8.988939
89.609407
37.792915
39.203665
30.894732
86.745805
39.753340
32.996665
-36.014234
-32.893942
79.389457
68.888901
72.751675
-4.181923
-45.023503
-45.203114
67.932232
71.507036
-47.327441
-49.305592
-47.010601
-51.129501
-52.791275
-55.425179
70.172354
72.557794
71.698540
71.964837
72.084924
73.910171
-77.543738
-111.729671
-102.978318
-54.283219
72.209332
72.485398
41.445948
86.202516
82.476142
12.280718
26.357294
13.699504
43.124811
-2.406769
14.733224
9.544815
74.205475
-30.216075
-32.446594
-112.086761
-108.812609
-8.275203
13.152201
-59.299784
15.684534
15.181454
14.607598
-5.868610
-45.215575
-27.449344
-24.602421
-21.684046
-57.824080
-58.805618
77.627472
29.800363
-22.139336
-21.063313
-20.034491
48.427950
25.556272
27.676989
26.387170
13.298998
10.940099
12.588697
13.961315
10.385334
-26.497626
-27.883664
-49.963174
-54.015240
38.281038
42.149832
35.869141
16.727048
25.215335
12.405493
-5.794559
-56.391578
16.174928
-65.912883
-44.009332
-20.902672
38.394265
36.286550
30.457401
-3.882318
27.987555
-38.624547
38.543451
-83.851844
7.754370
6.378267
9.044273
13.751449
-58.434609
69.624659
-35.916893
55.401583
-16.532112
-60.254036
33.952711
34.116311
6.677875
44.362481
59.982618
26.809740
28.385804
-41.452513
-56.264245
-54.387153
-54.114652
3.193685
88.069388
-41.763536
-18.105441
40.282906
-45.518724
-46.177082
-51.988871
-50.423782
-49.889543
-48.471148
31.900601
-22.668187
15.067978
14.679075
16.726230
15.668404
15.963887
19.652478
22.521474
-34.239015
-34.973598
35.813124
32.203604
2.510180
26.459970
-36.186392
-36.276126
-38.393844
65.024693
65.595373
64.350731
59.472162
23.785539
50.133531
-36.756444
-40.391794
-42.262533
-43.998799
30.930555
47.800782
27.465639
-2.510197
24.602649
-11.809753
16.780981
-7.731384
62.713612
99.663874
26.755932
44.864018
18.234544
19.739745
21.082714
65.196028
64.522918
50.265445
25.413933
-0.003958
-3.418892
26.864214
80.456268
78.477457
-52.409589
-52.579768
-26.778321
36.276483
-34.444941
78.417741
78.070400
76.551108
75.111010
29.612050
31.632258
31.781256
42.941474
19.507725
-45.563556
-31.907734
66.129719
19.632375
5.913301
1.491421
0.341895
-0.113936
-0.570218
-1.028767
-2.197435
-2.679137
-3.172336
-3.679586
-5.316552
-6.224335
-7.216015
-9.571613
-10.519777
-11.589476
-12.822587
-19.680071
-0.400691
-0.739555
-1.487244
-1.590571
-0.462879
-0.799261
0.269751
0.034029
2.639303
2.638766
0.476182
3.405875
3.755014
2.909498
5.023890
4.411382
4.677834
6.742762
7.229321
6.635829
6.345074
8.284503
11.090826
10.843792
13.247963
11.147177
7.451956
31.026180
-131.927021
-132.776533
46.428442
44.207748
37.728988
33.537018
31.378064
29.281433
29.345652
24.968106
25.075349
25.117158
27.945377
27.763192
25.012882
29.155459
30.447373
17.264137
5.757010
0.000060
8.587380
11.366478
14.079346
8.116357
13.755633
-29.596618
-28.226451
-54.990982
-26.848942
-56.872839
-55.894779
7.594553
-2.531806
-55.760891
-55.413702
-53.452045
-58.441121
-25.466201
25.167161
24.974268
21.974301
20.507647
19.123700
17.768461
17.694719
18.664266
16.459490
17.344824
27.812367
56.317352
61.625858
71.938855
74.398997
81.768000
86.469036
95.372807
-7.236913
129.956881
21.418505
19.974514
24.231429
7.753178
5.404563
4.994361
2.153291
2.267221
-0.719630
-0.757242
-2.154539
90.675480
41.153932
7.270969
63.639982
118.548624
64.219945
57.616075
64.689309
116.446945
24.914118
65.039031
92.907853
90.447217
25.564685
68.132906
106.568235
-73.889493
-71.102587
-68.336354
-65.595043
-62.882362
-62.003474
-60.552118
-57.777834
-58.043418
-60.794528
-55.366454
-52.531457
-43.748119
-44.747573
-55.194923
-55.198151
-42.217484
-38.566287
-39.743676
77.747565
-35.402561
-33.817101
-32.141088
40.225764
44.251473
52.491682
61.218710
70.036454
74.571919
83.523358
64.284763
63.452787
-28.791611
-27.510660
7.179147
74.896947
75.213551
87.503768
58.709632
-103.842047
-25.363884
-21.867678
-20.899779
6.351187
-13.814498
-18.312765
-17.503860
72.056875
-58.220789
89.053823
-14.708928
-16.924966
-12.575351
-9.006558
-5.413598
-1.806136
88.758330
71.657672
-3.148977
-2.262239
-2.897224
86.741358
85.619653
84.122013
82.230719
77.199453
76.808348
67.318687
93.245532
84.285907
105.234088
5.737058
1.716599
75.734983
82.788876
76.120689
79.232902
82.183746
92.109941
127.203857
-51.473645
-47.486772
-45.487867
26.319279
102.316450
84.960048
96.845170
101.437123
-46.265608
-46.351538
-106.057400
11.415393
103.238975
-44.478845
8.685517
21.887161
-2.998045
14.520575
82.833890
115.425989
106.663483
-43.617567
-40.328018
-41.411634
-38.552436
-36.780106
-37.727563
103.314969
110.294489
38.248359
-120.607479
11.436073
100.811942
66.660708
66.606427
63.679103
60.800229
60.938955
-23.088161
23.103734
-19.810668
18.846362
22.996573
23.498281
24.265749
21.846903
20.965214
-46.937064
24.113859
20.899863
-56.464828
21.500646
-3.755719
55.377419
60.924799
55.494476
60.794673
-41.365846
-61.336633
-19.573222
21.168572
19.925279
21.284906
21.313345
23.958904
26.415820
23.144301
-34.478352
55.501375
77.994845
80.565003
21.065282
118.576859
53.928969
-124.907725
-7.107281
-128.101366
-120.888589
-128.680116
-71.505521
-52.963340
-32.205178
98.712034
108.667384
22.285371
63.762568
23.583163
73.044309
74.978072
62.853566
64.450579
57.633710
52.343224
53.627406
100.631797
22.383485
44.777134
44.449457
51.334221
39.005653
33.515936
130.361226
28.791682
29.719031
27.762700
28.904615
28.388091
-64.098013
24.991196
109.860358
74.158808
19.777545
55.532325
23.274734
-61.126030
-63.823208
22.427440
15.415232
102.307616
-67.697443
44.560622
-35.035159
104.672581
92.588067
-18.623202
-23.032920
-23.608241
16.785239
113.659743
-47.574522
66.428055
-64.520199
-66.782093
-17.957142
0.837679
112.266771
-1.206654
-72.716125
-61.060378
54.474720
57.850766
32.141192
64.276148
-122.778181
29.169533
34.239309
80.478876
-71.293150
110.599933
5.144993
21.851002
-60.984274
-38.072963
19.966705
20.106425
18.966490
18.138773
-2.288653
-2.708007
85.779840
10.363649
-57.163933
48.472378
22.101910
85.697395
30.839520
50.344085
3.140939
7.772857
14.286319
-133.738593
-132.657978
37.291916
43.748215
14.332891
8.693432
2.889861
-5.622248
8.452023
8.256951
-27.810333
-24.951482
15.196371
107.241260
124.799021
126.446165
105.254246
105.953308
14.837360
-2.429471
0.000075
6.193321
3.580502
4.114828
91.929030
4.588178
17.470877
90.333548
119.825709
131.627566
129.226193
-19.638864
110.002815
25.778050
112.562463
84.202899
110.980411
-49.548689
-46.428422
80.603370
5.772733
3.648851
10.947295
18.939588
20.102113
18.247764
24.125069
25.550757
31.564795
69.509760
67.179488
60.667020
27.707682
121.102697
-24.211192
-26.630589
29.234078
-0.000026
38.845712
44.471919
-11.065949
1.806161
-13.837728
8.608028
-15.628023
-6.016101
-0.461120
0.446624
0.476020
88.113486
3.951672
27.296520
10.056859
15.307828
92.618904
69.051272
65.915271
18.623334
-3.625525
11.828911
110.718701
-73.359702
83.973431
16.397849
14.811616
57.954650
57.642527
138.739272
5.662066
-28.228272
19.699282
20.462996
19.365061
22.405242
126.049194
125.280198
-43.544008
74.944401
85.441202
35.507594
-5.034049
-9.224744
-8.080779
55.146336
17.159094
-117.529628
-86.315179
96.905422
18.816508
20.136201
20.495025
-5.785648
18.710638
18.743374
-8.184815
44.825582
-1.899503
-3.653238
-15.813371
-13.002307
21.453615
-17.463090
-38.678234
8.062995
-124.827220
18.291378
2.818033
8.495351
17.451376
49.236952
54.586284
-12.753133
-20.132854
48.053568
79.116194
5.703866
-23.014568
59.586869
-56.022655
19.311563
75.376813
-16.006045
62.926085
-122.712906
123.193899
9.377445
21.598610
-33.847670
-48.443038
-61.135821
-7.035796
2.997836
20.520183
20.707645
-40.525320
22.750996
-39.816504
59.665479
-0.665302
1.130440
-0.469749
-0.677910
-0.434550
1.326478
0.184392
2.396985
2.410174
-24.803596
-131.663562
-134.593934
-130.067803
-125.951695
-119.721046
-121.359954
-115.353248
-116.366885
-113.742150
-111.042736
-102.582430
-98.165680
-97.057514
-95.368794
-94.051817
-89.679878
-84.973802
-84.858706
-78.306444
-75.060768
-74.670762
-77.820106
-67.972922
-66.864009
-58.430881
-61.571640
-54.010994
-57.134680
-49.471770
-47.538917
-44.825010
-47.898302
-38.534184
-35.254788
-38.257053
-30.353698
-29.191901
-25.389864
-20.374003
-19.599221
-15.316692
-12.966812
-16.896137
-7.309855
-11.685854
-9.188055
-2.352353
-6.767254
-4.427005
2.263015
2.170037
6.784236
11.289743
9.218438
15.769035
20.211579
18.353059
24.606789
27.319076
33.212549
31.828723
38.654778
33.141212
39.790597
40.809951
-102.026686
31.669917
-10.527992
-15.601429
-8.005616
-5.269178
-5.405699
-10.665439
-2.734818
-0.000229
2.790234
-0.000166
8.504394
14.159536
-2.819024
-5.756924
-114.301205
-25.879415
-61.163153
-65.338887
-6.505694
-62.505084
-66.913734
-63.797451
110.729241
113.950074
116.504840
116.979853
118.951819
121.280269
123.479666
116.365328
109.386112
129.186706
129.966360
130.753277
133.305736
134.265705
111.036749
111.127146
135.482428
110.787827
137.654535
102.152632
137.541830
109.998847
99.662293
137.141297
-133.866164
-124.289482
-24.337032
-23.523391
-22.099184
97.123354
-128.407326
108.740450
12.806522
136.434792
-26.489193
-40.822796
-45.567138
-50.289450
-58.709100
-65.972377
-66.208411
-21.415195
12.903569
11.506280
10.163149
94.543543
106.993223
-72.741098
8.782203
-69.472906
-60.772643
7.368632
103.601360
136.636015
-74.047230
-63.486678
-19.271477
108.250922
-69.286117
-75.279031
100.028180
-18.537240
-70.138174
109.375948
-10.879373
35.915372
-76.119646
-70.889597
-77.488464
110.358298
-16.852365
15.733142
14.587377
111.188257
-80.757733
-82.820041
87.611485
-76.075277
-15.420293
111.854235
86.308771
131.802518
-82.685312
13.008805
11.829920
-14.909968
-72.370533
-93.870137
112.652346
47.354551
-80.766805
-67.062881
-70.812513
-72.082312
-83.573348
-89.013310
-92.483665
-89.961970
112.761468
-66.749130
10.927891
-94.845723
-13.491413
-97.315579
-15.642582
118.202624
-98.056754
-16.842178
43.366131
-90.367917
11.312563
107.547135
116.882242
-12.113377
-12.455957
55.311103
61.537562
65.339359
117.652397
116.482025
83.459238
-79.832134
-94.756228
-99.055109
-99.292995
-10.778939
65.268165
2.669831
-64.575820
-87.313261
-88.458472
-87.614549
-86.624588
-88.098757
-82.328696
-80.251649
-77.619115
-74.987520
-45.896072
0.000056
2.277866
8.039045
12.059241
16.080205
65.034895
-9.491743
50.538246
58.429794
125.010813
-108.222953
-100.362545
-102.684590
-16.362886
114.941189
96.863297
-22.427350
-0.000027
-20.540483
-20.241103
-22.286584
-21.540842
-23.692755
-21.691280
-26.273123
-25.383340
-28.192627
-29.675278
-30.571487
-33.401702
-29.867040
-33.678127
-34.186586
-29.903758
-33.980015
-33.989834
113.773615
-89.284696
64.628184
-7.926092
-9.210858
7.933445
-7.167682
-112.743743
112.322527
57.133646
62.718152
49.060209
-102.752574
-104.523658
64.036499
-36.516867
-39.103008
-39.172518
-34.161082
-38.990641
-7.481913
-62.019099
-90.169163
-116.848619
5.413625
3.701688
-22.913053
-100.197971
-45.250567
7.462830
-13.796783
-13.519499
-27.027685
104.928628
122.034600
117.578496
113.953183
-68.227394
-70.708711
-68.067825
-62.088865
-59.234252
-56.598410
-56.779701
-50.344392
90.737465
84.338452
36.516724
-108.497265
9.006589
-41.904581
-12.090817
-1.365255
0.409437
1.353219
2.081623
3.144792
2.891489
4.021796
3.713662
5.720090
6.534057
6.565954
8.076948
7.446137
8.800119
10.135538
10.743814
11.308977
11.826272
11.572490
13.824605
12.803087
14.176530
14.467421
14.696210
15.586841
14.960147
13.820921
14.991601
16.030701
14.954620
13.797297
14.848977
14.675043
91.126297
-44.489929
14.433725
111.756352
112.107250
96.583639
-34.993817
-41.021866
-11.339743
-10.548416
-10.967820
45.718918
-90.739014
-95.338836
-53.835089
-44.949835
-112.263582
6.961955
8.135332
10.218640
-24.200562
103.320945
12.575389
11.065942
13.989141
-44.835365
65.834097
64.516572
-44.284211
57.256094
58.838084
47.455587
42.719674
42.410696
35.936380
60.213647
-20.006419
83.743363
15.348779
12.082012
11.658111
11.257030
-48.053987
-43.612307
108.826158
-9.738327
-8.522643
-35.352295
-42.361729
62.947017
6.428522
-95.863252
-123.830388
-124.367550
96.440140
-88.645362
-100.063097
-102.245328
-99.101007
-100.954152
-106.723724
-55.888147
-114.190422
-114.261410
-47.844896
13.210017
61.113792
55.769097
-98.829479
-80.478360
-30.249206
32.999186
90.790660
83.198374
-46.471149
16.242315
-25.490771
-21.535201
-24.251836
-45.172517
-49.037453
-21.926855
60.396486
-86.770887
90.212153
-51.678893
-57.808530
-115.804252
5.858065
-12.460890
-84.629435
20.410386
15.849519
-34.247472
-36.579784
-41.889886
-47.074422
-62.566304
-64.905497
-45.714127
59.006951
76.881454
67.983043
65.602174
-30.617872
34.101162
17.117023
108.268616
9.490021
15.437619
16.924926
79.449660
-13.162602
31.686339
-91.937566
-35.282411
-28.375011
-54.789364
-30.457788
-109.382849
5.906126
6.029789
6.082640
-48.584863
-67.300669
-71.850880
-76.253419
-73.237993
-80.494759
-86.602355
-90.395372
-93.226047
-92.518722
-95.985786
-99.731262
-103.506330
-24.171616
-19.713662
9.935203
8.950711
-17.536623
32.742071
92.696348
81.347518
9.150819
7.367867
6.361471
-4.529453
4.988479
7.255668
9.137082
10.430569
11.176197
11.149075
11.050294
9.414761
12.432969
12.191292
56.708556
69.081246
-108.972866
-107.637865
14.448054
63.533759
-102.066676
-103.246964
-127.828285
-34.987435
77.123834
66.211061
-78.477157
-80.222313
-76.462850
-70.270675
-7.052276
31.201796
9.714868
-15.386157
62.725878
66.862688
-113.276963
-115.427666
-16.706616
-20.518717
-14.832527
-13.124218
-34.101626
69.749725
15.393916
-74.943348
88.721082
-112.853705
-116.137327
-108.330551
-100.030196
-63.624572
-25.907934
-49.382657
-53.740552
7.721380
-2.172700
-8.491522
-4.252361
-12.711519
-10.382673
63.437949
132.493255
-38.998222
-30.508202
38.256303
30.096343
25.173817
27.234695
26.141774
20.200073
-30.686620
-20.037645
4.999901
-27.453999
-25.062017
17.438843
12.481815
14.734963
-12.423386
-30.556320
114.321184
14.725788
15.754773
16.723074
17.626655
18.461664
19.440554
21.727030
21.579174
14.373493
13.780772
16.293616
-32.697429
120.884305
125.305710
126.571570
124.471878
126.949460
122.861076
135.066806
121.118605
4.262635
6.849714
-52.342862
-57.207897
-60.524850
-63.247682
-63.679947
-66.720246
-13.262869
-122.051592
-120.517197
-123.451329
-33.257828
-28.944513
-8.135450
-2.080937
-51.420636
-43.281183
7.777839
19.221991
-52.717888
-54.362793
66.111708
6.391096
6.137923
-32.069126
-5.688120
-6.095098
87.550041
3.908232
46.925287
-15.252029
-6.104881
-6.114312
-8.503069
-6.544383
-8.286693
-5.085132
76.403479
15.648165
14.180874
16.960660
-130.287032
-135.703062
-12.539399
87.149521
-68.509850
106.645265
-53.626997
-19.426607
-88.129827
-30.182784
-66.661620
-69.689346
61.778325
-83.210421
65.304842
-28.234892
27.441016
120.637333
126.369305
117.603013
-70.197372
-66.380783
-66.279601
-32.174093
-118.085159
-55.956536
-8.067222
12.164107
-121.296433
-35.204523
-9.408151
-7.052988
-14.333121
131.418472
129.497318
121.293327
-23.481491
5.349049
19.730302
12.094045
-51.762369
6.116612
-27.319610
-54.055577
-53.181060
-54.861522
49.212360
-8.975319
-46.849417
-22.277408
-27.168152
5.959771
33.363954
41.038793
5.248638
-5.807605
-33.258894
70.850695
-96.423150
-32.353891
-27.114788
-23.516639
-24.812633
-16.845985
-22.445011
46.128660
93.551645
84.248732
82.377868
77.691169
-25.915343
101.957382
-5.025313
-54.102612
-56.796230
-51.413812
-48.282866
119.502658
-103.480464
-82.611599
-87.615740
-85.445446
-87.813716
99.903377
34.403849
36.802793
-22.967240
52.890364
-97.157940
-100.157054
136.351530
138.357600
121.357314
15.151278
-126.016351
-66.687796
-68.594681
-41.154065
14.031078
9.309334
-99.904964
8.323772
8.304390
9.491501
8.225607
7.737748
6.388751
6.574068
5.120041
6.055451
5.972072
5.919606
6.717354
5.499959
4.311382
5.107922
3.961850
3.497633
3.173043
2.602656
2.753882
2.433992
2.044159
1.405718
0.766223
0.367920
-0.556634
-0.948140
-1.465372
-1.834519
-2.209537
-3.200027
-31.513912
10.327774
-36.252941
-39.713248
10.378274
14.493686
16.171279
-61.483132
3.969261
-27.549061
55.737496
3.643587
6.312186
24.471443
-14.212554
-12.173891
35.303083
44.088913
32.342049
94.411791
89.083998
-14.957476
-54.571916
51.995050
131.885649
129.311096
-11.259404
85.182469
96.429665
11.553393
-16.558711
-109.181026
-19.377278
-45.569372
-47.240677
-40.178743
5.634311
8.236801
9.320209
-43.406869
-41.884516
-15.769482
-11.522683
18.312777
-57.677622
-22.511566
-41.812046
-49.462084
-27.059978
4.180329
-85.527309
7.266655
9.521316
7.556713
118.629874
10.846210
11.875398
115.283597
115.663509
-31.588878
-120.752165
-54.439015
-47.355313
-50.355503
89.112121
10.491499
13.564247
-51.033082
-28.371217
-5.961352
-123.486825
7.199684
-59.864713
1.578066
-11.386980
5.432945
-2.410880
0.683990
28.835273
50.591978
34.708390
-2.014179
4.303830
-4.023536
71.056445
-10.002866
-10.586975
3.648183
2.801703
-4.634148
-21.011502
-74.131244
82.810722
-83.213172
-107.024818
18.121619
-103.957344
78.304631
7.311179
7.426718
3.877131
50.921613
72.895166
-37.288802
-85.739300
120.513733
-8.504725
-41.203849
-35.108390
-38.901166
-29.814468
-27.441524
67.299901
76.020293
-87.186741
-6.148558
21.951978
26.630528
-83.749392
4.765709
44.450071
-22.010301
-24.975431
24.974980
-98.434077
-85.130894
6.535727
-33.820645
60.120451
62.198952
-19.468676
128.914513
47.286120
-34.313940
-23.103792
-20.191796
10.596191
-73.986630
127.381763
96.595231
99.033996
87.535927
53.912028
-12.507146
13.277605
12.470818
5.118906
-2.501814
93.535571
-69.339442
50.356291
-90.723954
-30.812799
15.759474
-43.012662
-40.137504
-46.152347
-61.912008
12.347635
25.825469
38.134079
44.405659
-23.978634
-8.570820
-14.016226
73.345028
-102.224564
-16.938877
-51.157483
-14.864429
-12.996067
97.886658
-11.672989
-8.774276
-19.175055
-111.989246
-5.628513
-106.749838
102.966993
95.790273
23.014455
29.123963
20.160653
-44.260869
-32.841530
122.049125
2.292967
-20.932644
-15.164488
75.319446
-7.059074
4.516764
15.158057
3.408384
-11.290180
4.421461
4.399873
4.261483
4.562634
96.540257
61.761597
-6.846761
-8.031893
-82.922045
8.791301
-71.917341
-69.619088
2.809471
-36.251249
5.337142
13.461887
-77.799077
-26.142410
-20.974840
-101.419099
-97.772092
-115.190296
-65.675401
-66.593837
-71.407375
-74.460010
-5.709134
-38.068452
-34.343423
-61.989421
-50.922085
78.399601
12.342402
-93.866988
-90.078991
-87.237797
-0.000116
-23.607526
29.975523
31.609370
28.231503
25.478834
16.323157
17.503929
-59.514400
12.742677
45.492065
60.276845
-23.625074
12.822682
0.612917
12.465230
-133.325725
30.834283
21.324117
-31.283622
23.364099
129.958303
138.965318
58.851401
-49.661542
-59.421184
-61.077885
61.291481
-74.324035
-14.837459
-77.784895
-71.192918
-69.342578
-93.292789
108.020898
34.029855
31.048897
119.408306
29.322816
96.033839
-42.627971
-95.196600
-8.226692
60.952485
-19.964594
58.946651
22.263942
20.676082
60.891849
-25.957776
-15.668214
21.967900
58.032745
85.320896
18.658001
86.538090
-46.422386
77.799866
75.685869
56.598805
19.038706
27.457114
-42.992011
76.699703
87.616604
-33.524298
126.600329
56.867062
32.142278
-71.480078
83.808758
-0.749320
-22.087166
35.873431
92.129525
75.033060
96.473314
-39.529715
72.327835
-39.863677
-100.463416
72.134615
-99.002613
-40.102737
90.086395
75.347411
-37.758299
-42.621302
-35.410520
87.245924
-35.474360
-33.153474
90.040724
94.820268
64.549851
99.456381
97.725484
-45.297999
-47.560075
-46.967757
-48.926639
-51.641246
-50.731926
-55.076542
103.933523
-99.257064
82.374687
63.759420
-42.546525
49.462567
36.859275
9.473039
59.983175
54.014938
49.429291
105.834537
7.181237
102.156926
45.784489
10.736902
4.915232
14.825905
3.169743
50.910492
17.695441
19.815460
22.709159
1.639984
-38.383318
-38.011631
-128.752829
-43.033771
51.261241
24.792868
71.373006
31.895862
-82.001180
-45.303408
-32.681238
7.936217
-6.169246
-5.252931
-2.033559
-3.025841
-2.302943
-1.988317
-2.285187
-2.379890
-0.740641
-0.932375
-0.506448
-0.210302
0.443493
0.166353
0.137828
1.022570
0.646982
0.551439
1.267658
0.435539
0.951886
-35.937442
-131.192545
-126.195826
-119.668503
-111.910262
34.363953
34.323951
34.967741
31.134129
2.531998
-64.502483
111.607034
122.097566
130.617958
101.413601
-71.593277
-18.324841
90.775916
-78.448927
-79.301396
91.229074
89.666848
89.146193
-80.036239
87.310600
-91.825873
109.536460
113.688838
83.806428
82.862347
-97.508860
120.402032
-109.400717
110.407971
24.292659
-29.274096
-31.287652
-31.620969
-34.316325
-32.172273
-32.076299
103.992824
-8.765402
29.652200
-124.408341
-21.762655
-9.694858
107.567816
-38.661536
34.987752
14.231340
87.961526
-26.565899
-47.952412
87.689617
-30.821369
-1.009887
-41.472067
80.170676
79.509069
-44.226225
-46.788282
-44.835289
89.697562
-103.572466
140.379931
132.642538
66.379605
-15.887500
-59.320079
62.791014
28.085352
88.860702
0.952358
138.842249
7.115155
-29.513717
96.070300
62.834403
-3.468386
4.060339
1.448390
0.648769
-10.245309
-14.253531
-21.919638
54.537582
-67.768883
-137.071025
-19.863005
-87.157154
-96.825927
-93.712024
-105.274048
59.142978
50.208007
-77.214595
-9.478666
-69.615202
73.385121
98.613365
3.364704
-136.667977
58.390154
-15.000688
4.257801
41.785418
-24.712908
-9.424629
-135.059778
-133.612337
-133.700886
-129.620089
-131.269656
-129.390761
-130.261815
-120.650239
-118.204371
-115.671848
-104.837576
-34.957806
-25.174460
-22.531049
-15.186124
-14.834825
-9.569514
-7.051313
-11.734521
-4.614817
-12.843742
-10.417555
-7.913367
2.734324
11.247474
5.643954
29.838832
-8.843451
-78.271649
-80.594259
-79.680533
86.799280
-82.532811
26.242175
27.285814
-101.435174
124.881877
-60.202512
-58.181297
-49.822115
-44.207533
-38.722877
-39.098148
-32.940079
-32.268524
-28.904581
-26.415716
-25.462478
-19.601794
-18.382870
-16.110315
-12.631230
-10.525184
-9.046446
0.000031
-97.206614
87.294761
116.919819
-122.551876
0.000145
-19.302414
65.094362
-42.649818
13.281462
16.532263
22.013927
-9.481215
-46.066230
107.809866
-88.202425
63.246712
66.037240
17.663646
20.756579
-15.119485
-61.660328
27.368122
26.536072
-30.546090
110.738825
10.890874
97.155802
-47.442653
81.371384
29.855498
25.462490
30.546283
-128.020178
80.802434
28.635567
-48.572256
-34.525200
-23.702160
-100.722724
50.874318
28.980470
27.483545
-104.813442
-8.451857
101.662037
-19.046231
107.188535
13.790903
-49.774885
78.963574
42.123924
-0.707835
-0.502226
33.557206
44.317400
25.879226
-2.559105
-42.020096
126.090011
-16.479576
27.279385
114.382729
-24.289026
1.814118
7.032751
-86.233543
74.298900
-1.451958
74.986995
1.989493
11.950011
3.972138
7.890648
30.822366
-102.498002
18.730612
13.055749
14.469010
13.105830
-2.140243
3.715621
26.250630
43.167875
12.217394
10.205679
13.983572
11.867914
47.231600
36.220007
-51.995348
8.986555
-87.421307
18.196205
58.335865
31.639000
114.186768
61.117300
1.949224
-13.327277
-29.124079
-32.777838
66.967885
19.176654
18.733546
84.236749
113.339267
63.818169
10.033724
121.182858
117.558904
-82.126406
-46.527447
-45.961043
-8.479901
-42.503705
56.609067
9.046452
10.525256
81.871626
2.398493
4.131384
-45.281691
-44.487582
90.577446
64.239061
-103.404783
11.107841
14.708929
-43.577075
55.532993
-35.869569
-31.858767
77.230593
13.251492
70.866874
-30.406224
-3.630268
-41.402694
-15.437741
-13.738930
-29.185812
32.052543
129.638344
44.640484
-53.025605
-57.286610
-60.604642
-63.438925
-66.587349
5.000762
-28.872943
15.475973
7.758796
68.408513
125.068719
-116.880189
9.936251
4.760173
138.715644
4.809425
0.566347
74.644715
111.651605
-3.469912
32.121396
8.333599
8.286369
6.438485
6.003569
0.238542
-2.925024
12.177533
8.135219
34.162755
18.307916
75.279203
50.419541
18.382852
-72.464686
-72.468065
55.064211
11.810177
-55.136589
-51.215489
-25.479421
24.288975
-33.536610
97.908712
-10.972786
-38.908970
-8.553147
26.698813
24.081081
-25.394319
18.573121
-65.847605
56.490320
-5.203816
-8.883707
-77.893164
-36.031509
78.803736
-0.096375
29.339153
30.557702
95.085492
20.649274
93.678673
17.736926
122.570247
69.232146
-91.266220
86.123451
81.023163
96.524386
53.117051
-86.733042
-4.044556
19.822755
23.201997
23.337358
52.379317
108.346921
106.104243
23.043139
25.892460
-5.064919
-6.725132
-108.090556
60.029147
58.410663
1.727614
-0.002093
23.426986
0.401113
39.008098
105.652569
106.753254
65.157512
47.455040
46.525427
47.894738
95.864747
-11.308894
-42.608934
39.116644
33.194775
66.024375
64.814231
59.661384
15.918266
5.610874
-45.022107
-92.858874
-88.767762
38.788688
32.797306
-37.341467
19.862872
22.368704
115.890708
59.899319
8.270143
-77.230013
21.405660
51.491733
-26.946442
-0.214606
38.820444
127.827882
-54.956185
18.817693
-1.696397
-3.198252
-40.602750
20.005132
-34.161046
-95.089650
2.614016
-74.994923
-124.897995
-134.384975
22.460147
5.566201
10.941429
65.342385
75.210426
100.715706
65.166876
69.688606
78.953946
16.390919
7.835853
79.786180
73.908126
79.609011
75.392497
11.995250
12.428297
14.539425
14.683300
13.687951
5.389210
10.419362
16.268842
-10.366059
-8.565306
-86.263078
-8.426320
61.355303
13.652359
-23.498980
19.702087
21.813495
0.965407
-4.764344
-24.389700
81.859902
-48.753651
14.910199
21.311021
122.035601
94.727966
-69.525433
35.281979
58.245437
-100.530219
25.633025
136.676219
-15.419111
48.570119
-45.514794
64.484210
0.000027
-16.976821
98.162331
23.599049
14.027991
11.260466
2.799743
104.911991
98.222089
63.409037
126.244063
9.228155
-71.136448
-37.931773
-29.855397
109.699269
5.174246
114.245552
34.145898
-6.561976
-8.947545
1.911027
2.857613
35.989551
37.588498
0.545900
-121.103703
7.081905
6.501599
124.095017
-65.168668
28.777377
68.455133
95.598304
-6.075367
50.844052
-15.260065
-16.864832
-5.040480
13.254400
-22.370973
-33.142470
-70.760110
-64.891478
5.364074
-7.557294
23.669757
1.613277
2.257180
8.858991
15.728902
17.634586
20.160527
26.242612
37.311631
2.745533
8.461871
111.297057
114.363815
114.178086
113.740079
112.141016
111.000314
127.164237
109.646699
105.584684
108.747578
40.136836
105.780062
43.011914
68.346045
45.932141
109.881071
50.354644
48.891914
117.054127
27.375612
40.146305
29.671006
80.552075
64.226141
94.067725
103.584807
100.729937
71.600134
10.525657
66.592784
27.229684
26.830127
22.530415
127.533918
-76.705667
130.974902
121.572103
134.646955
9.407452
7.994092
-31.342580
-51.191539
35.030211
81.833560
-16.149230
9.024733
52.645098
49.722626
39.606469
114.379174
8.198653
43.083480
-58.339794
0.886291
-116.484856
-133.614498
-138.355893
32.931372
20.191679
27.724861
64.336348
-92.992935
82.302937
25.085527
84.891781
79.770503
29.694787
75.654333
41.863971
-38.091087
-10.846911
115.308062
-14.323012
27.048709
-118.129924
24.939366
35.027581
-8.050986
111.362124
-0.277121
-30.492441
11.159014
-79.082868
-54.316208
33.452776
-16.773566
-3.927374
-13.221677
69.696898
13.584304
35.328640
79.574224
-42.517842
-10.421089
-14.829524
121.635667
-45.392491
-25.987883
67.705552
38.937115
29.860131
-47.793696
26.812981
9.145532
-75.771629
-81.024035
-95.749997
-35.171003
16.976863
11.522506
125.306026
61.536541
45.256483
-96.290467
-16.472904
-13.828238
-11.510465
35.665210
110.776987
24.994508
-29.606214
-55.471801
-85.679487
1.683488
12.865969
-90.543834
72.923318
60.643472
35.852396
-4.906236
45.229034
37.405441
-61.036260
26.256173
-46.981996
14.092763
-1.032322
9.549121
-109.129018
124.972484
17.376859
-47.895403
-42.620432
9.662867
0.954322
-135.141971
-138.803426
-92.933414
-90.044199
-87.132374
-84.340834
-81.319855
-78.083728
-67.222523
-52.572907
-41.475376
-43.084303
-43.122548
-33.899726
17.603338
2.836143
5.793897
-14.840549
-24.939174
-29.909230
-39.815971
-50.763355
-17.150907
109.161796
-60.330277
-16.339891
-97.224236
26.562101
65.017050
-14.434058
120.893189
-93.272087
-86.311554
102.965036
102.013351
117.389635
30.876463
-60.426372
-65.654427
91.517453
-48.711838
-25.690810
-16.904339
11.732979
-30.684262
25.696158
-46.108357
-18.178479
-33.942616
-99.544181
77.526017
85.158015
-135.355936
-82.342743
131.107291
-10.193085
-87.031595
24.995118
1.883437
20.189374
-124.472104
-105.668143
94.749815
-48.125757
-44.449238
115.928856
9.806493
-20.996767
46.958611
-2.999843
-57.256971
99.435516
-38.726865
86.670749
-21.080678
-116.881710
-48.380890
-11.261305
-37.313083
59.618119
116.931148
30.097787
46.400017
106.776129
-39.450885
-10.032492
11.660655
4.838864
-139.466299
16.400716
101.664972
81.103875
-44.653344
-103.289781
-46.200603
53.424113
68.298393
45.132136
3.618858
23.087739
1.353579
49.718251
20.696289
14.414530
-0.000049
31.632531
67.050632
-11.554202
98.820208
-14.802840
-1.501597
14.091077
5.473023
53.067507
57.027831
-7.676534
-129.391058
-4.689312
59.800958
-68.132726
-76.357744
-80.190021
-77.494539
-84.122946
-94.560085
-85.804920
-12.676933
-16.782405
107.839358
59.652986
-17.967577
-22.169024
-21.319520
-23.321740
-25.148213
-29.412194
-37.048454
-39.622998
-36.146960
-39.394827
-12.204609
-101.159846
-40.606309
-39.695022
-8.334952
-4.264793
-117.757463
-7.564134
-7.726581
-129.713719
-33.470766
-54.837871
-99.186941
24.560677
-13.729875
-94.181683
-47.616433
-1.472603
132.681576
57.408348
59.963577
52.218223
-29.030605
36.955118
11.677912
4.079710
-7.021536
20.133596
-52.595390
-25.908812
-51.303230
29.477497
-19.235394
91.351039
-32.801235
-14.490766
52.491802
-24.722261
60.809941
48.814978
74.842874
18.165036
53.739870
-75.868826
-21.539498
-14.551552
-15.982179
-55.304262
-2.328252
-15.134928
12.249491
34.277461
32.922784
31.647745
30.354728
127.828845
-56.636564
104.914906
-98.692525
-84.146542
52.377357
0.000054
2.108528
27.356900
-89.565101
-115.889641
34.416392
-54.736928
-112.338856
-19.325193
-47.311039
-98.977662
30.683788
70.691675
63.719222
-89.014754
-95.201492
-117.966124
66.489511
-24.787308
-28.901770
-100.596526
-133.371181
61.988463
-37.978178
-53.775605
9.993582
14.622029
-90.748332
10.870190
-27.272797
20.792951
31.304908
-29.651922
4.764256
66.321952
-109.834496
-109.754667
-109.959705
22.787056
-22.751281
35.254058
-29.477327
129.871819
-49.428914
27.510791
-6.401024
-47.422376
-113.460499
-85.319947
-82.832893
40.081471
53.338663
48.126101
-80.424217
-42.329104
37.871537
-94.407913
-44.066396
-28.832241
-84.919942
4.925185
125.247950
-47.456334
22.485788
133.381999
133.797493
-34.631633
-84.958868
-13.929375
-25.773059
57.359304
-13.755432
51.518411
-9.688590
-109.328814
-82.182584
-5.348473
-101.297696
81.753473
15.787832
-66.038494
24.584420
34.299477
38.933714
41.761271
-7.529165
52.034338
-11.315439
-15.797434
-66.188979
-17.740836
49.976291
104.932356
11.121898
12.492093
35.354813
14.223386
15.419180
25.677881
40.255241
11.977724
-83.824060
12.625370
-26.357096
26.283228
25.041282
65.716179
34.106687
18.568739
14.308094
-3.001210
5.686162
0.002953
-5.032421
-9.145316
99.001287
7.393600
80.960699
-24.969107
97.094480
97.310978
-28.504531
6.596265
5.206330
102.754708
69.517151
62.518667
-31.564774
4.880411
-1.191803
47.240855
-16.885459
-11.864643
6.226592
5.128097
-3.178836
26.583430
127.659277
-33.440624
8.269348
22.480978
-75.953839
94.991762
17.779657
9.740815
-2.104323
7.103080
30.979114
-1.298835
-2.520050
-11.710327
-12.444679
-14.239449
-16.724816
-17.204856
50.717392
25.369420
24.113271
25.131695
19.799508
-8.820381
126.900273
18.317341
117.240943
-18.700622
31.512285
33.900434
-85.194374
-20.508359
85.671483
78.714199
9.768707
11.130914
11.786334
87.814803
-79.408729
66.586285
51.772954
22.978916
24.212812
22.228805
-20.512769
98.055557
64.392043
20.853476
22.115606
-15.963671
23.118063
-66.122144
-13.125492
26.916706
-54.001799
41.318908
-12.625196
66.634408
25.359120
-21.975147
98.225152
44.478246
29.056660
-16.118484
21.419074
-5.908135
-24.509130
-62.139111
2.898932
0.000004
123.381574
-96.913308
87.724277
108.908666
-93.341790
100.431796
87.900395
96.419891
54.880172
-91.184030
99.179017
-25.696490
-28.184911
-33.536670
-58.881988
-97.696098
73.606811
3.661388
-23.478745
-19.815248
-16.864160
60.524066
57.945269
4.761270
122.945183
20.545383
136.935083
-121.029826
17.233972
48.667257
-13.310207
47.462137
-34.046250
-109.718016
-76.812017
46.562105
62.098681
-73.754637
-76.352063
7.715816
-122.582180
-128.623610
-21.533161
54.274698
126.392832
60.097767
16.883957
60.662028
90.165077
88.438574
-16.899634
46.674439
-37.328418
-42.309526
31.875348
78.223154
76.269493
83.517787
61.413036
-25.679614
9.091837
14.645402
14.874626
12.522714
11.393873
-35.756500
-37.948834
-44.987801
-47.230745
-49.329296
-51.275130
-53.060085
-54.676179
-56.115629
-57.009054
-33.833287
-30.958918
6.851562
-25.096372
89.174394
-25.536523
-22.708935
-59.371132
57.207166
55.063674
12.843625
96.536055
0.197909
10.825012
-96.075727
-26.724372
-15.787647
23.003917
72.674592
92.105804
44.605689
75.497092
-19.736588
123.148434
132.747583
17.649023
29.871249
4.916749
-1.604749
-75.281426
-1.149214
-3.494942
-21.301573
-60.725504
4.881373
4.077016
98.396302
50.798645
-52.897558
34.366423
-0.094028
14.957335
59.324690
48.089628
-52.481336
-48.331228
21.684257
3.343610
1.628700
-38.072317
49.115847
-6.792271
-40.173528
-38.280691
-42.149250
-43.991971
-3.705920
-121.339988
20.901745
-11.415242
104.279129
-47.757883
-52.392334
44.589805
45.996070
2.629629
17.783162
0.000075
123.823231
129.004894
-70.496930
-67.834576
-65.191714
-65.716083
-64.349701
-60.392963
-58.032363
-55.501094
-55.401087
-58.124953
-52.809160
-49.966610
-52.299616
-44.361469
-41.793794
-34.632899
39.976658
73.766862
-26.535999
25.614388
65.973127
-23.144250
-24.238542
-19.689780
-20.595312
-16.182225
-14.764910
-14.060291
-10.578590
-7.068283
-8.607944
-0.000008
100.909743
-2.693569
74.332221
109.430526
10.945995
-58.406770
-26.134780
-118.908635
26.489413
120.837631
25.236195
123.176108
25.363930
-56.783151
-120.439379
48.907198
54.554281
50.289829
-4.374425
109.330060
24.356710
-127.175353
-63.781132
-128.636729
12.419434
37.775963
-3.231682
121.060774
46.968533
92.482009
-16.637519
-21.887011
30.650444
-34.443334
1.696331
-66.450934
77.862175
31.460314
112.805879
-16.026550
91.744098
-55.099659
82.343642
-37.192089
34.177394
10.618986
-28.225324
-29.953951
-32.253564
126.341470
103.475813
59.283992
-12.144715
-4.841464
27.501484
64.998269
-75.863082
-46.983520
-49.164869
7.297887
0.000010
85.846814
90.749661
-48.667466
63.466658
48.651113
82.569623
70.757943
106.795771
10.773703
9.845520
-5.555863
13.365809
1.756653
-29.323461
-43.491647
19.863157
37.795785
-32.004048
69.489615
29.909441
-3.026267
-26.184797
-22.293440
-39.897345
71.921473
-19.222077
41.459105
-68.174510
-27.522439
21.686955
56.063871
-7.056394
130.874469
-29.924168
2.966988
14.062584
36.133743
-20.184539
-128.602825
94.481246
-0.769606
3.853175
130.733759
-130.673296
52.421615
-30.313299
-36.345389
-9.349631
-28.029515
1.054219
-0.352650
0.347094
2.855058
-133.263802
-86.802036
128.025259
-24.296706
56.517380
-36.059759
-62.377920
-4.465068
139.545046
135.825742
-56.317163
-85.472357
-91.761171
-90.779201
-77.628078
-43.270743
53.666097
-2.277776
4.019388
1.924257
9.621199
1.909875
0.000008
-3.220323
113.455407
-19.009473
7.068327
-42.561720
110.570258
10.578640
-74.109933
3.566255
5.274991
4.928187
-120.512163
-93.363988
-110.597106
-42.480264
58.179482
-47.322599
-40.806235
94.012257
-123.659353
-97.915060
-100.111196
-59.877725
9.460462
-44.131258
-84.645737
-37.020681
18.127316
68.754183
-43.622511
-60.210584
107.205170
-125.961627
103.277024
11.613215
16.978400
-127.913770
-21.902389
-124.262027
-18.092097
-107.717731
-19.695423
-106.421130
-23.426121
-22.381761
139.873017
-87.814193
-14.350901
133.376105
6.637580
9.918555
-57.935499
-3.693183
-12.296926
-70.187925
-36.507654
7.494536
132.846417
-129.950847
21.557425
82.146631
-6.888607
-92.587108
28.246247
-109.601794
9.433450
7.040866
-2.840184
-26.595871
-11.000406
-5.000841
-113.338422
-31.689581
-48.688641
16.182246
-23.520092
-43.124433
-27.356873
-18.939552
-126.142050
-34.108939
-9.127981
56.118920
6.237182
-10.196868
-107.811963
49.393238
-21.638582
27.852847
43.532338
-27.944840
-11.963412
-37.792586
-72.059577
139.592463
-16.847774
-132.449957
-32.124024
-108.096618
-108.150044
22.606258
-26.698916
-50.259007
-51.144935
-77.837872
11.343890
-79.323670
-54.792860
-6.533065
0.072931
-137.869908
42.309974
28.225323
26.017683
28.501192
-35.869206
-41.652441
-40.344916
-48.699354
-50.471010
-19.960818
-21.848002
-54.553907
-60.278417
-82.787708
-13.782962
-98.826530
-111.830830
-22.190743
-5.190781
73.888922
-99.569299
73.135080
-2.828388
72.267989
73.998947
71.293887
70.218791
-132.489974
70.484728
82.865473
13.797494
-37.833235
26.184153
-0.440285
17.268091
28.353725
-51.473512
-8.302828
12.184177
99.575175
42.256321
-82.764720
63.040516
-54.594017
55.195540
13.375442
-24.071219
1.917753
-54.523678
54.591267
-39.283602
78.351018
60.584435
35.706846
26.356441
26.275937
26.133778
8.285005
24.552010
30.954142
45.500708
-54.034498
-27.412305
-55.819543
-54.834704
-26.024038
23.017850
55.051594
58.663242
6.914955
-15.756780
-15.535234
131.562422
-99.306826
24.467085
61.193135
88.022891
-50.848813
-43.691988
-43.168466
70.273931
36.427316
87.933885
-58.942460
-60.887246
113.900991
111.490961
-23.198027
40.230470
58.093389
58.125026
-42.275388
58.043714
55.366661
-71.709464
-66.746289
118.551329
59.471184
-82.574040
67.991630
-65.419948
-72.904162
-119.562449
-119.475473
-54.234217
28.504314
-5.127846
34.057577
46.983589
5.448869
1.779399
-9.036899
-58.923959
0.000090
-13.595259
-15.660259
-64.335582
-61.980903
-97.460646
-19.729016
49.678316
-14.802664
90.232919
-127.256856
-66.304395
-85.558487
71.360287
54.534937
92.659779
15.252139
22.139505
-109.028664
-105.232323
-50.246925
-45.424371
-59.196800
-59.708699
8.272954
-58.335320
-82.474683
51.663435
-105.659929
-47.187447
-115.703451
3.463622
80.756428
51.953873
-138.958162
0.081437
-81.225707
-84.095309
-89.616426
-25.956672
-7.886837
-107.450110
-51.261190
-8.693463
-43.703718
120.649175
56.768582
1.129041
-4.985871
-137.452032
-136.343068
-57.951752
-50.913397
-37.080808
-32.295836
-27.442305
-20.200688
-17.572761
-12.165461
-2.263443
-4.435006
-17.945988
-5.337636
-2.697358
2.892004
-11.571183
-10.618763
-11.036263
-14.069770
-60.469999
-63.466097
24.337224
-67.635106
23.625459
-33.179808
-65.896597
-68.913432
-70.124887
-56.358891
-19.822038
19.183928
-19.063049
-16.005552
-83.819445
-16.366224
-16.952213
-14.082832
-95.716028
-77.128452
27.260880
26.651671
-21.076948
-94.840478
2.639065
45.298703
-103.931528
-99.454657
-19.112784
-23.511855
-31.547245
-31.585755
-31.525457
-8.358609
-19.124485
-106.109643
-21.046750
-14.458697
-21.532207
-15.373805
-21.055619
-25.494443
90.041368
13.097008
12.698023
107.251351
-43.946281
-23.097233
-94.587939
-26.976988
-47.874544
-4.015224
78.370938
-122.311616
-24.292414
-78.070210
-73.907682
-71.695590
66.136718
12.918486
-12.715443
-129.590218
56.434590
121.136894
20.689213
-6.237430
-42.607744
-57.930502
-10.947932
-16.202588
-137.647322
121.741269
40.044056
-50.561721
-8.126552
-4.068419
-125.091164
-102.999855
-105.590057
-84.612638
-98.922877
-98.766616
8.056326
-3.415600
132.778767
-61.514070
-17.603773
-55.222316
24.063066
5.129288
13.062450
37.408814
-0.282539
16.484835
44.824169
-131.962586
59.761511
94.758807
-15.775224
82.388140
76.110293
27.060235
1.520492
5.685673
4.129106
-1.238962
-18.928634
19.111786
64.532686
-8.527529
43.636808
-9.087651
52.483289
46.548468
-11.977519
15.245541
-79.868844
-3.664585
-22.441383
17.926497
98.477383
62.981315
0.000148
-104.247071
3.289931
-20.085457
69.252759
-18.718616
-4.733573
5.316401
13.533844
-0.000011
-1.695604
-0.008580
-24.983205
-27.050428
99.187024
56.577611
-28.367900
-24.657080
-34.541404
-115.773113
36.214128
-53.817469
38.984806
-60.121349
-71.257917
-123.550361
18.958808
35.556000
52.253215
51.249012
-63.066567
-52.184350
-99.482034
-61.421232
56.780820
-2.994098
20.426700
-96.321755
-29.976141
-34.543661
-15.181407
-24.440026
-14.395178
10.754166
-75.431182
-58.122371
-25.634365
-46.965019
28.634543
7.897402
46.614410
46.196638
1.907842
14.069951
-16.086868
-0.350822
20.720736
57.520405
26.978458
-67.142209
50.912456
4.246119
37.898090
85.703205
61.230686
76.321620
58.659446
40.154605
-90.463992
36.340395
-5.991162
22.359946
19.598609
128.727301
122.713447
-36.347120
4.498625
-9.002383
-29.203054
-51.679691
83.877029
71.020048
-19.368108
3.337598
2.983369
-1.661937
-21.461430
91.635554
-30.697587
5.182977
56.848248
26.497220
89.706289
38.656927
11.494915
19.028555
22.997602
4.010066
-25.631399
44.102645
-8.797767
-0.575778
-27.879099
-31.852293
-30.342822
-33.722864
36.943279
-7.155623
-13.728008
51.262986
-87.897601
81.909310
-30.479941
-32.933069
66.431415
-4.623534
-25.140227
-25.430810
-24.048839
-7.545472
0.425554
-27.764152
17.482369
19.388430
-20.007214
17.909778
41.377361
-1.095804
39.124502
-31.164371
-26.186576
54.330158
41.885363
-26.122331
17.963217
54.071206
-130.530045
2.762540
13.520316
10.677091
5.166523
-33.688558
20.091928
18.699835
13.595793
5.757256
0.695904
91.037611
6.399644
119.527406
-0.778042
101.656701
-72.434656
-109.073550
-108.473223
12.529663
107.904383
35.591043
-3.568612
33.156810
89.541025
5.822468
30.992430
63.365889
60.302856
55.887612
33.500427
52.601082
51.995331
130.400648
8.091024
120.690698
68.329853
-126.732608
97.521860
-10.947287
60.330005
85.494256
77.327377
0.774499
-1.035370
1.513820
8.543093
28.872415
35.869169
31.858379
22.581019
26.074005
19.158764
-46.320455
-38.481176
-38.219677
-36.132431
-34.916705
-46.332235
-51.661240
30.686455
113.814480
119.373671
12.660090
23.684077
47.538026
49.964081
7.584157
30.183058
10.446963
17.425081
63.358806
41.295417
-23.018866
51.761616
41.883866
68.826860
-98.360330
30.353010
12.509182
17.268441
127.250347
-7.049352
-26.810298
-86.787311
0.374545
-55.195101
8.091927
4.529320
-8.693062
-31.247955
-38.731664
-55.587865
3.565590
-43.208805
-47.039877
-23.923345
33.850711
30.646918
-38.671573
-28.023918
16.487062
74.997852
-46.613428
-49.715109
2.870568
-35.487355
38.533420
-0.225650
6.382163
42.541514
35.154594
68.152756
-4.427975
-35.211409
42.050785
73.450816
-100.434885
-32.705350
48.267258
-27.386124
17.648707
2.602684
17.831017
56.257399
4.388640
-10.324601
0.869602
-29.858106
55.317075
16.498343
62.544388
94.742332
0.756341
39.483310
56.636639
60.917400
33.986482
-97.167758
-52.029671
-45.639050
-60.407815
-119.077862
-92.707838
-47.391243
-61.348837
-22.691659
-73.970752
-62.374924
57.870742
-104.602440
19.847183
-28.535327
-1.070134
-0.015842
-110.984264
-115.311115
-131.928728
-134.989180
-128.721509
-128.214125
-124.441114
-120.531095
-100.921204
-98.616335
-95.793265
-74.646422
-71.021582
-54.908353
-46.057688
-24.421514
-14.735554
-19.730912
-9.521863
-4.766248
-6.784667
-2.170407
4.614350
8.843033
31.712169
33.147245
39.049401
-15.766608
-105.720115
-0.000246
-5.526388
-8.666469
13.481798
114.345484
130.976556
-128.250203
62.078709
-20.561981
9.586714
5.462654
-83.984699
-14.478430
51.214615
-80.969163
28.533962
-96.032026
-0.000271
-98.541338
-31.882988
-105.938424
-13.915225
-12.352229
-75.291005
-69.731412
86.745357
7.658998
10.382100
-80.336536
-20.749030
-23.218156
-26.491655
28.184514
-133.087397
-27.296943
5.321463
-35.718888
-104.290474
8.690297
-128.465477
80.165670
-130.280347
-33.311973
-80.522803
8.188295
-34.807319
-10.836837
-6.239870
-15.685866
37.600684
-130.611100
-120.628452
-7.494641
-6.596358
-30.232839
-16.287904
-23.287914
-5.971955
-4.846161
45.639352
-33.790116
-99.387196
-95.916080
-103.110093
4.518067
-95.556079
88.942888
-1.292386
-35.307753
78.519685
-13.239172
-10.626369
107.451438
-24.132869
79.233631
63.432357
100.056812
-106.008978
98.225707
-5.340253
-53.696994
1.992207
-42.008412
12.661298
-23.012960
-57.891618
37.080060
-39.316082
-36.484901
52.571418
-51.213111
-127.591493
-130.497530
-120.686286
-49.674176
-35.706468
-46.786896
35.573514
69.912219
-110.291520
0.957454
64.769501
-49.877014
-40.553376
-39.986057
-53.215120
0.458085
-6.172354
6.075923
-113.060374
34.913799
-14.916144
-65.101846
-73.385388
53.445159
52.792860
80.975541
13.514164
32.455615
94.049041
-117.783615
-99.531146
-131.728789
-17.448042
-123.821928
-130.703770
-49.338943
36.011415
-111.648831
113.343282
19.738483
87.502572
-92.265565
-9.618219
-5.717274
-6.224058
52.792410
60.443785
86.723975
-3.350803
110.860072
-114.222728
41.504666
-5.821721
-124.959580
37.092515
110.380826
52.662880
44.978928
2.449874
63.785471
-8.361415
-21.047727
-66.405329
-1.733038
97.226036
-0.345849
0.916754
-136.108802
-87.297287
-78.630381
26.567641
28.399189
28.533713
23.086533
-65.685142
18.331755
63.194228
-81.386822
-80.319633
4.279789
6.317116
-5.982381
5.941407
6.692643
-13.444127
-20.772130
-86.726529
-53.481826
69.292426
26.976689
6.745073
9.089939
13.305714
13.140618
78.309943
-78.349742
-120.490329
-113.955855
12.681243
25.139694
43.678694
16.678790
79.204396
-107.347929
-103.734063
38.693740
44.654117
-13.161624
-38.810889
-0.952494
-11.965077
2.920714
-56.253469
-11.247854
-77.993995
13.176628
12.669223
46.782159
18.896129
2.981865
-54.458741
-38.656659
-109.858598
-9.923015
-12.555731
-7.589278
2.752647
-9.532076
5.424735
61.172949
-13.708254
-13.552351
-60.412507
-45.031362
60.976823
-6.053843
12.690373
-12.661379
95.023175
15.615067
6.156117
89.630370
12.564526
66.719329
60.603984
-35.771586
-11.627881
23.484857
63.648781
6.901676
-50.643790
105.078920
10.664469
3.793605
-82.596802
0.679404
80.337023
26.185250
36.813374
36.129722
60.701845
45.518091
69.536386
-93.268523
-21.567503
84.262203
-10.205417
-23.087370
-94.694268
-8.986241
-68.663439
64.853660
48.493730
11.912957
-10.473554
-14.607506
-17.207379
-18.792258
48.053796
16.864363
23.269988
85.256025
111.488796
-27.929934
47.310652
-0.502381
-6.865495
3.676162
6.362340
-2.790653
130.669487
104.738266
16.311030
-8.380284
69.811834
13.913557
-8.709038
-41.865696
-77.415109
-104.400108
25.583489
70.191972
66.278445
1.211776
-5.654502
-7.711493
54.792534
53.834921
95.914164
-69.157916
15.516440
38.453706
1.874750
81.637483
47.622808
110.666976
-3.466840
30.958104
-0.874118
2.041665
1.067577
-127.217707
2.752964
54.437608
27.685355
84.702384
87.129707
-1.255419
-2.884420
109.030902
10.297034
-111.602528
-90.545661
91.544069
106.331085
-23.483855
114.413944
-108.296432
24.238647
95.554539
-53.861804
74.236814
-46.151323
-69.718882
61.980355
-16.753444
22.210818
82.920712
-11.037237
0.207132
2.916228
4.701179
10.219152
32.671191
27.209245
10.460188
50.921960
59.234256
66.836786
83.542886
91.009013
89.292118
99.544344
103.246765
-4.993999
22.784448
21.284572
91.018148
52.070579
44.024202
24.722504
-108.178747
3.521163
104.987179
73.174135
72.361338
-85.051082
-0.962473
71.439298
9.813254
70.414027
72.904654
98.543185
105.869920
12.440863
76.919634
30.385937
-21.079490
69.593079
90.234652
57.840707
90.303355
-117.648203
-117.233959
-71.672695
-43.178869
80.107114
70.695701
60.426771
46.990590
39.976966
60.393463
79.574228
-29.128401
-115.867138
-28.104808
-131.137161
-76.867960
55.198865
52.668620
72.082067
119.640924
-131.357598
-24.142206
8.398423
28.825226
0.724612
109.718835
-9.492959
-73.039159
2.505555
30.186416
6.944549
5.022588
105.547447
-61.541103
91.908839
4.134345
10.182465
91.191885
-12.112791
10.781294
4.014659
41.407683
86.621664
-16.483837
72.495413
-2.817961
20.660859
25.441710
-3.104080
12.829828
49.880759
0.116120
-1.171567
-0.796244
4.962389
5.740982
9.460141
-137.273941
-128.508021
-131.923930
-127.032708
-123.639293
-100.249231
-88.057421
-78.320783
-65.871486
-23.232621
-0.000232
26.723614
26.602837
28.019152
-0.000261
-8.086916
5.628136
8.366512
-29.841121
-25.550747
120.492977
116.805127
117.105759
128.132443
104.587524
113.271374
-16.998492
22.130569
-70.811872
100.077636
-79.333740
-15.255172
88.455357
-83.684771
14.060121
-84.425302
-88.905620
-92.717501
-80.682048
119.321066
-14.078830
86.016488
115.839103
-64.450004
-67.993086
-91.232530
-85.667247
-84.875473
-86.019013
-83.943879
-85.151335
-85.496942
25.013412
24.218324
-19.687427
-65.605345
-13.755971
-63.103740
-64.868751
-75.653996
55.696778
47.452925
-106.777547
91.019960
62.240161
54.120703
55.128882
-25.917377
12.293689
-27.722492
77.721400
-88.810882
-115.801007
-50.085842
-28.330826
-50.874863
2.189369
-42.548509
-84.704176
-38.655262
-34.598784
9.008448
-30.876208
82.652215
40.337376
-31.351495
-52.342864
-84.560778
-0.000066
-49.658575
54.788653
-38.829150
-37.512944
-95.747740
-58.755309
69.534504
-111.042599
-114.787199
-119.210454
-17.037469
-130.850341
58.146257
-80.258770
-22.982196
-132.114571
133.241039
125.940498
124.291239
127.046716
-88.762736
-54.330731
-116.009600
-52.993334
-55.849367
-61.128807
6.583780
75.514228
58.220713
58.181441
60.433043
120.663915
-69.709803
41.203336
-32.278641
19.515850
-98.674904
-9.835473
85.485177
137.070191
-55.533771
-31.609962
31.069745
75.664485
-99.486781
-115.644765
74.715239
136.662738
101.640584
-87.547923
81.266977
53.672379
-46.968332
-101.664432
127.443628
137.461910
23.748380
125.832077
43.348234
-21.996470
33.297693
32.387096
-126.474325
88.861337
-19.179051
135.187476
128.219639
88.476233
46.482171
-32.436406
-69.458202
120.531656
-48.736245
-131.682550
-58.922033
-95.621945
-20.326774
-29.361304
-117.372241
-65.461810
-30.854047
130.752325
41.909887
81.583717
-52.600856
-22.764469
-91.128774
-91.639234
2.423756
46.056821
56.645541
-96.512778
48.584232
53.816880
-102.281318
97.168581
99.093302
97.573191
77.696225
125.064194
-17.085960
113.621474
118.925859
-35.915999
-125.409357
46.839796
-20.212038
-44.402220
-62.560004
-93.415580
104.834089
-8.039028
-56.857921
-83.785054
-5.188476
120.852743
123.298297
130.501043
-15.974031
13.161691
-80.326055
26.379084
23.621794
33.899012
-45.449981
24.420875
-69.035091
50.561001
5.028950
0.895906
31.351269
-22.694313
5.978685
21.748256
19.862618
-28.568385
-31.093295
49.968039
113.913616
81.425617
-132.307589
116.698568
17.149355
80.380327
-38.938977
88.129653
-22.023764
25.076483
-68.642795
-69.906289
-19.928298
-19.112447
-61.192976
-72.217140
-69.135145
-17.463101
-73.249138
-74.188153
-15.534950
-14.537228
-16.957129
-32.797011
-24.844537
-22.776638
-36.381677
-39.581763
-35.788446
84.918766
-42.387456
-104.405508
67.901298
14.813988
16.037630
13.225186
-11.660940
-42.899603
-12.055815
48.349242
-38.782055
-40.250173
-24.056663
87.236023
-41.151467
-19.861023
-39.910842
-15.006663
-46.763649
69.553580
8.731481
-37.906613
15.487733
69.077551
-109.867071
75.259739
-47.461897
16.949247
-52.756923
34.525290
-39.664267
131.222459
-19.685128
23.104162
54.476820
60.057878
-51.250642
-89.818062
-44.416170
-43.548122
-46.139654
4.604630
12.195294
1.189926
-5.472853
6.784160
118.128646
-81.226634
-2.666731
108.023569
16.478722
-65.584855
-127.092533
-108.353235
-50.784069
69.183596
33.991165
36.188131
-6.339456
-81.808674
68.776573
-73.056292
-28.975742
43.060327
3.411352
0.058098
-0.288937
-0.774557
-4.816425
-0.122431
-0.582630
-0.733694
0.210915
-0.250096
0.146803
0.844205
0.475902
2.763261
3.555841
3.828814
4.694305
-118.467377
-126.643108
5.531009
95.703824
-82.481732
-72.006928
-17.350759
-63.040194
-44.561656
-29.718897
-55.377535
-108.232430
-59.982645
-64.853217
54.836189
-115.012931
-135.655599
74.133506
46.309734
24.132370
-72.692943
-49.988120
-44.349089
-51.772474
-127.185052
-9.967925
-83.765318
15.577459
96.713848
-63.762862
-46.675141
2.828611
-38.059843
-91.871340
5.610970
2.916179
-95.274774
-100.998528
93.807234
-99.692373
-2.440253
24.750770
7.175031
-37.168443
-58.623449
48.749221
29.161377
8.705883
-24.053166
-38.284303
32.933751
-37.291963
-8.825999
4.125193
-48.703464
-17.365899
-12.666983
-101.462571
15.395606
-18.127515
-37.025930
-106.736673
-9.056699
-10.890669
124.151600
-56.646370
32.368096
-8.730930
-5.550371
115.259524
-90.034439
-110.714651
-31.728736
12.759439
-20.137843
64.073865
-30.726055
12.020962
-29.507756
-14.091150
-46.604479
4.136952
10.664938
-0.135135
0.893930
-51.920749
-12.217192
-77.760974
7.449659
-31.099621
20.302766
9.828569
54.037965
38.918872
-0.303641
-0.563390
3.378750
-49.979132
-8.780961
7.996779
5.262345
31.144530
16.886566
-10.409043
-85.424213
86.422313
3.691796
34.227973
127.808402
46.026418
-16.339349
6.278639
-34.743287
0.555214
-57.906129
60.244248
-2.412541
-30.706661
14.878205
90.664827
102.001221
18.008731
18.174624
62.013486
66.912204
118.164548
16.973197
25.561788
-54.954261
5.498295
-31.779998
-50.168200
-36.238698
-19.480272
18.292130
29.659926
-7.393612
76.618332
-28.831250
86.695449
-29.861873
59.590230
81.319129
-5.734039
-59.471085
121.376567
8.158791
94.675284
66.659025
105.181032
38.670428
67.891134
-66.129931
-1.250660
-92.382928
44.556626
48.904736
-41.756722
19.792752
40.750688
28.370601
0.173986
-1.402821
-10.600788
29.594042
47.564827
26.392429
53.773511
66.453847
-40.756875
-91.606438
-21.311487
21.212303
-120.879603
-27.580062
36.835229
-28.249874
7.461518
-91.954518
-37.585607
43.928602
-22.956382
66.057084
-25.699765
1.101365
-0.567599
-0.673437
4.813712
5.769442
75.411716
-36.424931
-35.837543
-29.179536
-29.265860
-40.265021
-75.580929
63.568482
-39.049617
-49.270531
-57.643133
-66.567493
6.495205
26.050447
10.682002
-1.395241
131.751870
-15.153518
-69.518446
-32.939394
131.376633
23.546818
-6.386735
-21.323876
-61.036008
-69.862927
92.725805
129.152166
-37.433024
-41.841071
-65.853593
-3.293748
-0.792481
35.544639
0.822890
-20.785791
-3.968223
-37.168531
-119.229725
-122.759857
-125.921662
-122.549725
-111.377803
-108.864768
-2.257631
-2.889812
-9.986553
-52.346505
132.304153
-93.348728
-46.823401
-21.862168
-4.477223
92.475002
-125.335590
99.383074
-111.612279
-112.525004
-20.104391
29.191229
69.343925
21.439075
-132.369331
52.968907
-82.622077
3.757332
16.374286
87.839416
-83.819610
-122.092813
-66.601644
-20.080113
-0.737395
104.301628
36.097821
13.473472
19.009355
-88.554591
-13.649035
0.308634
2.512842
-130.671304
-137.783593
116.151323
-9.698369
15.685639
22.439846
-18.696293
-60.277223
108.188521
100.618953
96.210483
4.777518
10.631257
-7.270562
-11.613313
-9.213681
-0.116124
-6.027603
12.432286
-110.379040
-116.516221
22.818866
-69.171045
-93.572925
-86.637449
-16.339676
10.789925
-85.683088
-7.977104
-7.564410
26.626653
-28.891294
-39.490358
-12.808316
14.182346
-37.829439
-26.081127
-88.964141
-8.778940
-42.374229
-46.621454
-100.143917
30.614062
-26.649418
5.042922
74.109900
51.862395
7.535366
-51.636549
10.852315
-23.923706
-5.909189
15.654268
-48.426346
-50.928831
-19.240845
-111.012605
-66.767632
20.911979
6.169995
1.482346
-113.706901
12.018244
-11.305293
-100.813064
-130.744572
2.198396
-81.767995
47.723771
-86.927561
-52.756093
-96.798985
10.245590
-0.122507
-14.110946
-86.819565
14.551659
30.706827
58.000904
12.662779
121.051297
-39.781400
46.294451
20.006569
0.513226
-0.831900
-101.992336
-42.720458
-46.634926
53.061555
-103.243188
-24.110579
-89.454157
88.152313
-85.773579
27.441641
29.328675
17.946223
45.207739
-125.063956
69.301234
131.928640
-99.114679
-139.060859
-135.214952
-59.143946
-47.170363
-85.238244
118.342368
-24.466558
-98.362429
24.211178
-13.361867
3.290423
4.877970
46.868145
1.069953
-1.251145
1.699124
33.676207
-22.451129
11.679091
50.159668
-6.327174
1.932308
12.018282
68.336434
14.764882
7.149171
7.744221
72.342757
18.117052
8.126353
49.330324
19.909811
9.184615
7.191359
35.377900
-4.445192
32.085091
15.356216
-0.249392
-19.128006
72.768860
0.503188
-1.269610
-0.887244
-0.085482
1.019642
92.540650
-96.476096
-17.317881
24.334109
-126.949017
0.567572
-1.634735
-95.311642
-58.927560
-40.805993
-48.543746
-33.672649
-101.567280
16.515407
0.149023
-60.708111
-32.192787
70.152938
-111.961796
-0.612703
40.344406
90.851583
-6.887364
57.043542
120.732844
-14.895538
33.133255
-16.361572
-26.505126
21.249259
97.264789
1.347728
-19.507669
108.696095
-24.565440
54.401168
51.436867
0.405551
46.320640
121.748660
-32.062929
11.771014
0.577387
-64.836771
29.567475
11.372751
0.000145
-21.748982
-2.267945
14.874684
112.329338
-29.105679
-44.758618
128.380158
130.545621
-121.310004
-7.102075
3.893054
50.986059
99.713937
94.043884
17.822050
49.980811
-49.461225
-1.806909
32.002357
5.340449
-26.989388
-56.998935
84.612858
113.978955
89.191935
71.193817
-48.225855
106.913773
29.621983
2.330158
28.097714
57.531793
50.259449
0.358615
-36.193569
107.497800
-18.165338
110.032585
-97.438693
-26.017797
12.188823
-16.696968
10.014387
21.534995
-120.015314
-113.922981
-51.906984
42.217976
35.114633
-35.076110
38.510525
-132.558664
33.292564
-0.000041
-14.976034
-19.777331
-60.345788
-67.926774
-60.917198
-18.946041
66.216035
-13.087183
-65.157687
51.737057
-32.166577
-57.633278
-60.502304
-6.944302
-123.715009
-52.890970
-121.414329
-113.907677
-38.255576
-110.110310
92.583162
-88.861854
-90.981864
-85.255438
-80.387202
-8.599082
13.781012
-101.250733
-24.925815
-11.312327
6.213910
21.865664
76.350620
-38.801052
-128.626156
-18.183817
9.477472
4.398324
123.954177
-51.334015
-36.350458
-26.382219
-37.409361
-0.265487
-30.714068
-101.600627
48.860797
80.418982
39.614500
-35.996880
14.048606
-21.965236
-57.159675
-107.032787
-20.932034
-40.549793
7.687433
-73.932422
-23.881557
-86.747696
-83.200067
36.430785
-11.354522
3.432248
-40.523964
-35.520005
47.407501
-13.867883
-123.960418
70.410288
77.618106
-88.022183
-46.847533
62.372059
-46.184006
31.852160
-104.669988
5.105712
8.780023
-0.914530
16.055703
-12.202391
-44.807678
-90.206542
-44.318773
24.700597
60.026337
-114.085290
-38.812374
66.405054
0.621004
4.210285
5.480830
113.203912
-81.594006
121.005593
48.377831
75.302235
-41.137277
-86.378625
-44.011371
-71.055700
-0.390201
-123.350482
89.818304
5.089572
-14.128004
97.444269
-17.178432
135.114942
19.131245
-0.211836
-133.274022
-7.790403
4.173187
-70.210601
-88.895144
-34.482088
26.467288
7.137441
-10.420740
-43.957321
-12.267508
-58.136569
-110.364551
-10.825500
14.579802
-8.106559
-9.214625
-84.261012
109.613700
-10.384651
21.786872
-26.830713
-22.782711
-72.339110
-68.342852
-1.609947
5.575618
24.504197
119.334134
-1.753456
38.954303
-129.237848
-10.903885
5.682452
55.168347
-14.414769
17.365645
-47.723343
19.906104
24.111040
-0.000242
41.740390
-33.990980
9.550574
29.105526
1.794844
11.199671
-102.720559
8.504647
96.448935
122.570347
37.780120
-137.343255
16.944664
-112.660914
-57.606176
-21.523792
100.021599
116.182694
-128.480926
0.673397
6.639445
26.958972
2.684744
-10.326778
-1.881613
-0.375904
9.338357
-8.832880
-13.105706
123.640943
23.551828
105.934684
92.266073
1.239260
17.753448
39.586379
-50.264992
-4.489110
65.192150
56.135782
17.909025
46.943695
89.005921
104.489929
118.933245
77.990480
-11.289898
19.215844
8.176951
18.163227
-9.632145
-21.966510
-28.417878
53.941166
27.966445
0.919362
28.998564
6.898494
19.181415
58.092813
41.924996
61.514141
93.470022
-25.075817
33.502161
42.082278
-87.114013
-94.547866
-82.477612
-77.949380
-3.419154
-0.704707
0.101111
0.216040
-68.241532
33.401957
15.942955
15.532231
39.503574
-5.648471
25.935311
-19.176336
-10.730902
-27.464071
21.657175
-41.726297
33.820834
-3.141249
-2.010551
-27.210270
-39.409424
-1.573660
-13.923610
-11.487892
82.266339
-70.422223
43.820840
-119.323241
-10.501903
3.568546
41.888952
4.697323
-11.182834
18.959822
-133.442634
38.291846
-29.259353
-1.667686
-22.200152
-62.792070
-87.244674
-60.645092
-24.761398
-78.008765
0.240235
3.059463
-14.079052
-15.827784
-12.994383
-16.072846
-11.866539
3.538296
-1.542706
57.677139
38.667967
38.557587
-61.415281
-113.309509
-52.789951
-3.976469
-13.251570
-83.616065
-95.011938
-35.853296
-1.432989
11.018301
-24.995714
-41.218255
48.567705
39.166766
-0.000037
16.726494
-13.055097
-0.216968
6.505760
-106.278846
39.632385
44.692583
-5.095981
-42.150674
-71.100385
-16.267977
-13.570844
-95.599905
-16.673983
-84.753546
-26.578405
-50.650690
-8.353765
-7.913448
-13.702988
-41.250908
-11.338129
-94.161428
56.002017
-104.766802
-4.257412
-43.558714
16.067877
-42.413677
-5.838474
-50.985378
-19.227494
-107.086500
6.075277
-45.686036
-39.115826
62.679337
40.923572
17.474696
42.415689
38.989011
12.150200
-20.093174
-31.614224
39.617679
47.176954
-18.862232
21.923232
44.479575
43.490427
18.005360
42.398324
114.131645
-20.693190
0.402255
-0.229964
6.325182
102.397094
95.478328
132.013687
-13.569147
139.119118
136.585616
18.197707
81.681114
-0.058101
-5.089899
-127.380118
-125.247313
-123.000686
2.705396
-1.314360
-15.037253
-13.418325
53.458142
99.731064
-117.008477
-2.406887
-17.561188
-14.350235
-32.456046
-40.195365
-57.584886
51.260529
-20.710242
47.193643
36.242901
-122.309578
-33.638677
39.216198
-3.858407
-26.629787
50.170371
-22.879262
-42.998496
19.856018
58.402165
-12.150717
17.353055
-0.837882
-13.212728
54.857004
53.623784
60.768548
-23.104118
-0.489579
-44.063777
-17.065081
-86.617975
-54.014637
-74.843601
-41.582473
-3.493790
10.272871
112.527720
14.945802
-47.453774
62.235599
-31.909383
-8.585520
-49.918182
0.767969
-14.056639
3.234911
-78.088681
-8.608088
15.191615
-12.440708
14.327349
-9.137105
-8.509526
-18.207897
-117.431480
-39.805852
3.172291
-5.316136
-23.105661
59.629945
60.860084
62.034977
57.626872
57.173581
29.257383
-19.514233
-15.579887
30.136931
-25.666046
49.462676
34.716319
-25.013851
-24.699963
-1.166112
58.445163
60.412373
16.558372
62.615037
17.895964
-24.872149
-21.831312
-25.360683
21.660734
-9.756787
-19.479625
48.148788
-18.336661
-16.710629
-19.874886
-5.960088
-7.117890
65.347016
-28.373718
-18.362700
52.955199
-15.983587
-3.303478
-42.323811
11.751783
-5.556702
62.379901
40.800707
-45.842819
-16.660821
63.780657
-22.229070
-1.259469
35.306314
33.584259
30.164073
-24.548738
-32.203788
-5.462466
25.832721
68.133138
-17.808194
49.136129
-5.831059
41.466785
-32.070179
-19.742165
48.853075
71.642040
-3.169565
37.026687
6.753141
5.462160
64.817131
-38.052523
-19.074099
-33.681044
61.882079
51.642476
8.279032
-51.996764
10.473774
29.855206
-20.696071
-23.191151
-5.904442
106.815355
43.992668
7.622026
117.481960
-14.597220
46.622378
-48.320353
5.342799
-5.850576
-26.761910
3.679525
-5.308547
0.409602
40.374025
27.247962
27.350533
23.373333
21.533262
24.231884
24.548638
28.030781
28.121537
-42.345996
-38.780163
-37.599619
27.411079
-25.369109
-3.770211
65.162871
67.319488
26.654298
28.065074
24.062862
52.110667
-97.109841
114.593844
-52.579863
-91.719989
-6.557899
38.801382
69.745912
68.415992
8.565610
33.329672
-9.195132
-42.894325
71.058223
10.409314
8.176750
76.513674
37.833341
38.093039
16.118429
66.352674
-25.353509
-20.959878
-63.583000
25.664350
24.643413
27.311371
70.128994
17.207334
26.650332
60.552519
-7.099241
29.664400
20.771596
-60.622700
62.882888
74.168166
19.225307
52.809954
31.653068
32.253516
24.223522
-44.361727
-43.510053
63.400640
-41.000866
-0.837771
67.062462
58.867326
24.936432
124.711417
-2.829682
-63.009368
-2.425951
78.113542
44.748100
-47.491594
34.178449
34.232140
22.029772
-42.763480
-12.182201
-3.079979
4.150803
3.271126
6.120716
43.180915
35.756898
33.524600
-52.488701
-56.897551
-56.478517
24.904317
24.296804
23.470029
59.686333
102.281839
17.276155
23.520421
21.979296
18.952031
61.487527
73.827727
-31.239902
90.917806
-71.679475
-74.524610
-4.021984
-1.941233
-90.891860
-49.483548
-43.258453
-44.948920
-42.103569
-59.267493
-59.959659
22.885727
-72.555991
69.708650
-24.289018
-76.172135
-43.897235
-59.750137
99.830578
19.482496
-7.999032
-34.600528
4.819979
23.192229
-50.907217
22.351662
19.169072
23.128095
-4.211134
41.819909
22.709072
12.768941
2.405470
-72.750760
-65.740762
79.083937
-45.031352
-30.622038
38.761299
-18.964231
1.614270
-68.855593
-66.057072
24.217507
-66.428539
47.252247
-65.408575
19.383676
-21.721778
-63.649019
-59.376196
56.819674
-36.954821
32.275263
1.142020
-1.148669
39.683010
-15.307710
18.915713
-63.554205
41.713789
39.283670
-139.581603
26.380138
128.470829
127.918108
-23.236684
90.284104
9.627200
-11.655853
-106.295991
-74.904110
35.285928
25.430510
-7.070591
80.013688
-7.149378
-7.689874
38.700282
-0.406003
54.365853
-22.818257
-122.360412
-47.940580
-69.232910
95.195474
20.282237
20.137649
-16.803707
-67.006380
43.504171
75.429415
-4.248883
-0.458146
-130.865707
-105.551021
-84.205361
-60.214815
-12.578014
-0.000017
-58.353800
-68.447746
116.882154
120.610067
-26.458293
-69.934384
-71.367630
-17.729431
-75.545344
14.358655
-89.509415
-80.812820
65.259136
-96.843486
-94.489617
-88.863815
-62.201509
-79.507467
-76.692868
8.374367
-18.838844
-32.632925
-29.686137
60.425802
-7.561757
9.144924
-8.315088
-33.802839
-120.982538
-13.690831
-13.283232
-53.350201
-0.976215
0.964993
7.320559
10.896849
12.290467
11.853850
-43.166082
-25.110374
10.872337
-9.180962
-95.168055
-22.357427
12.057304
-37.662849
-47.019797
-53.582408
-52.970927
-7.333842
2.043334
-94.818782
-91.548653
-14.102971
-46.220720
-69.763852
-100.715859
-16.827726
9.754338
10.885275
-49.998016
-51.448641
-105.837498
-80.457088
-82.476105
-77.948137
-74.419747
16.684308
62.982012
-16.096028
-12.295869
-14.270259
12.455711
91.631891
-108.523045
-18.913642
-26.379724
6.566392
-15.390374
41.350724
124.385268
-116.698819
27.266312
-3.754054
-10.491025
84.105074
-7.277659
-8.438228
-77.327050
-82.064502
-49.839444
92.534776
-103.886300
119.252773
-118.230012
-107.001388
-114.383573
132.670931
7.120920
-9.936432
-26.875717
29.184264
37.177260
4.903937
-6.848717
-19.792084
-18.132578
-17.164321
-127.441974
-108.391044
17.481816
100.155064
-51.492063
-84.333188
-19.957722
-50.400482
10.320816
-3.678758
8.213336
8.288718
8.146806
5.109861
-0.469154
-2.640298
-23.149887
-13.769946
-94.093724
-1.992389
9.218704
-23.895480
-47.172301
5.358841
-28.063846
10.338524
-54.699767
-3.117998
-12.497591
2.513586
2.661450
14.491613
-130.363779
-54.078307
-28.763456
-84.559237
126.741497
95.483108
-90.916895
10.780780
46.990878
9.286850
53.142872
-79.046309
-20.492463
10.905223
-21.253709
-3.573265
-104.459260
-35.937064
-10.155043
-11.587388
-24.465703
-26.762568
115.187220
11.753610
9.739595
-72.421459
-96.218848
16.938987
13.513566
-13.819089
-45.046125
-37.250598
-44.423936
-99.437908
-6.662127
103.418189
-78.964156
7.958040
-16.313942
121.688043
17.556099
7.806650
-30.933616
46.929079
-90.305405
110.231178
-66.724308
104.610613
-19.380324
-52.182945
0.174597
3.907865
-58.857333
-14.039971
62.472701
-101.172297
-8.738328
114.781386
-137.535505
-51.924441
-123.386490
45.162835
54.458060
-39.620267
13.182405
25.490596
90.734447
88.726280
-44.863262
-53.443688
-34.745294
-57.286922
-61.100595
111.295064
-38.429054
119.736744
-47.740463
-0.957266
-4.551737
-1.638710
-0.635106
-0.038218
0.689257
0.380484
-93.860745
-118.427067
-28.085153
-85.495659
-99.831043
-11.592379
-30.888230
-38.726742
-40.439194
-127.654951
-7.136879
-35.538728
-46.738001
-27.284175
-42.985528
-50.798153
-9.531829
-11.147013
-108.889659
-108.791927
-73.985344
114.622209
25.264652
-87.970264
-86.902289
-70.695127
-91.022175
-30.957866
-69.386309
-55.063692
1.078008
6.061793
-32.565266
81.297844
2.694668
-46.662923
101.542049
-87.961549
-72.942616
81.103029
-7.595097
-113.520767
11.584738
-33.466651
-14.848009
109.828659
84.626486
-15.391525
10.107295
-87.862859
86.379792
-5.523806
75.020563
-61.051813
72.371386
-0.869686
-136.926648
-19.158628
-43.365175
-32.699818
4.554735
-20.756386
19.688937
-63.396276
-54.185201
-42.388055
4.949820
23.524723
-19.138493
-13.427662
-27.704373
129.888958
130.264769
-5.777535
55.001994
39.762438
-3.217808
12.681935
-18.145644
-52.875639
2.986266
98.358668
17.739719
-39.283431
-42.015970
-33.092829
105.660588
-39.754816
32.295134
-7.691188
26.548051
4.759093
-20.045319
16.311621
0.574469
36.642276
24.925525
80.558962
87.028560
20.536030
-57.855503
-0.000027
-10.541169
-93.248649
101.150675
31.922378
-119.885746
-101.965519
10.660572
-108.023714
-111.835272
57.920074
-90.302312
-103.147652
-2.127652
-1.411961
-18.814201
83.168944
19.468238
24.981297
-80.382703
31.779720
26.532047
77.183258
3.363788
-59.138751
-1.438285
2.831698
-41.076548
1.724901
0.113924
-3.424034
-5.029080
2.007511
2.846509
6.311106
5.051173
8.682668
-13.941362
-81.599425
67.612857
111.775421
45.122314
-127.772367
41.037760
-70.170212
48.444141
37.505422
-8.309663
-4.099523
18.475752
-6.881824
55.346356
18.570281
-68.884029
-6.174047
-6.639249
86.375776
-19.245176
66.297908
-88.163020
-19.043406
-42.294090
70.895905
-24.573436
-40.096790
-11.659027
-64.241158
-16.608312
-115.428399
14.653969
-55.262811
-87.726903
-13.639985
-15.522033
-28.671058
-66.110812
-32.087881
24.576124
0.395118
-6.405235
-68.176285
-86.204155
34.477139
-5.645876
-28.448296
9.630768
15.258699
-17.949218
-23.365271
14.158582
-6.649834
-14.006737
-37.571835
-3.601705
-2.753940
-2.659020
-1.311590
-2.844923
-1.544509
-0.246492
-0.303043
-1.126128
0.536594
-0.381148
0.458714
1.156961
0.577558
0.378387
10.055363
106.780006
-5.512674
20.102819
-0.454960
127.446881
-22.605754
-30.666222
-15.914471
79.506068
3.874421
108.334452
69.386531
54.798221
-21.749511
61.136542
5.550457
-18.896699
0.927180
38.516756
-86.885676
-102.159199
83.821476
33.955219
12.003105
-31.116734
17.477857
-5.488625
19.643064
-3.585542
-37.489052
105.930945
-36.711147
3.625690
0.570206
-69.294683
133.693739
69.334239
104.030909
61.078537
75.631049
79.832902
-5.166324
65.605825
-120.395147
0.252134
91.965112
96.826816
-63.265866
-79.372605
35.076178
-7.226754
-6.250696
-31.093287
-116.620511
-121.046291
25.800935
-132.009438
-34.524112
-59.652503
-60.583850
-70.891507
-11.043116
-4.385207
0.000030
-12.886112
-11.163676
106.302737
43.510660
9.150820
-23.256946
101.568908
-50.110465
-39.840234
-106.911309
133.429232
-27.480418
-121.181018
133.091366
80.540268
-4.706663
132.585250
-116.524549
-27.465484
121.359737
130.217901
-0.631504
94.253156
-10.941250
23.738811
28.499422
-36.241656
-13.395973
-6.079918
-7.922910
53.735982
-7.751022
-58.879834
134.645684
-1.216771
-57.601397
-55.186527
20.028024
131.635415
-0.000511
74.342242
-50.711343
-46.942751
79.323945
-72.767554
-44.590879
-77.912434
-18.088164
2.342056
38.479135
-120.735049
-12.251089
-134.054768
-72.734834
-3.601471
20.999813
69.206541
3.769756
-136.019293
10.514962
23.921382
-22.871800
-18.310929
-7.159030
-12.701686
-45.248380
-36.311586
-17.021342
73.361829
49.228798
37.661380
-5.858981
-57.104928
87.967447
-7.405742
-10.832361
-81.102766
17.195906
98.831369
76.089346
60.898639
-97.368323
-33.841331
-7.311449
-112.697163
5.070133
-14.517363
100.232841
-4.065374
15.936077
-13.985873
-47.882612
-4.785109
19.385325
-58.839056
-103.188787
-0.341908
-2.436999
-2.924146
1.101956
4.455014
4.597134
-16.967028
62.958771
-5.174166
-53.664745
20.219133
-130.426916
-25.101149
-17.547732
-16.936668
4.994151
-95.708013
23.094197
82.966334
9.665013
-30.257629
-91.898710
0.383596
-16.056040
81.385287
1.502294
5.483920
28.374722
4.073480
70.892328
99.115656
0.809361
26.988093
118.941703
9.869267
119.663273
-100.527180
10.103407
82.647452
59.270989
-3.270588
53.636666
-7.996914
86.708561
64.384831
17.901041
-18.968771
72.803140
23.603253
0.934026
-28.329303
119.465983
-14.736497
6.041389
-84.334975
-12.468083
25.711642
95.628181
-0.621037
-0.724661
-30.287561
104.461627
-46.308812
12.070019
-31.258904
76.342668
116.850590
9.401169
137.814808
-118.652192
-82.265266
2.197410
-36.611338
-74.158611
1.695564
117.554401
88.549336
5.183431
-18.996435
11.622856
-93.982965
-93.233533
-90.248770
11.685327
70.869942
-14.869639
-24.010687
104.562954
-21.021348
-77.796790
-2.986179
-65.416623
24.516298
84.643117
-15.684281
-119.832193
-11.043036
-26.548014
-19.074769
16.295477
-0.000002
-0.822960
-2.804593
-2.890807
-2.365681
-3.478950
-12.013453
57.484328
73.755053
-3.055596
-66.292519
-49.222848
-18.597713
2.661040
21.298942
80.055359
86.897125
89.676890
1.440247
5.679337
-60.810515
7.854188
22.453635
-24.114360
-53.695591
-89.190552
110.837398
70.398540
-89.291836
23.907954
-57.007042
9.568978
-9.838632
6.409368
-54.121593
76.563471
67.058791
2.170107
-62.975918
98.764898
1.716997
-21.286448
-75.034232
45.136120
78.240428
44.007833
-33.677137
-16.127628
10.501772
22.383180
-33.620025
-19.985226
-28.888012
123.450004
-50.538319
-1.262214
-47.084333
-1.404368
4.789167
128.462368
6.622425
117.136840
-10.037927
45.566518
-16.171476
-113.340251
-124.922171
-91.773620
96.910675
-13.579534
121.512178
-47.766086
-86.679285
65.285040
52.486991
-93.881268
77.384599
-71.658486
117.298637
41.647147
108.234733
99.007016
16.261553
-67.127637
68.178626
98.298378
72.836268
-4.473201
-106.780022
5.661725
-29.621726
-41.172555
0.000033
36.303739
-86.772829
-0.009381
8.600045
102.995509
-22.262191
30.810476
-55.732576
-2.144281
2.341724
-107.827659
-26.494659
70.299950
54.765159
-72.057946
8.359174
-54.896795
-89.005636
-74.449036
-82.864691
-108.113695
-10.228394
107.140512
-56.985722
131.786331
109.953948
-64.248688
11.042650
112.335656
106.787243
59.692687
67.003802
-25.272871
-47.906686
85.491973
-61.418203
-121.786966
7.050810
-42.772194
-73.186665
128.513368
-19.099887
-78.558071
84.414693
41.566314
-115.932384
-101.721307
30.017447
-79.069367
-34.029533
47.672634
123.028050
77.494199
-104.920499
-81.841707
80.629526
97.161795
102.340777
2.351854
-102.852059
-116.065575
-5.595570
-47.215825
101.203971
-55.129813
35.687005
-22.370500
129.393506
-88.118415
-17.353123
91.205908
-26.283101
-59.666498
22.036913
-56.295203
-98.233062
125.953214
-105.137571
-11.271311
124.585102
116.318995
-2.330609
51.881439
-42.033185
29.259616
-115.835306
-90.171107
58.507710
-10.925916
90.254715
-16.174733
-6.581721
128.657140
-60.578026
-42.551609
14.755984
-27.382561
-14.947647
82.495363
31.522329
-14.581080
0.777442
6.650094
-6.464990
114.363039
11.687220
8.379961
7.423347
11.418085
121.787524
110.965983
-5.792011
32.094731
7.522054
-0.303022
94.212178
-20.313463
3.261922
-13.083054
-36.657694
52.854304
29.733140
46.300182
56.938593
62.827950
-36.867060
57.172102
138.494988
-132.738041
53.286004
-115.328176
-73.896774
-29.214957
-16.216626
-90.432228
17.959342
5.778068
55.667487
-10.373295
29.913505
115.212152
-108.222739
14.244767
96.536097
-133.776564
44.747842
23.480315
123.090130
52.540082
59.806593
-37.606250
-0.768306
-78.298686
-126.736549
10.598009
91.255043
-21.276478
4.702897
73.579559
108.556573
9.187563
4.598857
27.702559
-35.622628
84.857391
69.030725
-3.311972
93.979218
-22.983601
73.478414
-12.482403
111.705871
-70.152406
-14.584481
-20.768350
8.234791
-113.975058
-21.281110
-89.175931
21.010959
1.192626
-0.463558
13.372447
-9.662903
-31.597390
-67.255572
-65.036883
-24.955060
-32.849694
-26.381272
-19.494718
75.953400
44.416962
72.419923
123.405102
-125.389857
-78.284929
-72.802352
-21.523813
-72.135457
-3.939363
-6.544430
-104.614747
34.015781
-6.795550
-33.313695
-34.076732
38.837478
75.660591
45.046510
-13.530571
-92.107187
1.558883
-1.477241
-0.907669
107.034669
98.694379
11.333316
75.868468
112.473608
-2.878030
-4.769212
35.141899
100.932348
-88.377910
16.560016
-91.909813
7.836646
-73.346534
-39.349001
-12.474186
51.981021
37.717809
5.321221
18.698446
16.785584
-63.964081
-85.778577
-0.912242
0.618972
1.266554
-43.910006
-37.000487
101.102126
-15.615868
-29.557341
16.133128
38.524158
0.098373
7.093189
24.705461
-6.756134
-2.911733
104.457643
-0.237882
35.881837
79.046098
-106.286662
16.424045
22.678783
-10.905402
11.085039
41.081730
-53.130656
20.289041
-1.146650
-0.975204
-89.540494
79.334776
113.481117
-40.687263
27.780677
38.333729
-21.557851
42.772570
-10.837918
-5.424547
77.396719
105.339525
111.605518
-80.959490
53.101232
87.815094
-28.172437
43.299746
24.459274
9.422103
13.320011
19.074249
-86.110401
-106.627888
-6.855966
-34.865746
-56.257156
-96.192077
-19.040340
-113.634471
71.433002
-37.687083
-117.302783
-50.674394
-47.595476
-14.755898
-46.742414
-0.688598
114.532478
-18.476141
-25.272660
-102.306423
-12.682996
-126.440818
9.573121
67.698955
-57.082106
-81.768662
-36.495445
1.185423
60.026885
-14.873293
-10.405565
-8.537965
-21.819150
-2.504665
78.464952
-51.812495
-85.846570
-86.468998
66.189753
-26.606653
7.021485
2.679104
-91.968458
-16.432126
-20.950706
-12.532683
-49.354327
12.047794
-18.407200
-9.017248
-74.191268
-113.553477
-89.939262
2.211587
-30.026861
-30.723595
24.854675
-51.910001
0.045054
-73.872378
-31.884416
-27.312585
85.528497
2.030332
1.958603
108.126162
49.890941
90.597289
-101.744143
1.634226
-33.002679
-106.102858
-72.327506
133.967519
-31.711973
0.258597
118.958229
121.424707
46.065344
-61.759495
7.300178
-5.272430
69.834709
-0.596847
-20.813351
73.867357
69.015865
-83.910461
-26.733912
-7.999201
21.748984
29.892288
120.186766
9.322270
-82.305286
20.565836
-0.430862
-56.123549
-57.254853
42.998572
10.878346
1.946242
-14.048609
108.331280
-57.531233
13.755468
11.916378
73.936219
24.978167
95.333748
33.038608
77.837825
31.351168
-14.640495
96.756397
76.329225
-36.346354
63.170357
45.266040
7.912841
-34.180236
-14.040224
-12.943331
-19.216171
-3.023221
55.235250
-22.114510
20.510415
-11.327627
43.207355
-34.179747
17.447770
-64.881103
10.174147
-33.584951
-94.071766
41.151774
4.229340
21.952956
117.427264
-1.169815
-20.023745
-10.840975
38.636634
14.580187
0.000139
29.531405
35.771599
-18.676536
37.506572
-21.581700
-130.971098
46.745751
-79.451178
-16.174859
-15.295854
0.192853
-59.585201
-18.048658
56.225568
-38.248075
-17.965680
4.490290
-48.902471
118.344468
-65.618707
9.624458
-15.537040
4.389754
-8.691662
47.786652
-127.912821
15.919420
-5.685530
-63.433423
108.888003
28.827131
3.280082
-28.355471
15.373826
5.349974
-21.403195
56.809240
54.551236
133.275582
-29.345488
-0.902685
-2.244766
-10.429566
19.419869
36.124123
34.442651
47.865226
-5.674213
47.820664
-27.678599
-9.330270
28.446552
-122.526229
-31.635126
33.368435
134.154314
41.104323
61.862025
-4.037889
-5.317024
-25.307123
31.135249
32.278682
-26.650987
58.830173
68.939905
7.573740
61.049661
-4.172932
-114.950802
44.814124
24.678942
33.464733
-44.009701
-40.048888
-40.249216
-58.756542
76.037951
32.566758
9.349508
76.841865
75.292765
22.451094
10.492280
26.949001
-18.644521
13.240985
29.103854
-9.544642
-9.484429
6.116112
-26.656121
51.678316
120.628887
111.833670
36.609303
-29.983119
-3.223033
67.829959
-40.987675
65.422423
-21.105294
-0.002447
76.286449
77.892606
73.971868
-45.980023
22.476037
56.023138
53.834665
42.503573
25.095583
24.081626
64.706752
25.905107
20.386216
92.463055
-1.726265
-12.779918
70.535936
-52.785425
-47.563722
-78.666444
31.882257
47.164941
68.947963
21.044576
-69.476774
39.816232
-46.719024
22.294745
20.036788
-116.676156
97.175342
117.306260
24.571551
-16.941414
3.289340
-27.526539
25.492562
-42.467642
16.023428
49.548760
35.798509
-64.479864
-68.060726
44.274765
-88.429750
-62.420184
-25.487041
-117.762841
131.642741
21.763485
-18.364474
19.139884
-83.461689
-25.570148
-10.296649
-77.995899
0.304921
-9.907367
-124.122491
-63.728660
-116.805960
109.899578
112.689105
98.339427
10.410537
-18.553286
-17.120960
113.900564
9.604758
-90.337034
-16.483202
-29.546319
4.768881
8.253558
13.277287
-28.537899
-94.990192
70.631583
14.126334
-97.724703
-47.616145
-48.121040
104.544742
-115.885784
-44.670893
-57.486795
-79.116930
-87.503531
6.068615
-100.568674
-72.354041
-127.030468
-14.303420
-27.351708
-119.344700
-83.138162
106.275858
17.945394
12.856598
15.823727
16.674269
7.152309
-130.396395
93.245473
93.736052
67.933918
20.246720
-61.583054
-57.294564
7.316234
-5.932703
-84.033515
-54.464842
-85.169044
6.879674
9.483361
0.819284
-85.248177
40.414530
43.905864
-10.992287
119.720691
124.923827
9.503977
-109.667302
-94.213002
-31.524970
-0.000263
17.966614
-26.186828
95.783627
-0.000282
-76.183803
-4.825328
22.422986
-57.806059
46.111286
105.452038
6.739858
-8.284852
-29.084945
9.740832
14.277214
-16.404164
45.497368
-17.971318
-24.898633
-23.217859
-9.666829
17.245219
-128.722351
-21.296403
114.580535
-42.302507
-63.785946
11.734010
-46.195197
11.702382
-33.166809
-32.933040
20.924505
13.869721
80.536040
37.168789
-11.115977
10.473399
114.566837
-29.210396
-67.321135
-3.290626
2.932279
49.988501
-18.546230
-15.950486
110.125843
6.061533
10.648831
-112.144490
104.526073
-87.290950
16.848796
43.547036
-121.596353
28.162026
-118.950207
-28.558551
-55.429845
-12.156012
19.054163
-65.689939
-15.487512
48.711434
117.009607
-18.591845
-97.737012
75.607103
-16.553499
-39.805560
15.476651
12.932211
-7.921275
-72.457272
-18.227746
22.099371
134.996745
104.006428
-24.335910
121.172302
-62.711853
20.282067
-6.996300
-6.199287
-132.671986
44.423871
83.568313
69.248687
4.651941
-29.119702
-77.447013
9.897428
107.411042
71.610008
9.651489
88.416387
-85.643030
-105.784600
-33.864799
119.811770
54.005660
-0.952436
-81.352818
-21.309482
74.028057
61.426603
19.128669
-23.495326
14.597221
-15.714267
15.302771
-13.799873
7.559579
119.107994
33.815289
-78.466082
-22.568367
22.799239
-121.003790
-9.008553
-105.860840
32.279382
-83.902434
41.420578
-14.872023
59.614857
105.337573
-3.723812
101.127883
-1.158152
-48.081881
46.422800
-41.894849
-9.796266
-0.000282
-5.402232
-118.113552
-83.808693
21.047173
110.233319
11.571393
-94.880429
-108.698313
-11.834189
-91.709647
-16.565265
-72.202927
108.386709
13.708355
8.822272
15.250845
53.195275
-8.685627
-29.042769
0.786686
99.084411
66.761098
5.671789
-74.051690
60.085227
-77.664593
-3.648836
1.188896
97.375346
39.806189
-75.491651
-4.372553
-3.257390
-18.960572
-68.625623
115.016676
-119.654441
2.177553
-68.152066
-127.962067
48.344668
56.758110
86.080063
23.238487
-15.328382
48.235290
94.927735
-10.141069
63.052669
-31.987636
16.876074
54.648713
46.350507
-63.452181
-18.021088
108.956194
15.627444
131.113867
68.015888
-29.852682
-91.738875
97.718968
-87.079310
-54.537025
2.530484
-51.901295
-0.000268
-67.956403
-80.666928
10.417002
-13.387702
56.394744
77.949059
-103.610260
-101.177673
-106.664251
4.771101
55.580122
6.525957
8.069656
24.147377
-25.354259
-33.038234
72.325916
-3.108932
-16.241138
-75.588778
8.795807
91.121420
22.167124
95.658019
39.026182
-24.111473
-6.883897
93.712259
52.888382
16.179599
-0.848893
58.981290
-86.768881
-21.419305
-61.469099
128.742879
-12.765111
40.462387
-89.984002
-34.732764
27.524712
-23.116738
-65.468762
-16.423465
10.795532
-1.439898
6.872397
13.493842
-95.486663
15.766019
100.245486
0.906798
5.545598
18.686895
-15.015563
-3.246490
17.124571
133.893378
-75.110237
26.847860
-19.077322
-130.729418
-77.816266
-115.487674
41.076925
13.928914
-57.073113
-27.780413
6.789748
34.096906
-28.987284
-37.898820
-62.559208
-67.051283
-68.397413
4.387820
27.732352
119.799393
-23.270662
-62.241259
92.989213
5.929443
-35.570308
16.540464
97.231915
36.143059
-128.915969
92.930471
-56.872212
132.529928
4.969016
14.976199
22.749157
12.791282
-3.266964
-74.982055
74.512808
63.010935
-78.330236
77.327811
86.455049
-80.057302
-128.714913
12.453155
77.248721
-104.567578
33.942868
-52.180969
-19.205588
69.731485
98.142665
66.129539
-120.887699
-24.629508
-40.389104
48.454263
11.523703
38.494618
93.359119
-39.656073
-24.652659
90.425905
-126.260183
-47.034647
20.299684
127.094714
-55.591737
-139.228037
-126.342508
106.346842
107.073286
-90.296547
75.238461
99.279875
-49.415211
-46.712895
-28.934114
-81.575930
-109.607343
69.033803
-37.372292
22.381710
-35.673631
68.439961
85.376303
-94.763048
55.955633
93.096949
-17.067281
97.811963
116.514100
19.156898
-64.337866
-21.926818
-13.520114
15.600862
-6.313037
-129.961334
-91.215384
-80.605472
68.574015
-90.341918
-77.169267
-119.167790
10.527418
8.005064
-110.132848
21.371848
-75.440019
-30.427662
78.237616
-11.907962
56.779370
40.357451
113.128380
59.877184
37.372339
23.615810
67.326390
73.421466
-34.255902
-83.281841
2.906869
100.589373
104.399807
-133.888503
42.561514
-97.812870
-99.892949
-23.711691
61.916007
-25.869624
-31.392931
6.349171
-66.407559
40.190632
11.691379
46.787277
10.429790
-29.249092
7.914941
110.103275
72.048387
22.395452
1.364958
122.702266
-8.469806
49.912686
41.189857
12.843166
43.808327
-24.589825
-4.019369
-19.856377
-72.738020
7.569211
97.368196
15.318933
39.409746
110.180829
26.109454
-46.991143
40.294307
-112.401906
23.686995
59.979300
-82.566173
70.131548
94.875011
-49.682501
28.775815
65.556582
-87.503594
78.293223
102.677448
99.482959
-14.237554
-30.717755
8.523781
-35.378737
131.273583
113.572277
121.296482
100.401634
-39.734689
118.664358
-119.748708
78.546027
49.682947
-4.427186
125.967474
91.938757
-33.375696
90.718379
-9.264173
-25.801064
30.591519
6.049025
-0.577174
47.873977
118.424179
-12.642879
-20.967498
-79.510496
-23.418026
-32.999871
-8.347759
11.542600
-69.032159
75.518692
-9.583537
109.853019
-29.969867
-38.042150
-35.467727
1.376129
0.327580
75.862147
-43.983843
24.699285
45.688050
-80.054079
39.730313
-29.057000
-75.734087
109.064266
-61.454632
-60.440212
58.928139
-16.559323
5.766634
-91.171060
86.703664
48.332456
109.863949
-79.877672
46.656003
2.356819
102.412262
110.699990
-50.843355
-89.667563
-17.705547
20.317002
-87.372190
-36.868031
14.904605
95.012958
-22.746108
116.760982
-31.304646
111.024629
-127.042847
-14.839275
-35.569180
-30.650310
129.398847
-29.892843
-9.144412
1.082505
-91.622569
-26.189802
-38.494417
67.792582
83.211216
47.574875
76.439085
116.134359
-18.938812
12.273391
-20.901531
-33.093886
-48.237986
-80.602052
-36.815120
-65.274009
-16.875418
-11.102768
-132.252456
-24.835536
11.550515
-5.606950
70.295646
1.399847
73.916736
14.929678
-137.789750
-119.502155
119.666541
13.325355
108.679856
69.541322
5.198282
-109.719602
128.416770
2.702284
79.983213
-134.095854
-53.906863
63.881302
-17.574731
-1.893357
-69.782353
1.573163
2.593744
59.060000
-41.120687
34.537178
3.269337
66.301300
42.548580
-76.438472
119.077914
51.412990
-12.192370
125.993021
3.680947
-4.510704
-54.912972
-63.224046
-8.202034
-56.635724
51.467933
-18.844712
-85.320155
-8.085563
-52.571470
-101.141688
-11.465139
-12.437106
-53.185533
64.248555
-68.133077
48.841343
-12.151301
39.517422
12.667198
43.739388
46.556186
-0.185634
40.247025
51.307291
-15.755996
-68.590581
12.182051
31.608395
47.539594
49.294213
45.048225
-62.829508
49.966737
126.704856
-16.404192
-23.624603
-2.521016
-44.365066
92.794009
80.178906
-1.081139
9.704182
-7.434158
26.674645
104.587571
-21.044697
-115.377559
38.666985
-134.668220
39.991921
46.235249
116.950269
-80.294623
-7.955564
58.437476
55.426792
5.679885
44.955103
-32.794276
41.019501
-98.916299
-27.268053
-32.267504
-37.764659
32.751948
-30.429408
-16.120613
-5.941099
-27.651267
66.126378
-36.219804
-24.849020
16.285163
-30.357018
27.928846
-26.392816
6.437301
66.881624
-28.725015
-22.283752
47.595935
20.022868
78.356831
18.383576
-25.391728
63.578643
31.322115
29.812785
-37.187702
-77.580224
81.769654
76.464133
75.832357
44.561989
31.098024
30.478208
18.543839
23.892131
-88.164007
69.473762
-53.307817
39.801879
118.768351
23.502985
24.356333
-45.312379
-66.070899
-40.925870
-52.533869
72.310418
45.567474
-20.450199
9.343881
37.776136
126.199524
18.663172
-126.566702
102.367694
-10.495730
27.189870
-26.691828
118.908175
-12.260885
-25.903405
-27.304920
-30.153225
-12.689663
14.953197
-41.744309
-2.438544
-2.424311
-36.315920
-97.020248
5.056782
2.569163
5.242080
-111.857636
-85.181182
13.098493
-11.495621
-33.573144
-7.545193
-5.462255
-84.407943
-25.738688
-12.177764
25.163123
-5.393733
-7.949597
-44.099452
-40.361701
128.682699
3.170696
-8.530161
-93.458955
10.366892
10.996459
-4.647093
7.715280
-70.187047
-13.417619
-11.143506
-75.713937
124.180428
118.395501
-2.258736
-40.231331
-14.132439
-9.338395
106.045548
-96.450359
-53.301014
72.039877
-29.917992
106.007496
-13.034907
-12.621956
8.471989
10.487092
-75.251022
-21.977106
-100.421060
-99.667237
127.036750
11.745429
-19.538684
57.733693
96.065421
-5.182723
-0.097868
-15.466674
16.176803
-1.619608
-11.982264
-0.000282
-41.751351
19.118406
117.388132
15.061520
14.078853
21.667333
99.008371
-6.673310
-17.725365
76.857997
-10.219704
-13.106019
125.824317
75.399023
69.389259
27.960789
-54.159391
81.925340
106.470248
-69.509376
44.401554
84.872856
109.401636
21.079334
60.551288
-105.890479
2.644175
102.922977
116.089326
43.981833
90.463967
-70.375709
-35.189858
47.971983
90.242769
88.634449
2.412708
4.328320
-84.104914
-102.368599
-72.041483
-16.272907
-22.128456
-86.549385
0.140435
-90.245676
72.705214
20.958895
48.689082
-1.735725
102.158184
-22.772303
89.076800
-56.610076
41.724402
-40.699211
44.677625
-19.443465
-83.678393
38.074822
-19.624654
-64.504354
124.192097
-0.627900
119.430907
48.012719
-25.013402
-71.636877
36.345309
-16.301843
-90.233207
8.355207
-11.885616
-24.917409
-47.955484
112.953348
99.436713
10.065149
10.224763
-60.899402
-27.658408
-139.085301
-102.623587
47.378755
-121.491960
124.930619
2.559271
56.410280
-46.316856
-17.098322
12.058813
-45.996243
77.913228
35.223549
-129.237303
-60.597845
-3.508667
11.062489
3.471938
-64.167593
16.496321
-1.110997
13.444508
-48.338369
139.239301
-15.916952
-74.341740
-76.615601
-29.096562
39.114670
59.674782
2.258668
-121.265563
30.083465
-5.686219
74.066038
-84.705919
36.729400
8.067111
38.793634
15.856939
-18.989539
96.226129
-66.494652
47.443054
-21.081589
-50.391462
-5.033059
-68.440201
25.391898
116.687687
87.875195
125.776887
-108.557180
-19.328317
-38.662249
-29.342846
68.396020
9.420217
27.808208
88.974006
-80.631543
108.275004
96.719415
28.331043
94.368756
65.584187
-10.799397
-34.733053
15.023129
-19.921381
-84.348773
-15.415582
115.351346
23.148389
31.971986
-5.927392
-7.367785
-5.442136
23.251174
40.914703
38.530038
-7.187588
-82.653591
-22.431526
6.711927
-67.096702
-11.366326
26.096378
-39.018834
61.324153
48.650866
137.060445
61.066727
4.847805
77.796206
-105.738962
84.948568
23.286682
-105.233760
-52.087498
-69.390614
52.803223
24.157765
-20.125104
91.861032
-35.010580
-28.090333
-27.404467
-63.367003
40.602266
-5.606910
63.834438
10.594054
-13.372345
0.680457
12.626669
13.291045
17.353065
14.677586
-50.283761
102.022507
30.818853
111.830315
-62.200278
-13.376411
-140.370795
73.039404
89.591436
74.534231
72.862273
76.183413
-100.087213
-37.159982
10.375983
63.029112
2.196274
-119.553887
-31.189251
72.652226
-21.111492
-13.846273
20.178628
41.500180
93.448644
28.687332
54.840525
111.484602
-82.173425
85.124010
134.757564
93.268488
140.383487
18.813718
-84.239344
-18.648691
-123.086590
1.570024
-116.930042
-17.545363
-23.588471
-73.114696
101.564921
-96.235039
72.787694
-77.749315
10.800808
64.934730
-45.719706
-111.664715
10.329484
10.089001
-14.675300
97.845845
13.705964
57.007571
120.515210
-99.220125
-54.391210
53.024837
-3.521100
-75.520408
-98.397605
38.216926
-5.729871
-39.549063
72.553846
15.001152
31.968632
3.057411
-69.201624
10.587065
-20.096726
17.605252
74.819287
74.499940
-28.387183
-64.549109
11.317385
8.655180
-42.082527
-13.229572
105.233205
106.629311
94.842259
58.408724
58.121301
34.797908
-100.614599
-38.936462
-4.959036
-95.167229
-12.647117
42.302691
44.826365
10.839611
17.221840
-81.683226
8.867042
19.259170
-73.870512
-66.116227
0.621630
107.821855
111.751033
9.835344
52.531590
-35.563542
87.173522
-36.313749
-24.418698
-67.573563
-64.113358
8.331596
-67.892309
27.650165
24.264928
-22.261639
-7.551114
93.225549
-89.663567
-125.060226
88.747140
-112.453618
-131.810371
-39.359340
98.751321
139.645042
137.879027
-50.371045
55.767525
-18.472151
-43.447348
93.343702
-12.768663
-28.073761
47.032791
111.951108
36.356182
-0.487922
96.177504
5.279937
1.408921
3.307074
54.316189
18.718690
24.216639
9.990602
-44.637337
-3.399103
-78.722406
39.305871
-76.405007
-134.000737
-80.875859
-7.267215
41.350498
-6.501691
6.251013
-7.569590
79.504808
-0.999857
-24.555301
45.031745
-20.284541
50.720493
21.869365
42.192113
40.372767
8.415288
10.720097
38.090369
-98.146914
-13.409218
-75.321233
49.122038
20.184594
44.241663
-55.697745
48.636979
113.279932
-9.299607
31.796851
49.296741
52.289700
-32.136466
-70.646209
88.623021
-12.045426
109.111865
-14.333493
56.474876
3.945297
-23.892487
-35.999136
-118.556901
40.522282
72.755516
114.490264
58.303628
38.469663
123.053296
75.573398
38.367168
-1.820293
31.139440
43.906203
-87.332370
35.598082
79.133365
12.603009
74.131870
-25.817306
11.256007
-4.588780
-100.351482
12.697098
-7.299048
-32.327142
32.325064
-55.002818
57.186099
9.140992
-103.640955
28.423745
-2.989050
54.354004
-24.342622
-26.499094
-37.466109
28.007236
-1.614535
28.965340
28.168718
-52.953356
64.172872
29.213434
5.442377
79.127949
0.796352
28.962967
80.257087
107.206072
76.691902
84.258042
85.763634
27.122372
-119.790455
-86.308465
113.522668
76.426662
52.809357
-0.000160
-29.699664
19.068261
72.992745
5.194960
-5.048367
10.614402
3.584111
-0.406175
-17.023722
-88.162211
-51.707127
24.707409
-80.561157
57.766857
-29.745627
-36.430930
9.805870
13.588702
-12.897788
-37.346485
-18.064352
-13.318404
30.507904
-96.825633
92.706971
-8.061520
11.783988
-125.915863
-79.702500
-36.303706
100.161837
-48.253953
-54.343225
16.498080
4.181165
3.717277
-1.547140
-35.584373
-94.053441
2.468131
22.203881
-112.095449
113.817954
14.652610
11.409432
11.840722
11.790657
19.575481
47.059888
105.858347
-47.765545
-48.540395
-76.551042
-81.365322
5.565233
-4.925753
57.501048
-41.901579
9.323498
-78.372259
-85.290562
101.086952
-19.886988
6.862415
-114.622446
13.928946
9.221776
-38.420721
31.882466
-0.711575
10.878947
-23.536105
8.941327
-41.833949
-0.817778
68.901967
-56.765040
64.364710
-24.952431
-16.556238
-11.744359
-49.293044
9.622917
-108.339266
-51.090726
22.302009
-98.752142
-29.586407
98.052049
-90.834823
27.222095
16.203539
16.594907
99.868962
-6.514397
-20.379088
3.969002
-110.342504
36.875585
17.177464
3.242115
-64.936037
2.745788
-22.090470
-80.088224
-81.363159
-79.766337
-16.973523
-60.277904
-121.204674
33.910028
-133.360603
-62.887398
49.382012
16.335034
123.000418
-95.784703
-116.146567
-12.067922
36.522899
37.003509
71.520488
24.985620
34.594742
-59.621593
-64.171283
-11.495424
-16.081051
75.607751
-132.123999
112.173380
-26.094660
49.413054
51.890953
0.378948
42.020361
25.979883
1.666920
81.011172
-89.719300
-100.713269
133.751910
117.231637
-13.152628
13.171975
16.076874
34.160048
77.478287
0.635530
-69.252964
-12.853350
-3.096998
-17.857260
-117.209210
-47.939401
21.471158
131.616518
-32.648547
-112.655636
-26.018352
39.313936
50.784034
-49.127635
-83.024219
0.061699
55.793574
-21.165898
-10.161714
28.035914
-28.486162
37.142004
-7.474844
-96.247456
-116.058394
-14.308553
81.574536
4.529081
50.542199
64.482205
100.568092
11.733987
24.829797
26.871102
51.810000
61.258817
-36.215298
131.123920
-28.277992
122.554317
116.337438
-9.252150
80.094122
16.291971
11.010264
-123.417705
-100.237044
-59.265955
14.500009
10.428313
-94.262477
63.625216
8.949317
105.715720
-61.312230
-84.957434
-34.127157
-105.960917
-64.259141
26.915956
-68.178810
6.975140
66.081149
-90.970995
-93.234735
-109.192298
-108.037798
80.250110
-0.000052
-0.788357
-9.144211
-128.653578
-125.310379
70.709058
82.622991
-26.813544
62.347624
3.144336
-118.729696
88.958121
48.331035
-0.059889
-56.115901
-41.296177
-114.179475
109.891406
-19.063846
66.734264
97.317538
71.552231
117.238548
116.026747
-90.883151
-99.154503
107.127388
106.942534
130.813843
42.807493
-30.315222
-57.502089
3.001500
119.206610
105.825079
-81.269202
10.778919
-123.137923
85.023620
66.489220
38.075695
-19.176805
11.262212
-4.073502
124.540797
-27.770825
140.694158
-78.795609
-61.009646
57.987521
-10.596655
42.515851
42.317516
-66.228466
73.353513
54.468825
63.415869
-106.589960
9.921811
-0.184800
8.048240
-10.976410
108.227969
-80.700004
7.832740
54.036705
-23.604197
62.561722
71.974073
-1.947312
-13.078740
-11.874579
-1.487295
-40.869370
61.467957
-28.202884
27.521292
80.625346
-32.149381
-61.858414
6.837728
54.326712
-7.936639
69.750273
5.666410
111.678604
-31.614074
-81.308933
54.579808
114.805298
-72.049931
-62.298591
-97.895591
-115.112052
28.805332
5.835473
58.863088
-119.112977
-13.330157
-31.896636
-97.128030
26.655692
84.456647
57.831136
58.132136
-54.577282
-20.283075
-2.310632
117.022499
-126.008410
-7.386028
-2.204453
-50.211398
11.613147
8.738742
-119.836485
18.838461
124.550705
17.685218
-29.065516
-104.685865
-91.251232
-2.857695
-29.196251
95.306041
140.560684
-76.918769
80.318508
-42.250893
-3.638607
76.402197
-8.867165
-67.178755
-111.385123
-39.034426
-63.137241
-28.531530
-15.349194
-52.789112
-6.552875
-120.444808
-12.507854
-85.129373
-104.912743
41.926341
20.775296
-2.356841
-11.306546
94.987841
47.422870
9.558079
33.738176
1.822591
31.596932
-18.852349
-94.989014
4.990834
6.735205
-1.719639
-103.439738
140.625975
-28.679157
22.289039
2.762138
-29.800354
-56.289324
-130.813093
-101.909683
24.917391
-22.378663
51.194171
-25.166772
-15.196416
-40.323992
24.439764
73.908366
-40.467071
-66.181278
9.986710
55.191601
-2.863356
1.212191
-13.749157
136.980120
29.967812
-34.325715
-51.511915
-30.932436
63.227237
5.324341
87.333237
104.288151
31.288155
-136.660659
-24.264164
-94.817193
-23.314062
-38.396522
25.699853
24.048143
-101.582884
97.008726
-14.988170
8.693891
-126.177560
19.616537
120.015109
26.867645
113.246523
1.260437
-49.294925
57.834673
1.967652
-2.378330
18.577840
104.119981
38.723022
16.014970
113.894939
-27.519314
-33.051287
-8.778028
11.830308
5.874454
13.376922
27.476555
-20.147831
19.255998
-92.857099
7.511941
-3.973279
-4.483764
119.344518
7.560262
5.976495
-4.445768
131.943080
6.536467
-25.978911
-25.264002
-94.459540
-112.223231
-47.517049
104.012045
-9.962845
125.565400
19.909754
-35.218784
126.411742
133.900319
-32.071219
51.912323
46.439996
32.676209
66.603640
56.122724
-130.710629
-33.341925
-12.419762
81.653669
18.600332
36.578925
-14.275518
4.629329
-11.410711
-94.377207
69.577002
120.519771
31.196240
94.043777
120.506033
94.836170
-15.322199
-20.302349
-33.628499
-73.043636
27.001994
68.145429
-21.820727
-14.447715
-2.450065
0.001566
-31.853571
-2.820335
49.501096
-23.162706
-37.315443
60.596700
-111.607704
48.282096
36.850300
58.284791
-19.601419
-76.014278
1.448468
-0.875790
12.767074
18.364913
-31.634531
118.471455
-8.496372
-73.004560
-22.292599
88.056788
39.524090
-124.168136
64.387424
-129.808214
98.921666
13.520184
-31.797938
-83.013435
108.843172
106.344247
-125.686426
3.898620
53.912176
36.392742
-38.951852
-67.278753
-17.372041
-12.983557
64.574559
8.599070
103.624260
-15.481971
126.965793
-7.297875
-5.206411
6.825152
-4.518140
9.558347
-60.088095
44.455316
33.206765
24.448182
-49.740641
45.563335
127.917847
62.951364
-35.611556
30.091094
59.377036
72.435411
-53.102216
-63.425588
-36.849029
115.422485
43.954928
77.579684
-40.639657
-85.846682
43.484458
6.523323
28.366067
39.546561
-12.914701
-13.486579
-26.667761
-20.853678
-25.550791
10.649034
16.338362
-17.705149
31.728508
39.115883
4.058665
95.909250
46.732509
80.295763
34.277298
47.368812
12.931552
-133.304179
104.561749
-1.924220
94.906892
-92.625560
-10.264147
80.493745
76.347602
-48.377861
-10.537086
-37.873533
-12.716384
-39.046798
-17.533144
-102.010217
-66.499686
140.623688
-64.060883
111.591969
2.370758
-2.948329
-126.464467
4.405221
20.454293
55.319581
77.999180
39.864109
10.544680
114.298429
-23.611842
-13.519773
-32.036394
-24.085662
11.327349
-1.214604
0.599619
-126.639104
35.786353
56.944271
0.411326
-6.119824
-49.116920
9.107718
-88.982632
-113.438600
28.884316
-109.675871
-129.276908
-41.913936
56.905220
-70.257006
-38.326750
-5.973681
-26.988170
14.925200
17.879931
67.141103
-132.991873
47.951859
-98.001989
-6.399268
-32.235698
-28.149102
31.091795
42.907854
-23.135313
50.656293
92.873785
-137.309805
-45.130446
2.260857
-31.784734
-99.042264
-25.185786
50.090441
25.585780
-7.221301
-61.362214
62.202131
19.302597
11.238439
-15.271943
8.506381
117.773089
55.468767
-135.235996
-17.195928
31.572198
-12.538608
3.322219
-38.219577
-13.372461
8.689215
46.106024
47.331852
76.616564
-3.913976
-3.979079
-62.096734
77.792168
94.145302
-11.307470
85.538995
49.810209
27.804773
-2.178761
3.735935
-52.222216
-65.557878
25.137164
-5.929537
-9.468860
58.410365
32.619037
29.175013
-1.264336
57.191866
-81.645056
72.526654
-3.228282
42.845646
50.570733
-62.824614
-25.585592
-6.719951
-37.372353
-35.825984
-32.396654
95.985586
114.903121
57.961196
24.590394
34.174171
20.997293
19.687463
88.429565
29.644416
-14.953286
14.038003
-3.874597
-24.796062
-61.046577
-35.653419
47.584214
55.858808
-74.062488
-98.640858
-41.738823
-22.330989
138.814907
-6.166561
-11.816102
-14.174255
4.737875
-24.772149
-24.427472
61.134637
6.965214
-32.277024
-126.901229
12.272629
-1.265836
-98.005471
77.199945
49.269817
16.321204
-35.837762
-114.629741
-21.449918
11.267680
15.839985
17.089277
90.453250
-64.074987
-18.041132
108.273395
51.750977
37.611088
-17.390206
-124.290818
-27.742603
84.746336
22.971318
-123.296460
117.760724
-74.301199
91.938833
-34.107801
58.726075
-35.633404
37.313708
5.523649
-27.641008
11.874521
-25.639921
28.901606
70.334998
92.518555
-24.561234
84.908112
-3.644235
19.370312
-92.484727
-60.990156
-106.459104
12.807763
38.364597
25.307033
-67.044926
1.952683
-49.417740
-10.183419
-20.625277
39.450950
-1.193026
-9.362291
55.795326
-13.709311
-45.028565
104.231035
74.106652
5.208295
21.449022
39.977043
-56.007971
-64.727865
16.547999
-68.969441
-36.548669
58.518607
-41.899619
-82.974740
-56.994238
-67.825983
22.670000
13.004051
-24.585056
-3.465339
-104.289261
-125.549168
-93.287697
24.542058
-25.530586
-105.186246
-136.634464
35.410891
-16.973202
3.047545
-14.515221
2.071161
19.627141
37.328753
-15.521480
-5.015314
3.766480
7.481864
-85.501094
-19.054728
-48.892816
16.860574
-13.371292
-7.591182
92.520637
26.549230
41.402070
-5.306402
-28.986645
-43.525936
-14.156539
-1.054583
5.030639
-102.319230
9.361495
-21.802990
-125.818886
23.786415
57.665010
81.175489
-76.328733
-121.920550
-0.311884
21.109546
64.869010
135.144261
124.411092
11.654420
-29.048162
7.221274
92.934448
93.257002
27.021251
7.926292
-119.113145
-106.943229
75.589770
-47.247378
-9.869177
-128.458556
-2.581985
-91.361457
52.653495
-3.715663
95.733818
-15.257252
40.433301
33.028524
14.434122
25.130340
-65.101390
31.010242
-29.976072
-9.389638
-5.682261
-94.609745
0.440318
59.976025
14.813218
-87.534390
-10.800717
59.878637
33.863963
-59.372333
-72.609352
-84.205411
-7.001046
-61.142527
-47.951156
-101.283900
40.089192
68.341613
72.007713
-107.143424
117.074997
-90.270966
48.174856
-75.070473
13.984165
6.562246
-16.111181
-7.832769
-26.357955
-69.815376
-5.611144
-19.941828
-61.917183
-84.178003
17.187119
-83.614646
32.163504
-100.037265
-17.783991
-11.896875
-7.399855
11.891730
59.139354
-0.000033
13.120698
36.246976
114.067581
-17.355156
-2.808294
-12.429951
-16.172683
-71.739636
-129.181568
88.779362
13.626091
-30.253360
-8.171555
60.478188
25.329800
-28.901191
-124.196023
-57.187176
-3.025705
69.940920
41.172784
-93.982136
20.806540
-97.327245
-4.819860
-50.309435
18.090265
27.463344
66.784708
28.590693
46.399392
-2.084743
-116.980014
28.371950
44.286551
-0.662123
20.685295
22.351538
118.109392
22.370440
9.052412
36.417387
33.847600
15.129032
-35.638072
13.701715
12.686627
71.460168
-11.730671
-72.521824
-128.437021
-57.844670
13.177334
85.902201
-1.454423
-17.025501
-130.652491
86.237021
-4.139636
11.828669
-121.168983
-114.364559
-65.286297
9.053678
72.128902
-2.593244
-27.934029
16.879014
-54.750835
-89.713710
-43.820777
5.854053
-16.870773
38.735293
-7.752591
-107.128621
-40.147077
-48.076099
1.902905
-26.253761
-101.686969
25.817225
-16.323699
-10.418025
-6.509176
-19.259381
25.607931
12.547834
80.667959
-124.323805
13.386297
-11.504921
37.977562
-1.143648
126.748765
12.600043
-10.896472
29.197422
4.643617
-6.948711
-127.674778
-19.940714
44.196261
-5.159093
41.955329
-14.327896
-90.672267
-71.927121
-12.787036
43.076865
-16.994855
14.176809
-69.237255
75.915197
-105.627601
-26.532677
16.269695
-23.204056
-70.297209
-72.084032
-98.948931
15.835733
47.926545
-9.737960
9.963966
72.688922
47.946239
134.107965
-10.946111
-38.984810
61.418773
-112.817074
5.728514
-131.780226
11.663496
-127.396576
-23.739399
42.616980
112.861605
35.682807
23.305924
111.937455
-11.336275
-10.833558
-47.848660
-93.595702
1.860662
-56.475919
-39.388376
36.200575
-6.736609
90.797216
22.568267
-62.975645
-0.000162
-96.930527
17.538871
-26.719567
23.517487
14.263401
-5.207879
4.514272
-3.939357
14.008596
11.373335
-112.194595
14.350313
-33.836133
-34.761478
13.846762
29.261659
-1.860417
133.710769
19.338413
30.555306
-3.610331
34.309160
12.940585
-12.164305
-10.510449
16.085085
-63.720461
130.299865
-109.880735
-63.059079
-94.851304
-77.208306
125.693890
88.060994
32.156754
-12.417460
2.858591
-32.641582
-2.663038
51.037763
21.683928
-12.302543
-2.698932
77.490842
-8.883031
102.374287
-73.916484
-4.697355
5.961201
32.265180
29.035087
-124.226188
-8.317255
24.793245
-59.099026
-69.022674
-27.610587
-4.383891
31.908019
20.831378
40.602906
-40.092855
23.315359
109.136613
124.371348
122.031161
-3.884476
21.312910
34.632962
-91.839150
15.972640
9.538124
6.027977
-78.310495
-138.772574
-44.570625
-17.747524
-15.062062
-124.971726
13.616597
10.711657
-90.116118
-73.198991
20.355735
3.089908
1.988699
15.195084
11.707898
-96.450290
1.166426
-39.976952
3.644152
-137.487272
-34.431862
133.787996
-113.577080
9.483893
-24.171333
32.894271
-24.052730
-22.616823
85.348960
4.733847
-114.613321
-17.961583
20.040453
-20.102110
-6.270516
-79.613421
55.607598
-4.190926
28.775795
15.271873
-1.129278
-4.480392
-20.749652
-122.978994
4.445473
55.746363
70.215762
-26.243042
27.234352
-91.534709
11.768744
-32.122674
32.302585
85.188404
-110.006270
-80.102367
48.431223
2.999771
58.687284
4.488522
28.813470
17.193726
-28.162809
-15.941096
39.692479
24.050509
-1.236819
18.672619
10.620517
-13.864420
25.536765
-13.558600
135.282027
17.902420
-132.209879
8.328857
-1.203216
-62.682660
1.042206
-37.095069
-31.077766
-7.578263
-9.586778
-35.897437
11.399343
25.486909
57.669538
43.390023
108.792637
-85.876607
69.343400
-108.844286
6.327113
33.758488
-96.603182
-102.348043
-2.170189
-113.251823
-92.802782
-43.190273
112.912890
2.207803
-107.763443
-43.366945
32.061303
-11.833314
15.759517
-23.024439
-2.960715
58.765589
103.559771
7.429398
-26.599847
90.576754
-17.648681
3.284493
41.215903
-116.188145
-38.800967
-79.771907
-115.270253
-38.788543
-2.429359
63.079121
23.199771
-1.724920
-95.487966
89.540783
100.808528
59.303142
-101.696087
137.798197
73.757483
21.834116
37.388685
-56.959965
61.660047
25.510055
-19.396933
54.401771
26.045855
-39.362328
14.707856
103.432629
56.609224
-9.240617
4.663325
83.411277
63.482972
-54.185524
10.390610
-8.881885
25.276122
-130.294927
-68.575462
-8.877128
58.032030
-31.497600
-0.539487
28.934000
-0.001387
-64.860113
52.354268
-47.579002
58.362446
-22.896665
-43.113048
2.619421
-36.085067
-9.483127
-107.859404
-45.564937
16.111120
24.381518
-34.301450
-6.874663
28.828250
12.177038
10.201711
-35.883539
3.638798
21.940412
-16.884806
-15.835721
17.014605
19.005501
16.539994
103.236894
139.093447
-14.499934
25.634076
-29.785067
-30.492589
8.177303
-49.490678
-34.867743
9.262715
10.010159
14.965616
-37.558367
-11.641996
-7.175257
11.494692
-76.841528
8.061365
-53.397426
-68.941292
-13.528227
-10.621640
120.451145
2.596217
72.668733
32.920461
-26.396499
-45.136658
21.453393
97.688491
-77.790687
-54.637885
22.317596
103.864318
5.593002
-0.943808
-12.898094
-13.098227
22.251216
45.892073
-5.258526
104.043038
-12.039941
36.431253
24.943701
64.710818
-140.368214
-106.478876
-40.729130
24.761594
-88.078885
112.856703
113.423272
-0.467931
-7.844977
-77.201619
-38.543394
49.487726
12.636166
8.609282
-24.510719
5.648501
-2.185875
38.566482
18.064298
-10.929300
-139.864815
68.491973
-17.944737
41.415256
-51.261331
-94.400903
-41.935589
24.632052
21.845151
15.629882
-59.784505
28.207671
15.481941
61.030690
12.039921
38.050405
-10.362995
19.932967
33.330155
89.951608
-110.237370
-0.879858
-28.580051
129.067693
29.186789
-40.126897
54.369354
20.186528
-16.613247
-13.305965
19.095287
120.925105
-91.113521
-40.374362
16.588191
93.223275
-12.679742
39.341726
3.220298
123.215809
0.938980
36.981251
41.246965
5.087122
0.000117
-40.303465
-32.778938
2.038652
-50.118504
32.715922
-50.806618
22.077427
80.350133
94.222686
45.488723
44.628139
-60.982608
-89.866900
33.729074
38.777807
-6.236331
85.740225
-1.392275
33.312746
-39.343776
-29.651254
-3.291088
-140.613402
8.375992
0.659074
108.223082
35.127613
6.725436
-17.870029
21.110925
-9.993447
-140.177589
-13.210066
-50.206292
-94.766151
-56.655370
-80.388575
-10.739776
6.564703
9.797180
17.967186
-45.781390
17.816343
-49.167043
-18.140327
-3.980810
-0.458103
23.973320
77.146053
-6.619079
14.350720
-17.696828
129.951731
17.959651
-15.933210
31.517811
25.520589
-67.832714
27.722684
7.042841
22.694193
-5.913501
76.981329
-18.247772
-21.891264
11.666030
-12.943699
6.691938
-30.099382
-26.581002
1.171265
101.214050
-92.244176
26.208511
-29.020476
-12.054097
-9.585584
50.378767
57.689977
12.306212
-74.239303
7.944668
34.954011
-77.292244
29.233612
-53.057620
-42.578563
-79.839860
16.677034
-6.378096
22.918949
124.609544
35.497667
-58.753114
-35.499898
-9.225362
45.068806
-112.763604
127.261487
-44.234140
-8.832689
-71.794558
23.937738
16.842251
18.925383
-96.872975
-31.219725
15.160923
129.829391
7.723947
-64.811312
35.748378
33.498196
44.806803
27.466791
-26.813442
-45.932968
-72.752078
42.640630
-39.171284
-57.018314
46.673449
-129.238268
-31.160713
-119.445976
-1.334874
93.210972
-27.090589
32.321977
-97.176256
-131.102428
29.099525
-113.418555
-95.237501
3.399031
-1.734660
32.656403
-36.611946
-9.490104
-13.838378
-89.207864
54.712217
19.827035
59.761151
23.426325
1.143207
-5.703952
-0.000067
-64.378745
7.180475
-76.963793
46.052423
-31.023734
-3.108096
-44.822659
-65.038740
126.206499
-3.573964
16.754255
11.639465
-61.651134
-2.890685
-128.310553
-7.920321
63.882372
-28.232137
-6.814266
39.620042
16.974555
-1.196808
-1.105836
107.757378
35.054539
127.594602
-11.846611
10.587070
-13.481309
2.378270
121.466844
130.669014
-13.271599
-40.225833
57.936443
-110.003811
-5.731602
26.498748
-49.798961
-69.084812
23.919291
-110.192152
-12.110292
-65.282938
-40.375790
72.803846
119.757152
-124.101706
89.372729
-60.449836
-52.294647
-77.019866
-41.640376
-46.748051
103.171632
-31.403697
-41.805541
-71.439661
5.514902
-44.338184
-13.367503
-10.694970
-76.717566
13.578421
-28.216991
4.025732
-7.651743
131.776640
-33.685947
12.407268
-12.686256
-7.758898
82.633706
8.479852
-8.526584
-41.445573
-1.897076
122.712218
29.856167
-9.803233
-39.087100
-9.134016
32.345979
-5.404383
-31.781164
-77.127921
111.370751
-20.535428
4.796848
7.999568
-39.843938
17.129163
-132.975064
-17.114591
-56.216752
79.825765
-21.451483
-21.661345
18.108838
12.962853
57.785137
-48.910033
-130.210329
-8.399166
7.879282
5.032788
-57.738337
-30.151830
12.207115
-11.998164
1.490405
-108.754064
92.082981
-64.021689
0.899317
124.343567
-46.659492
-37.251999
-14.707765
-117.576395
31.406871
-34.124729
-118.861056
-22.963311
-88.063290
19.939630
-8.717081
-117.080045
71.251035
38.196113
53.587607
-34.969664
6.441098
12.886066
30.313210
0.962754
22.227301
-18.913084
-35.233764
1.191578
-32.331842
98.995877
-17.144991
13.341609
-8.965013
83.325993
33.390328
18.800716
37.478325
-17.345642
32.867284
127.219448
-36.312308
-123.158398
10.507175
-62.173642
-1.822437
37.571437
0.000070
40.106591
8.361841
-39.523156
-87.288954
8.309495
-27.769312
-62.415996
-61.748567
7.297537
-36.747048
9.465408
27.906992
12.447251
29.179174
-60.757065
-65.938933
-5.208370
-138.466174
8.557086
96.059990
17.193975
-10.248754
-12.424684
-15.257692
93.342692
-31.428112
-55.506027
4.480646
32.067398
52.770437
-1.988851
31.599833
67.230278
-55.956749
-118.976983
50.495949
-111.230997
-50.900169
72.309275
94.189045
-123.376777
-127.158122
-25.145065
-8.559164
11.856519
-114.593981
52.987913
-1.592709
97.040229
-133.418238
17.350788
-133.121584
19.179076
136.081899
94.911421
8.491194
-36.824768
-37.609322
-59.984454
30.714575
-1.884503
-23.622397
-9.933627
-11.401324
3.714809
85.676658
5.812932
1.149507
2.468241
32.872755
3.909170
27.942411
27.741102
19.277105
130.024156
36.238881
-17.473767
-14.256724
-57.548943
8.824910
79.004912
8.493943
-57.159974
-28.560510
-2.087387
-117.275199
-31.040658
19.557571
-12.648098
-29.386590
14.206199
-10.277308
104.189575
-30.759876
-93.060707
-13.203147
-104.201202
-127.046089
-29.355732
-32.785210
-58.817870
-115.194944
-5.000088
-13.978438
90.900469
10.594724
34.324170
24.951217
29.505715
33.636688
122.579136
14.447673
-42.333133
-42.480444
-122.848331
13.168926
-2.674878
-121.574880
-60.689548
127.460682
-134.423960
16.944379
-44.780198
-128.670401
-55.712557
13.382763
11.299321
-5.661583
-68.332694
103.417923
-7.827360
-95.492806
-16.498910
-19.710631
-20.925067
104.148560
29.857194
-12.286151
-104.125398
31.872037
-16.069812
7.450388
-23.913714
-8.568992
17.758408
0.944017
7.378367
33.153812
17.248383
-52.478310
57.936713
-25.151234
-58.290723
-18.573372
-108.748303
-59.363906
-5.675766
-12.819727
-26.078529
32.268586
-4.423397
-104.427230
7.227043
94.775387
39.840397
30.910194
-48.922358
-128.302507
-100.407825
3.884372
-4.325889
24.787515
3.184680
18.963748
20.375837
-25.541532
34.310629
-43.808506
8.934209
-12.684153
-3.774592
57.280491
-8.059970
9.509617
116.250674
29.265753
-29.853452
33.632534
-111.668573
75.593427
-12.636589
-0.402269
-112.181513
-13.153750
-17.547676
99.121341
-5.718384
-8.356270
-13.751249
-3.597302
3.231970
25.324554
25.690984
12.151250
33.638914
17.871828
18.841760
38.059891
-16.900667
100.460147
-1.192438
-71.583221
-2.521328
-6.066069
107.951804
-0.899150
29.036582
-14.486919
-20.907592
8.248363
13.838761
6.882185
35.516910
-11.838367
-80.539476
122.998020
9.968415
-133.782396
-8.225657
99.007438
2.172358
119.889522
33.092966
-39.667130
-4.666451
3.597246
-121.740676
-120.637760
-125.300731
28.758154
-77.345783
21.696517
28.568627
12.430623
-2.492048
33.572132
13.068970
8.488917
-70.898608
-122.860484
10.977207
9.747581
-9.578400
32.777738
-29.705068
-73.338379
71.024079
25.590635
22.068634
30.873025
10.131475
26.645154
42.620061
9.107509
-6.321234
4.401348
-38.245480
0.859251
17.842563
7.975899
-6.312870
2.574809
-8.479458
-64.183396
-4.128856
-9.853248
-44.179120
34.069651
-10.152814
53.710311
-28.728851
-9.044062
-9.623209
-0.856693
-16.183932
-62.463910
26.762139
-75.377864
39.744004
112.051981
8.833265
-19.253271
13.638277
29.128949
-15.437712
84.330454
-38.092207
-64.214217
11.131038
12.264486
57.440211
5.051116
97.741333
-26.276030
35.389883
12.477234
2.365436
-69.187171
-57.656642
15.391472
-2.506358
-0.513248
15.787294
-25.859123
135.252117
11.539359
-53.289681
-2.705128
-4.139337
-1.152786
-37.424231
-6.212409
-139.418559
-3.175464
-80.632933
53.477292
-32.952486
32.841379
0.345839
56.017850
13.306380
26.505328
9.612301
34.204181
-4.307629
-108.686608
-14.666754
-82.652516
6.239591
72.077162
-1.079889
-42.607695
-72.551958
-5.364291
-11.122747
10.836490
-31.963986
48.899928
3.671576
-76.668746
-65.052749
36.167489
-10.931701
1.547369
-70.537256
-21.787474
-58.027099
21.541322
4.703504
-64.228762
-18.231909
-1.377579
-3.768175
33.175976
32.565122
22.696509
-1.644478
17.069556
-22.306979
-122.735804
128.632809
-37.558252
-62.949554
31.689404
4.252065
-24.749331
-9.231131
-22.278565
-10.736703
33.674074
-10.206925
32.223934
-9.163967
-9.379569
-11.751511
-4.406820
-112.622139
-9.114940
-41.466420
8.343471
12.711187
-13.534586
7.679670
128.791355
15.134754
-105.091107
-40.389164
-72.315012
-71.125876
-119.539463
-12.018033
18.591364
-129.017033
-65.266051
-0.546629
4.250651
-29.611953
116.843186
-21.390308
-72.070193
-74.030592
-31.721439
0.398823
-59.524541
-4.915089
-9.460516
-75.926760
-63.632397
-11.185288
93.104463
81.394929
-95.440505
-6.417757
-137.053925
32.392423
-11.255365
-2.574847
40.635706
-13.274453
6.776321
18.001030
136.939434
128.343548
-129.179852
25.367538
96.288821
-63.290939
31.148248
-12.452084
-11.107875
-70.402543
-1.984933
-4.965554
35.402705
-11.872968
-81.184972
-68.933934
-9.047592
-115.287666
16.900329
-62.023388
19.396574
64.612381
-108.291585
21.048293
-11.912747
7.826653
-40.862298
-63.187167
-35.984506
-9.768950
-127.516605
-64.643036
-132.767536
-7.421537
-55.306959
-15.505394
16.202984
20.246237
0.171809
8.834076
-112.866778
-113.822369
-54.065039
32.266197
-114.496341
-7.363335
21.917961
-50.420029
-63.813075
23.039039
-25.364350
-22.892891
-117.605636
-0.515498
-56.435374
6.512220
23.611475
-4.881217
-7.341984
-8.471249
15.983475
28.264075
18.444707
-43.776975
-134.310972
-67.613064
-58.445895
-42.581572
-110.240683
-13.875752
-7.687967
-11.778618
4.515547
8.742664
-43.198997
-25.369523
27.423973
-68.537890
10.599437
-7.822392
9.318048
3.893870
7.303375
88.941251
4.918816
-2.795512
-64.476145
-134.632948
-4.316272
51.561121
-74.346812
67.124233
-46.555905
-51.300682
32.137723
-5.714893
10.382392
-129.483810
14.006948
-60.848348
-134.340758
29.185495
-1.911178
-12.333482
-4.778444
-1.980535
15.650817
-55.978170
-11.609421
4.876106
12.715143
-9.161909
34.748221
32.396538
-72.184416
-64.687498
-24.814113
-119.206040
-65.171238
-125.052994
-12.161629
34.093608
-128.618932
-7.122281
-18.581409
-70.710334
14.499651
-2.057638
57.853774
-55.659332
-59.788717
1.027307
18.824395
4.116406
99.645383
-10.056739
30.719586
-60.086674
6.027645
21.054037
16.905304
-121.379043
-36.863501
-53.483430
-85.968534
-2.275556
35.005668
-7.918223
18.581122
-10.826234
-66.833542
-119.432010
-35.521559
29.910602
-11.083914
31.504252
-115.707367
-6.951974
-10.362593
-130.802793
-72.446941
52.967518
-13.868214
33.248485
-60.303624
-8.236890
-13.246187
1.028753
-16.905607
22.616533
8.617437
9.051666
-44.024387
-8.556516
27.768935
0.627868
41.362562
-5.014307
28.224126
-58.840699
-61.280449
-65.021076
-51.904333
-17.130254
-10.573647
28.228439
-24.223768
-2.513636
-0.000013
-93.217052
27.449388
-5.283200
7.583016
-44.299278
-41.124781
29.079207
-37.915597
5.633376
2.236681
-122.946573
-60.373342
-10.533504
-5.868709
9.330487
-66.238933
-9.797629
30.234608
26.582744
-68.959803
-15.476099
-65.154237
43.689634
17.325373
-7.273386
-126.042507
8.509146
-71.531304
-8.560343
6.083180
-67.030533
31.342567
5.818625
-6.565321
-53.424635
34.233982
-9.305011
-64.485885
29.179422
-13.850800
-132.173692
-36.292502
-10.774399
-7.220912
-49.517144
6.309357
27.349038
4.473105
5.297216
35.434938
-66.977705
25.150922
-2.572783
-67.903608
-9.658494
25.659451
-59.618541
1.184680
-66.042607
0.664876
-72.690180
-40.184748
26.646829
-1.902992
17.388885
33.299040
7.068802
25.144713
-9.215057
18.969560
8.475414
-5.197062
-75.629449
-79.012924
-119.254283
46.315282
31.239933
-72.054092
-68.151759
23.558369
-69.562281
-59.199150
-123.449703
6.775729
25.163243
-113.436772
-66.840953
27.281824
43.256240
-124.240749
-3.273979
37.192100
-44.862568
3.620713
44.407432
-74.582523
-65.405781
-119.393291
-68.136340
-107.418159
-9.687323
-111.712883
-0.183476
-3.186950
-59.900255
-75.211249
4.406744
9.130716
-63.729606
-72.374452
-67.984693
4.769023
29.037889
-71.613296
32.940252
1.541896
-1.365005
27.102852
-64.174642
-11.415421
-68.807760
-114.327566
108.097972
-68.904570
-77.253437
-79.930600
6.522468
3.774529
-7.400619
-64.685902
-127.249784
-44.962554
-77.212417
-83.519868
-73.242272
-69.139925
22.277666
-117.486590
-72.809160
34.443607
-72.661648
-11.396993
-10.983260
32.782648
23.174853
1.259453
-133.071527
-121.119129
-7.593258
-62.715518
39.098430
-1.960166
-2.927721
-6.832984
1.891844
-129.821024
-76.762976
8.178885
4.203678
3.093895
5.577884
-2.236722
-74.919154
-10.518883
-66.715247
33.865317
7.014119
36.864687
-84.645190
-67.540541
26.595576
45.540787
-124.470043
-130.593502
-133.787337
-76.394163
-6.373616
0.513461
21.669832
-66.456514
10.519262
32.467327
-10.716871
-70.047807
91.156263
15.321673
5.563754
-0.000016
14.434790
-10.334968
-128.776413
-2.300942
20.726841
16.385991
24.953119
-111.687673
-47.132774
-97.186272
-9.049741
-121.825603
-134.628013
-128.961060
13.918631
5.948924
-77.069884
15.949374
-70.121538
-126.749644
-69.172953
4.744105
-0.513489
1.169375
-131.373915
1.995474
-44.225763
24.223831
-123.912419
-9.554688
-7.126093
-131.734291
-71.620890
-5.994104
7.795443
6.215210
-64.333599
-10.242784
-3.093938
-4.664965
-14.656382
-68.290854
-6.874015
-0.398864
-62.935999
-3.143598
-130.476633
4.506845
-3.615302
-12.829587
-10.140705
18.138924
-75.250099
-3.764003
15.504184
-68.869277
-0.171827
5.040389
8.716581
-10.777364
-68.707632
-51.097840
-136.637120
-125.822066
-123.391808
32.950746
-131.106585
46.828837
29.886108
-75.573313
-126.598051
-68.171585
28.214618
-4.099656
-122.024832
-64.712215
-99.009786
1.203192
-4.495035
5.683498
6.018625
-3.427951
-2.431607
49.399307
-3.371279
36.636627
-68.609362
4.508322
36.832827
-69.593898
-85.422673
5.196982
-119.793121
4.666383
-121.406427
-2.908289
3.785459
-117.230937
-1.995520
3.461639
-3.445801
-130.192863
-76.868207
-6.417502
3.788351
-11.613304
-4.128587
-79.515738
-83.282844
-131.209821
-136.064584
6.951818
17.162700
-5.970640
7.593071
-71.469697
8.236667
-94.205834
20.604454
-72.502927
10.140506
-71.563373
11.833036
3.273906
1.255958
0.231616
9.531516
46.741788
-6.527478
-58.246422
-77.363727
1.884464
18.230014
9.304842
-119.399604
-8.313402
12.899898
-56.867697
3.110392
18.365359
-90.104243
-124.418278
6.224104
7.121818
2.057604
-130.345732
-6.246880
-5.646298
8.882767
-10.275711
2.513591
10.183049
3.430939
10.983024
-48.057127
-134.140177
3.615252
-123.940171
0.997506
-125.439952
16.863290
2.682848
4.139279
-44.251569
5.202279
7.474309
-5.233967
2.780469
6.544167
-116.854326
-134.281267
1.402336
12.691204
-131.107664
-136.572416
2.431649
2.581935
-2.160392
5.675658
46.150181
38.248277
10.799002
9.230131
18.052220
3.047133
-4.401412
12.635982
4.316146
-1.255993
-1.891879
5.014129
-5.211315
-134.741632
6.312739
5.731507
2.795462
29.353319
-131.404356
2.296323
1.534473
6.769469
-52.973946
23.203631
-65.401539
-128.904551
6.814135
6.065776
34.217417
1.923311
2.096066
0.515479
7.363180
7.651622
1.747388
11.871984
31.719294
1.196766
-115.647859
11.400866
-122.722757
12.731780
4.664815
-127.899680
7.918042
6.417415
25.067511
6.270404
1.049637
6.832882
2.927660
-103.815327
-133.691336
8.479245
0.690873
-0.370070
11.036790
11.254027
10.837483
17.129544
0.914432
-6.784431
3.968118
4.164853
22.961685
-101.774183
18.914743
5.364080
-45.256950
0.902571
-135.272294
-55.548256
1.153471
0.327744
1.105418
21.637358
13.485778
22.304933
1.152517
-96.732361
20.534048
20.962276
-7.011617
-0.715363
0.762313
12.155417
13.558216
-100.778736
-132.845590
-0.784679
5.714643
-78.340666
-127.447763
-126.864905
12.161031
13.253868
30.520865
25.864334
14.155614
12.012925
9.577296
0.375917
16.659600
-0.016609
-88.977870
-95.767465
35.965819
-84.002067
12.819035
-0.016111
19.599215
16.219650
-88.621040
11.568682
19.709179
20.906355
-128.667780
-1.168095
8.318127
-136.962830
27.385985
-0.399226
13.280369
-71.454602
-76.234462
10.262858
-136.920243
-129.448204
-1.062967
-126.887559
-52.298518
10.930327
14.828464
-40.158938
-43.073251
26.016238
47.766469
-115.727102
-3.684065
28.584995
-1.750269
-106.416797
-51.755489
-58.093425
-114.526518
-100.637582
-121.634274
-128.350028
29.860648
-1.409921
-110.683736
-1.930424
10.206585
9.444741
7.826746
-129.149709
26.076047
24.815554
-3.327239
-2.777022
11.055778
13.081785
18.988593
47.598763
24.843645
-1.545836
-4.501071
-2.684728
9.047343
-5.075742
-3.779985
-111.067543
25.186899
-126.697189
-5.433114
-70.375684
36.825235
-91.313819
22.015826
12.432132
12.061320
-119.046513
-4.519420
-4.227116
-5.644997
-112.042854
-3.654043
13.093618
42.616379
-105.416802
-4.762487
17.545958
-7.147245
-5.022473
-5.358332
-5.351513
31.425807
-4.736019
26.283321
-6.548194
-1.686353
21.389102
-7.484682
26.255940
-3.953961
41.131287
23.911955
-4.403971
-6.784676
-6.875286
26.730991
-6.158363
-49.976719
-107.264269
18.911632
-8.068365
-7.731998
-99.166712
26.590206
13.270904
-7.075832
-82.798745
26.617460
-50.784178
22.891314
-64.187244
8.530423
-7.827703
44.103096
-47.455269
-90.448303
34.182217
-109.147509
35.777447
-103.421371
-116.111453
39.671744
13.214334
-47.865459
-118.169295
-3.046876
31.217952
-4.156289
-124.310589
-1.865421
-1.882508
-47.709306
-46.875070
-72.089371
-78.676821
-70.774740
-79.502663
-61.864396
-69.690044
-0.128788
-53.750303
-55.727619
3.235496
-0.188458
1.385471
-3.114990
-2.394066
2.995270
-54.301961
-46.340069
-52.897739
4.903265
-53.931130
0.066434
1.649636
6.686321
-60.453210
-44.417607
53.551506
46.342872
15.284061
-5.498015
0.494613
1.574953
35.873074
31.503429
-10.070748
-13.371684
6.147319
34.068740
20.842836
-3.235328
-37.155919
-20.696134
37.184963
-21.406384
-16.373858
16.493242
2.401737
-67.146891
-59.471676
-6.938176
-0.360964
-25.454104
6.058062
-2.190130
0.718079
12.117193
3.132704
-2.979975
11.291845
-66.758375
8.717170
-0.150765
1.094046
1.114693
-1.661640
0.507857
-63.046639
70.636609
-5.144654
5.041358
1.953405
1.306094
-59.030018
-64.978834
-72.629914
2.633766
-49.143637
3.208128
4.240492
-16.478797
-1.827710
10.877242
30.983567
3.419052
2.021711
-3.645602
-6.580974
15.495990
0.487753
-0.290309
-27.894412
33.943264
69.869637
-13.757274
6.561888
-1.160502
-10.725921
-50.530763
1.546878
-4.921130
27.897293
45.816327
4.435244
-0.269668
21.910469
3.395997
-4.592766
-6.426123
25.809030
35.184488
-11.211992
-17.583953
1.209054
28.921155
-14.153293
13.808138
2.751316
-9.561627
21.814892
-7.795090
7.659945
-0.842164
28.835495
36.656985
7.364989
6.915768
-7.995347
-5.136827
-0.047923
1.139204
-1.861813
-0.869254
22.349874
18.392843
-5.678906
-4.148583
-5.325556
4.991566
7.922506
4.566124
-29.338156
-7.909017
5.833265
-18.580914
-53.515110
-12.145756
63.092695
-13.099578
9.432363
20.716805
-0.716703
2.818597
1.419481
-3.476897
0.197873
1.291043
4.870908
-38.312905
-28.451967
28.588293
24.839420
-8.876286
-36.637625
9.592688
-7.274573
-3.179470
-24.991090
24.114646
-23.929844
9.311867
51.399582
-0.969929
-1.533989
1.301512
-5.158222
-14.186263
38.813144
-16.698545
16.335581
-10.346165
10.541854
19.469000
-3.341888
-5.560401
-1.032658
30.310672
-30.379029
-10.982888
4.425362
6.134832
-68.942965
2.354941
-1.582835
-1.557509
0.887190
1.769175
-0.905358
-3.353231
3.220598
-7.378922
-9.324725
-4.583802
-1.287702
-2.240514
2.321051
-0.426216
-3.305603
1.336665
-1.740090
3.108659
1.835547
2.674351
-4.682708
-0.752464
-1.437177
-1.690355
3.706603
3.170999
0.870225
1.424819
2.039176
1.544570
0.783839
1.740859
-0.583623
-2.268542
-1.129508
2.843148
-1.290161
-3.660541
-3.046928
-1.548873
-5.759855
-5.401498
-2.913851
-19.571198
0.627385
-2.102124
14.158314
14.818906
5.172606
-6.003300
22.893215
-23.202970
-1.111166
0.652873
-37.131055
-6.211007
-12.177321
-17.042921
-7.072946
1.457562
1.779333
20.436041
-21.447501
-28.710880
28.891321
0.348532
-3.065425
18.981540
-10.520783
11.280818
46.459223
-1.433167
1.424608
1.726014
-1.544514
-24.779597
-17.215787
-3.057516
-0.441978
10.028089
-9.036108
-1.847106
-35.149920
23.942105
8.672910
6.841350
1.130102
-7.526226
-3.982955
-3.311249
3.060345
0.048164
1.373550
-0.803636
-2.928687
2.827629
1.820097
1.830960
-0.686459
-0.315562
-0.230122
2.705897
-0.239245
0.001523
0.160445
0.809251
0.653150
-0.012903
0.286044
0.059040
-0.137680
-2.216169
3.968571
-1.291567
-2.679357
-2.439252
-4.421560
1.821153
-1.276571
5.279139
43.897200
0.928510
10.923074
0.429308
-0.678734
-55.901151
1.249351
-16.161944
1.704246
-0.480444
1.611822
-3.114995
-5.014475
5.459141
6.555331
3.181651
1.677881
-2.363227
-24.987635
-3.082283
25.046714
-6.529632
37.533063
35.133582
-13.468085
13.406674
-3.874668
-5.635160
-1.951273
-60.875455
13.528735
8.600107
-1.203865
-80.694323
-7.473498
-9.475816
10.823314
-1.854799
-52.695507
0.921584
-32.979708
50.015889
-20.476755
1.716628
-3.364681
1.606701
23.869765
10.311662
-9.559026
2.934273
-22.167797
22.632741
-4.789601
-0.349069
-50.859021
13.506622
52.256664
9.529880
-25.674101
25.847890
-26.180757
-5.933360
5.846234
-2.495707
-6.977474
7.140914
-2.048761
-0.964128
3.832206
33.101994
-1.366400
2.669969
-16.126845
16.250012
-8.457874
-11.190397
12.359581
4.806899
27.750975
0.806871
0.609861
10.842745
15.822764
-3.983604
3.604319
42.910313
-0.114746
-10.371804
-10.083672
-33.835953
23.613408
-13.376925
12.677966
17.339594
30.920467
9.984064
-0.297244
-4.843866
-0.886357
53.013771
-17.315057
-34.412935
-7.223884
-6.206982
6.296398
-34.547133
0.726834
-1.523026
4.159282
-17.801877
17.570789
-13.516365
-6.863718
-0.562902
3.839619
4.087843
5.068481
4.473202
-28.296935
-1.918914
2.422489
-9.027915
-0.665982
-55.919234
-17.355705
6.171678
5.374372
-8.551107
8.409392
2.372653
-26.948814
-27.272473
27.356882
-8.862937
23.927642
-22.178243
1.290313
10.056181
11.041560
43.878745
-1.512323
-0.363615
1.073856
0.841327
-1.495925
-0.690579
3.257512
1.827963
1.695198
1.925978
0.120125
2.243463
1.636292
-0.355941
-0.016834
0.695493
-1.449500
0.391657
0.060007
3.781908
0.495045
-1.361954
-1.704349
-1.622950
1.157025
-2.201413
-2.454031
38.287860
-1.545878
-3.018152
2.914646
-7.755412
49.103004
10.128377
-11.730703
11.777092
21.967126
0.643878
-0.648559
0.001008
-27.300398
27.616313
7.562105
-1.816767
4.308627
-4.431814
3.982184
-3.196339
-4.379484
0.954386
-2.037664
-1.183531
-1.160903
1.086804
1.205844
3.551703
-0.929262
2.597292
1.806921
2.288115
-0.054994
3.177578
3.125018
-0.634056
-0.579978
0.109755
0.642470
0.639790
1.089805
3.693766
0.629874
0.100248
0.732329
-2.385304
-4.549973
-2.068630
-1.501808
-2.455758
0.827091
-2.989667
-4.458701
3.347601
15.765265
17.381791
6.887614
-7.054287
2.885475
-2.433372
-1.978583
-32.721366
-5.587745
-7.870760
-2.315575
-31.798809
21.864568
-33.319755
33.480036
15.655630
2.936816
19.723011
-13.456393
13.520223
38.666367
-4.903276
4.866496
-1.490116
-3.963804
3.960923
-28.243490
-9.272951
40.586549
3.922646
3.521512
-1.155747
-4.273370
-2.328960
1.424595
-0.971372
0.107329
2.511928
0.439251
-1.189888
-0.091925
0.519153
1.201585
1.335907
3.220832
-1.563858
-2.461961
-2.032748
-3.076746
-0.251637
-0.570010
-1.224462
0.413899
-0.266450
0.731089
-0.955667
-0.419673
2.389873
1.903954
-2.564209
2.838693
1.552244
-1.767853
1.009481
1.479650
2.655574
3.714293
1.774027
3.187319
-2.454644
-1.848544
-0.944197
-0.827606
-0.015588
-1.739260
-1.559736
0.128382
-0.731952
0.444940
-0.606750
1.780565
-0.045984
-0.303135
1.107507
0.725232
1.690222
2.099556
2.098693
1.064335
0.101508
0.991558
-0.191218
3.130602
1.783299
-0.173437
0.821414
-1.137813
1.995251
2.744436
0.164882
0.059520
0.352662
1.266597
-1.432091
0.670878
-2.646512
1.677975
0.894983
-3.068193
0.236851
-3.281624
2.985135
0.719007
3.534207
2.215749
2.238841
1.232310
-2.814690
-2.069560
-0.486741
-2.351748
-0.298774
-2.228594
-2.475236
-1.703297
-3.221350
-2.334603
-0.558849
-3.281681
-2.376587
-1.670942
-2.189779
-0.523363
-0.942039
-2.397946
-0.392069
-0.758191
-0.326494
-1.389986
-0.580046
0.481102
-0.343519
-1.032070
-0.487923
0.124520
0.508934
-0.966302
0.592961
-2.582710
1.445952
2.875713
2.959482
0.869086
2.581097
1.437153
-0.109555
-0.615445
1.042416
1.641787
-0.670233
0.586425
4.200612
1.347171
3.233559
-0.187442
0.874473
2.487503
-0.558241
-0.019084
1.524840
1.451487
3.518384
0.719515
2.659877
0.310360
-0.369708
0.539132
1.395243
0.566872
0.744054
0.466032
-0.438216
-1.318596
-3.177329
-3.722233
-1.400844
-1.583651
-2.197743
-0.839953
-0.617658
-2.080263
-2.411569
-4.778977
-2.995734
-2.238272
-3.436314
-3.553200
-0.800405
-0.806898
-1.048157
0.111471
-0.870090
-1.054140
-3.498425
-3.805735
-1.163005
-1.322142
-0.263934
-0.396165
2.357977
3.464956
0.837063
1.396811
0.203806
0.059878
-2.166188
-3.422854
-0.582189
-0.832204
-1.700591
-2.905468
-2.777932
-4.584686
-0.719920
0.773089
-2.634631
0.310012
1.392387
4.514212
-2.358810
-1.092958
1.452120
2.869971
2.250853
2.663296
1.604530
-0.713693
1.552598
1.470235
2.443042
3.166422
2.810874
1.590510
2.600741
-0.127880
-2.098671
-0.854827
-0.529495
0.398265
-0.586319
-0.278688
-1.462114
-0.122747
-1.366015
5.265986
0.671809
1.507625
-3.001617
0.300687
-3.823566
-2.720622
-1.229689
-2.331444
-16.733754
-12.133599
-0.211650
12.285610
6.463409
-1.775667
5.835525
46.637613
1.209078
-1.882500
-1.864943
29.360232
2.991799
21.586908
-7.121554
0.943471
-12.051644
-0.067390
1.864833
12.000213
3.933772
18.672880
2.745902
11.689740
30.433180
4.602770
29.349157
1.371712
1.639165
16.013724
-11.574829
30.979413
-6.059552
-1.781279
-4.627227
11.030868
-7.479272
28.485331
41.765471
-3.370221
-8.115775
3.622141
-3.023955
-2.134805
29.660151
-0.982189
-29.822991
3.206142
-22.461605
1.976996
2.192545
1.393487
18.886507
3.301027
-0.707436
53.380380
-1.780079
22.430863
-9.219962
5.185014
-4.727566
-3.222059
-0.389179
1.665570
0.933523
1.776019
1.428938
1.362040
1.502284
-2.068286
2.011248
-1.807171
-1.035910
-1.815033
-0.116385
-0.154242
1.392099
2.008985
2.146992
1.975329
1.312530
1.926434
-1.377906
-1.078607
-1.588565
-1.972159
0.524700
-0.391564
-0.562681
-1.965337
15.796496
5.948479
24.054202
-1.216312
0.146497
1.506544
-0.605128
29.672027
-1.760771
